<?xml version="1.0"?>
<VTKFile type="UnstructuredGrid"  version="0.1"  >
<UnstructuredGrid>
<Piece  NumberOfPoints="25087" NumberOfCells="49212">
<Points>
<DataArray  type="Float64"  NumberOfComponents="3"  format="ascii">0 0 0  0.75 0 0  0.85 0 0  1.8 0 0  1.8 0.1 0  0 0.1 0  0.009939587277681541 0 0  0.01987917455536239 0 0  0.02981876183304314 0 0  0.03975834911072389 0 0  0.04969793638840794 0 0  0.05963752366609719 0 0  0.06957711094378713 0 0  0.07951669822147707 0 0  0.08945628549916627 0 0  0.09939587277684642 0 0  0.109335460054518 0 0  0.1192750473321896 0 0  0.1292146346098671 0 0  0.1391542218875571 0 0  0.149093809165247 0 0  0.1590333964429369 0 0  0.1689729837206268 0 0  0.1789125709983168 0 0  0.1888521582760067 0 0  0.1987917455536966 0 0  0.2087313328313865 0 0  0.2186709201090765 0 0  0.2286105073867664 0 0  0.2385500946644563 0 0  0.2484896819421462 0 0  0.2584292692198362 0 0  0.2683688564975261 0 0  0.278308443775216 0 0  0.288248031052906 0 0  0.2981876183305959 0 0  0.3081272056082858 0 0  0.3180667928859758 0 0  0.3280063801636657 0 0  0.3379459674413556 0 0  0.3478855547190456 0 0  0.3578251419967355 0 0  0.3677647292744254 0 0  0.3777043165521413 0 0  0.3876439038298989 0 0  0.3975834911076623 0 0  0.4075230783854257 0 0  0.4174626656631892 0 0  0.4274022529409527 0 0  0.4373418402187161 0 0  0.4472814274964795 0 0  0.457221014774243 0 0  0.4671606020520065 0 0  0.4771001893297699 0 0  0.4870397766075334 0 0  0.4969793638852968 0 0  0.5067309463239997 0 0  0.5157711254978494 0 0  0.5241202977806269 0 0  0.5318312802296193 0 0  0.5389528546926976 0 0  0.5455300745089914 0 0  0.5516045497071054 0 0  0.5572147069557104 0 0  0.562396037778403 0 0  0.5671813217260944 0 0  0.5716008310492434 0 0  0.5756825257083404 0 0  0.5794522250791264 0 0  0.582933778518776 0 0  0.5861492110966979 0 0  0.5891188647964261 0 0  0.5918615250678128 0 0  0.5943945443357254 0 0  0.5967339452616621 0 0  0.5988945293659402 0 0  0.6009061908335473 0 0  0.6028941082891001 0 0  0.6048820257446528 0 0  0.6068699432002055 0 0  0.6088578606557582 0 0  0.6108457781113108 0 0  0.6128336955668636 0 0  0.6148216130224162 0 0  0.616809530477969 0 0  0.6187974479335216 0 0  0.6207853653890744 0 0  0.6227732828446271 0 0  0.6247612003001798 0 0  0.6267491177557325 0 0  0.6287370352112852 0 0  0.6307249526668378 0 0  0.6327128701223905 0 0  0.6347007875779432 0 0  0.6366887050334959 0 0  0.6386766224890487 0 0  0.6406645399446014 0 0  0.642652457400154 0 0  0.6446403748557068 0 0  0.6466282923112595 0 0  0.6486162097668122 0 0  0.6506041272223648 0 0  0.6525920446779175 0 0  0.6545799621334703 0 0  0.656567879589023 0 0  0.6585557970445757 0 0  0.6605437145001284 0 0  0.6625316319556811 0 0  0.6645195494112337 0 0  0.6665074668667865 0 0  0.6684953843223391 0 0  0.6704833017778919 0 0  0.6724712192334446 0 0  0.6744591366889973 0 0  0.67644705414455 0 0  0.6784349716001027 0 0  0.6804228890556554 0 0  0.6824108065112081 0 0  0.6843987239667607 0 0  0.6863866414223134 0 0  0.6883745588778661 0 0  0.6903624763334189 0 0  0.6923503937889716 0 0  0.6943383112445243 0 0  0.696326228700077 0 0  0.6983141461556297 0 0  0.7003020636111823 0 0  0.7022899810667351 0 0  0.7042778985222878 0 0  0.7062658159778404 0 0  0.7082537334333932 0 0  0.7102416508889459 0 0  0.7122295683444986 0 0  0.7142174858000513 0 0  0.716205403255604 0 0  0.7181933207111566 0 0  0.7201812381667094 0 0  0.722169155622262 0 0  0.7241570730778149 0 0  0.7261449905333676 0 0  0.7281329079889202 0 0  0.7301208254444729 0 0  0.7321087429000257 0 0  0.7340966603555783 0 0  0.7360845778111311 0 0  0.7380724952666838 0 0  0.7400604127222364 0 0  0.7420483301777892 0 0  0.7440362476333419 0 0  0.7460241650888946 0 0  0.7480120825444474 0 0  0.8519928290587546 0 0  0.8539856581175093 0 0  0.855978487176264 0 0  0.8579713162350187 0 0  0.8599641452937733 0 0  0.8619569743525279 0 0  0.8639498034112826 0 0  0.8659426324700373 0 0  0.867935461528792 0 0  0.8699282905875466 0 0  0.8719211196463013 0 0  0.873913948705056 0 0  0.8759067777638107 0 0  0.8778996068225653 0 0  0.8798924358813199 0 0  0.8818852649400746 0 0  0.8838780939988293 0 0  0.885870923057584 0 0  0.8878637521163386 0 0  0.8898565811750933 0 0  0.8918494102338479 0 0  0.8938422392926026 0 0  0.8958350683513573 0 0  0.8978278974101119 0 0  0.8998207264688666 0 0  0.9018135555276212 0 0  0.903806384586376 0 0  0.9057992136451306 0 0  0.9077920427038852 0 0  0.9097848717626399 0 0  0.9117777008213945 0 0  0.9137705298801493 0 0  0.9157633589389039 0 0  0.9177561879976586 0 0  0.9197490170564132 0 0  0.921741846115168 0 0  0.9237346751739226 0 0  0.9257275042326772 0 0  0.9277203332914319 0 0  0.9297131623501866 0 0  0.9317059914089413 0 0  0.9336988204676959 0 0  0.9356916495264506 0 0  0.9376844785852052 0 0  0.93967730764396 0 0  0.9416701367027146 0 0  0.9436629657614692 0 0  0.9456557948202239 0 0  0.9476486238789785 0 0  0.9496414529377333 0 0  0.9516342819964879 0 0  0.9536271110552426 0 0  0.9556199401139972 0 0  0.957612769172752 0 0  0.9596055982315066 0 0  0.9615984272902612 0 0  0.9635912563490159 0 0  0.9655840854077706 0 0  0.9675769144665253 0 0  0.9695697435252775 0 0  0.9715625725840263 0 0  0.9735554016427752 0 0  0.9755482307015241 0 0  0.9775410597602689 0 0  0.9795338888190119 0 0  0.9815267178777549 0 0  0.9835195469364979 0 0  0.9855123759952465 0 0  0.9875052050539954 0 0  0.9894980341127442 0 0  0.9914908631714945 0 0  0.9934836922302491 0 0  0.9954765212890038 0 0  0.9974693503477584 0 0  0.9994621794065132 0 0  1.001455008465268 0 0  1.003447837524022 0 0  1.005440666582777 0 0  1.007433495641532 0 0  1.009426324700286 0 0  1.011419153759041 0 0  1.013411982817796 0 0  1.01540481187655 0 0  1.017397640935305 0 0  1.01939046999406 0 0  1.021383299052814 0 0  1.023376128111569 0 0  1.025368957170324 0 0  1.027361786229078 0 0  1.029354615287833 0 0  1.031347444346588 0 0  1.033340273405342 0 0  1.035333102464097 0 0  1.037325931522852 0 0  1.039318760581606 0 0  1.041311589640361 0 0  1.043304418699116 0 0  1.04529724775787 0 0  1.047290076816625 0 0  1.04928290587538 0 0  1.051275734934134 0 0  1.053268563992889 0 0  1.055261393051644 0 0  1.057254222110398 0 0  1.059247051169153 0 0  1.061239880227908 0 0  1.063232709286662 0 0  1.065225538345417 0 0  1.067218367404172 0 0  1.069211196462926 0 0  1.071204025521681 0 0  1.073196854580436 0 0  1.07518968363919 0 0  1.077182512697945 0 0  1.0791753417567 0 0  1.081168170815454 0 0  1.083160999874209 0 0  1.085153828932964 0 0  1.087146657991718 0 0  1.089139487050473 0 0  1.091132316109228 0 0  1.093125145167982 0 0  1.095117974226737 0 0  1.097110803285491 0 0  1.099103632344246 0 0  1.101096461403001 0 0  1.103089290461756 0 0  1.10508211952051 0 0  1.107074948579265 0 0  1.10906777763802 0 0  1.111060606696774 0 0  1.113053435755529 0 0  1.115046264814284 0 0  1.117039093873038 0 0  1.119031922931793 0 0  1.121024751990547 0 0  1.123017581049302 0 0  1.125010410108057 0 0  1.127003239166811 0 0  1.128996068225566 0 0  1.130988897284321 0 0  1.132981726343075 0 0  1.13497455540183 0 0  1.136967384460585 0 0  1.13896021351934 0 0  1.140953042578094 0 0  1.142945871636849 0 0  1.144938700695604 0 0  1.146931529754358 0 0  1.148924358813113 0 0  1.150917187871868 0 0  1.152910016930622 0 0  1.154902845989377 0 0  1.156895675048131 0 0  1.158888504106886 0 0  1.160881333165641 0 0  1.162874162224395 0 0  1.16486699128315 0 0  1.166859820341905 0 0  1.168852649400659 0 0  1.170845478459414 0 0  1.172838307518169 0 0  1.174831136576924 0 0  1.176823965635678 0 0  1.178816794694433 0 0  1.180809623753187 0 0  1.182802452811942 0 0  1.184795281870697 0 0  1.186788110929451 0 0  1.188780939988206 0 0  1.190773769046961 0 0  1.192766598105715 0 0  1.19475942716447 0 0  1.196752256223225 0 0  1.198745085281979 0 0  1.200748912638162 0 0  1.20288546443348 0 0  1.205199299294777 0 0  1.207705128061463 0 0  1.2104188818489 0 0  1.213357812369785 0 0  1.216540604460539 0 0  1.219987493828263 0 0  1.223720393159986 0 0  1.227763034966436 0 0  1.232141120812665 0 0  1.23688248446048 0 0  1.242017269350748 0 0  1.247578120948599 0 0  1.253600390288261 0 0  1.260122366103743 0 0  1.267185511970863 0 0  1.274834732580962 0 0  1.283118657571247 0 0  1.292089952249604 0 0  1.30179273530951 0 0  1.311756880603283 0 0  1.321721025897057 0 0  1.33168517119083 0 0  1.341649316484614 0 0  1.351613461778471 0 0  1.36157760707236 0 0  1.371541752366183 0 0  1.381505897659957 0 0  1.391470042953772 0 0  1.401434188247646 0 0  1.411398333541451 0 0  1.421362478835224 0 0  1.431326624129069 0 0  1.44129076942293 0 0  1.451254914716717 0 0  1.461219060010506 0 0  1.471183205304368 0 0  1.481147350598211 0 0  1.491111495891984 0 0  1.501075641185789 0 0  1.511039786479664 0 0  1.521003931773478 0 0  1.530968077067251 0 0  1.540932222361076 0 0  1.550896367654947 0 0  1.560860512948745 0 0  1.570824658242518 0 0  1.580788803536311 0 0  1.590752948830143 0 0  1.600717094123925 0 0  1.610681239417698 0 0  1.620645384711508 0 0  1.630609530005332 0 0  1.640573675299105 0 0  1.650537820592878 0 0  1.660501965886704 0 0  1.670466111180512 0 0  1.680430256474285 0 0  1.690394401768069 0 0  1.7003585470619 0 0  1.710322692355692 0 0  1.720286837649466 0 0  1.730250982943265 0 0  1.740215128237097 0 0  1.750179273530885 0 0  1.760143418824716 0 0  1.770107564118548 0 0  1.780071709412366 0 0  1.790035854706168 0 0  1.8 0.0001 0  1.8 0.00023 0  1.8 0.000399 0  1.8 0.0006187 0  1.8 0.0009043100000000001 0  1.8 0.001275603 0  1.8 0.0017582839 0  1.8 0.01140662711998408 0  1.8 0.02105497033995717 0  1.8 0.03070331355992841 0  1.8 0.04035165677989965 0  1.8 0.0499999999998722 0  1.8 0.05964834321989785 0  1.8 0.06929668643992376 0  1.8 0.07894502965995151 0  1.8 0.08859337287997926 0  1.8 0.0982417161 0  1.8 0.09872439700000001 0  1.8 0.09909569 0  1.8 0.09938130000000001 0  1.8 0.09960100000000001 0  1.8 0.09977000000000001 0  1.8 0.0999 0  1.790017325432064 0.1 0  1.780034650864111 0.1 0  1.770051976296144 0.1 0  1.760069301728178 0.1 0  1.750086627160211 0.1 0  1.740103952592256 0.1 0  1.73012127802432 0.1 0  1.720138603456385 0.1 0  1.710155928888432 0.1 0  1.700173254320466 0.1 0  1.690190579752499 0.1 0  1.680207905184533 0.1 0  1.670225230616577 0.1 0  1.660242556048641 0.1 0  1.650259881480705 0.1 0  1.640277206912754 0.1 0  1.630294532344788 0.1 0  1.620311857776821 0.1 0  1.610329183208855 0.1 0  1.600346508640897 0.1 0  1.590363834072961 0.1 0  1.580381159505026 0.1 0  1.570398484937076 0.1 0  1.560415810369109 0.1 0  1.550433135801143 0.1 0  1.540450461233177 0.1 0  1.530467786665217 0.1 0  1.520485112097282 0.1 0  1.510502437529372 0.1 0  1.500519762961454 0.1 0  1.490537088393518 0.1 0  1.480554413825552 0.1 0  1.470571739257585 0.1 0  1.460589064689625 0.1 0  1.450606390121689 0.1 0  1.440623715553778 0.1 0  1.430641040985861 0.1 0  1.420658366417926 0.1 0  1.41067569184996 0.1 0  1.400693017281994 0.1 0  1.390710342714032 0.1 0  1.380727668146096 0.1 0  1.370744993578183 0.1 0  1.360762319010268 0.1 0  1.350779644442333 0.1 0  1.340796969874369 0.1 0  1.330814295306402 0.1 0  1.320831620738436 0.1 0  1.310848946170482 0.1 0  1.300866271602536 0.1 0  1.291208096716183 0.1 0  1.282288463267615 0.1 0  1.274053462259647 0.1 0  1.266450544589796 0.1 0  1.259431195262359 0.1 0  1.252950620258616 0.1 0  1.246967466140105 0.1 0  1.241443553575717 0.1 0  1.236343631335452 0.1 0  1.231635158028346 0.1 0  1.227288087344267 0.1 0  1.223274678614311 0.1 0  1.219569322275819 0.1 0  1.216148372873299 0.1 0  1.212990000950751 0.1 0  1.210074051812103 0.1 0  1.20738191868474 0.1 0  1.204896421791989 0.1 0  1.202601701178553 0.1 0  1.200483113200636 0.1 0  1.198481969582312 0.1 0  1.196485434668729 0.1 0  1.194488899755142 0.1 0  1.192492364841555 0.1 0  1.190495829927968 0.1 0  1.188499295014381 0.1 0  1.186502760100799 0.1 0  1.184506225187218 0.1 0  1.182509690273637 0.1 0  1.180513155360056 0.1 0  1.178516620446475 0.1 0  1.176520085532894 0.1 0  1.174523550619313 0.1 0  1.172527015705732 0.1 0  1.170530480792151 0.1 0  1.168533945878571 0.1 0  1.16653741096499 0.1 0  1.164540876051408 0.1 0  1.162544341137828 0.1 0  1.160547806224247 0.1 0  1.158551271310666 0.1 0  1.156554736397085 0.1 0  1.154558201483504 0.1 0  1.152561666569921 0.1 0  1.150565131656334 0.1 0  1.148568596742747 0.1 0  1.146572061829159 0.1 0  1.144575526915573 0.1 0  1.142578992001985 0.1 0  1.140582457088398 0.1 0  1.13858592217481 0.1 0  1.136589387261216 0.1 0  1.134592852347623 0.1 0  1.13259631743403 0.1 0  1.130599782520437 0.1 0  1.128603247606843 0.1 0  1.12660671269325 0.1 0  1.124610177779658 0.1 0  1.122613642866071 0.1 0  1.120617107952484 0.1 0  1.118620573038897 0.1 0  1.116624038125309 0.1 0  1.114627503211722 0.1 0  1.112630968298135 0.1 0  1.110634433384549 0.1 0  1.108637898470968 0.1 0  1.106641363557387 0.1 0  1.104644828643806 0.1 0  1.102648293730225 0.1 0  1.100651758816644 0.1 0  1.098655223903063 0.1 0  1.096658688989482 0.1 0  1.094662154075901 0.1 0  1.09266561916232 0.1 0  1.090669084248739 0.1 0  1.088672549335158 0.1 0  1.086676014421577 0.1 0  1.084679479507996 0.1 0  1.082682944594415 0.1 0  1.080686409680828 0.1 0  1.078689874767241 0.1 0  1.076693339853654 0.1 0  1.074696804940066 0.1 0  1.072700270026479 0.1 0  1.070703735112892 0.1 0  1.068707200199305 0.1 0  1.066710665285711 0.1 0  1.064714130372118 0.1 0  1.062717595458525 0.1 0  1.060721060544932 0.1 0  1.058724525631338 0.1 0  1.056727990717745 0.1 0  1.054731455804152 0.1 0  1.052734920890565 0.1 0  1.050738385976977 0.1 0  1.04874185106339 0.1 0  1.046745316149803 0.1 0  1.044748781236216 0.1 0  1.042752246322629 0.1 0  1.040755711409042 0.1 0  1.03875917649546 0.1 0  1.03676264158188 0.1 0  1.034766106668298 0.1 0  1.032769571754718 0.1 0  1.030773036841137 0.1 0  1.028776501927556 0.1 0  1.026779967013975 0.1 0  1.024783432100394 0.1 0  1.022786897186813 0.1 0  1.020790362273232 0.1 0  1.018793827359651 0.1 0  1.01679729244607 0.1 0  1.014800757532489 0.1 0  1.012804222618908 0.1 0  1.010807687705324 0.1 0  1.00881115279174 0.1 0  1.006814617878156 0.1 0  1.004818082964572 0.1 0  1.002821548050988 0.1 0  1.000825013137404 0.1 0  0.9988284782238199 0.1 0  0.9968319433102334 0.1 0  0.9948354083966463 0.1 0  0.9928388734830592 0.1 0  0.9908423385694721 0.1 0  0.9888458036558849 0.1 0  0.9868492687422977 0.1 0  0.9848527338287106 0.1 0  0.9828561989151235 0.1 0  0.9808596640015365 0.1 0  0.9788631290879493 0.1 0  0.9768665941743621 0.1 0  0.974870059260775 0.1 0  0.9728735243471879 0.1 0  0.9708769894336008 0.1 0  0.9688804545200137 0.1 0  0.9668839196064265 0.1 0  0.9648873846928393 0.1 0  0.9628908497792522 0.1 0  0.9608943148656651 0.1 0  0.9588977799520779 0.1 0  0.9569012450384908 0.1 0  0.9549047101249036 0.1 0  0.9529081752113165 0.1 0  0.9509116402977295 0.1 0  0.9489151053841424 0.1 0  0.9469185704705552 0.1 0  0.9449220355569681 0.1 0  0.9429255006433809 0.1 0  0.9409289657297938 0.1 0  0.9389324308162067 0.1 0  0.9369358959026196 0.1 0  0.9349393609890324 0.1 0  0.9329428260754452 0.1 0  0.9309462911618581 0.1 0  0.928949756248271 0.1 0  0.9269532213346838 0.1 0  0.9249566864210967 0.1 0  0.9229601515075097 0.1 0  0.9209636165939225 0.1 0  0.9189670816803354 0.1 0  0.9169705467667483 0.1 0  0.9149740118531611 0.1 0  0.912977476939574 0.1 0  0.9109809420259868 0.1 0  0.9089844071123997 0.1 0  0.9069878721988125 0.1 0  0.9049913372852255 0.1 0  0.9029948023716383 0.1 0  0.9009982674580512 0.1 0  0.8990017325444609 0.1 0  0.8970051976308676 0.1 0  0.8950086627172743 0.1 0  0.893012127803681 0.1 0  0.8910155928900877 0.1 0  0.8890190579764944 0.1 0  0.8870225230629013 0.1 0  0.8850259881493052 0.1 0  0.8830294532357057 0.1 0  0.8810329183221062 0.1 0  0.8790363834085069 0.1 0  0.8770398484949075 0.1 0  0.8750433135813079 0.1 0  0.8730467786677084 0.1 0  0.8710502437541091 0.1 0  0.8690537088405096 0.1 0  0.8670571739269103 0.1 0  0.8650606390133108 0.1 0  0.8630641040997113 0.1 0  0.8610675691861118 0.1 0  0.8590710342725125 0.1 0  0.857074499358913 0.1 0  0.8550779644453135 0.1 0  0.8530814295317142 0.1 0  0.8510848946181147 0.1 0  0.8490883597045152 0.1 0  0.8470918247909159 0.1 0  0.8450952898773164 0.1 0  0.8430987549637179 0.1 0  0.8411022200501216 0.1 0  0.8391056851365253 0.1 0  0.837109150222929 0.1 0  0.8351126153093325 0.1 0  0.8331160803957361 0.1 0  0.8311195454821398 0.1 0  0.8291230105685433 0.1 0  0.827126475654947 0.1 0  0.8251299407413507 0.1 0  0.8231334058277543 0.1 0  0.821136870914158 0.1 0  0.8191403360005617 0.1 0  0.8171438010869652 0.1 0  0.8151472661733681 0.1 0  0.8131507312597688 0.1 0  0.8111541963461695 0.1 0  0.80915766143257 0.1 0  0.8071611265189704 0.1 0  0.8051645916053709 0.1 0  0.8031680566917716 0.1 0  0.8011715217781727 0.1 0  0.7991749868645763 0.1 0  0.7971784519509799 0.1 0  0.7951819170373835 0.1 0  0.7931853821237871 0.1 0  0.7911888472101909 0.1 0  0.7891923122965945 0.1 0  0.7871957773829976 0.1 0  0.7851992424693981 0.1 0  0.7832027075557988 0.1 0  0.7812061726421993 0.1 0  0.7792096377285997 0.1 0  0.7772131028150004 0.1 0  0.7752165679014009 0.1 0  0.7732200329878016 0.1 0  0.7712234980742021 0.1 0  0.7692269631606026 0.1 0  0.7672304282470033 0.1 0  0.765233893333404 0.1 0  0.7632373584198044 0.1 0  0.7612408235062049 0.1 0  0.7592442885926056 0.1 0  0.7572477536790061 0.1 0  0.7552512187654066 0.1 0  0.753254683851807 0.1 0  0.7512581489382077 0.1 0  0.7492616140246082 0.1 0  0.7472650791110087 0.1 0  0.7452685441974094 0.1 0  0.7432720092838099 0.1 0  0.7412754743702106 0.1 0  0.7392789394566111 0.1 0  0.7372824045430117 0.1 0  0.7352858696294124 0.1 0  0.7332893347158129 0.1 0  0.7312927998022134 0.1 0  0.7292962648886201 0.1 0  0.7272997299750268 0.1 0  0.7253031950614335 0.1 0  0.7233066601478402 0.1 0  0.7213101252342469 0.1 0  0.7193135903206536 0.1 0  0.7173170554070603 0.1 0  0.7153205204934612 0.1 0  0.7133239855798619 0.1 0  0.7113274506662624 0.1 0  0.709330915752663 0.1 0  0.7073343808390635 0.1 0  0.705337845925464 0.1 0  0.7033413110118647 0.1 0  0.7013447760982652 0.1 0  0.6993482411846657 0.1 0  0.6973517062710661 0.1 0  0.6953551713574668 0.1 0  0.6933586364438673 0.1 0  0.6913621015302678 0.1 0  0.6893655666166685 0.1 0  0.6873690317030692 0.1 0  0.6853724967894697 0.1 0  0.6833759618758701 0.1 0  0.6813794269622708 0.1 0  0.6793828920486713 0.1 0  0.6773863571350718 0.1 0  0.6753898222214725 0.1 0  0.673393287307873 0.1 0  0.6713967523942737 0.1 0  0.6694002174806741 0.1 0  0.6674036825670746 0.1 0  0.6654071476534753 0.1 0  0.6634106127398758 0.1 0  0.6614140778262763 0.1 0  0.6594175429126816 0.1 0  0.6574210079990883 0.1 0  0.655424473085495 0.1 0  0.6534279381719017 0.1 0  0.6514314032583084 0.1 0  0.6494348683447151 0.1 0  0.6474383334311218 0.1 0  0.645441798517524 0.1 0  0.6434452636039245 0.1 0  0.6414487286903252 0.1 0  0.6394521937767259 0.1 0  0.6374556588631266 0.1 0  0.6354591239495271 0.1 0  0.6334625890359276 0.1 0  0.6314660541223283 0.1 0  0.6294695192087287 0.1 0  0.6274729842951292 0.1 0  0.6254764493815299 0.1 0  0.6234799144679304 0.1 0  0.6214833795543309 0.1 0  0.6194868446407313 0.1 0  0.6174903097271358 0.1 0  0.6154937748135425 0.1 0  0.6134972398999492 0.1 0  0.6115007049863554 0.1 0  0.6095041700727559 0.1 0  0.6075076351591566 0.1 0  0.6055111002455571 0.1 0  0.6035145653319576 0.1 0  0.6015180304183625 0.1 0  0.5995168868000387 0.1 0  0.5973982988221636 0.1 0  0.595103578208771 0.1 0  0.592618081316068 0.1 0  0.5899259481887558 0.1 0  0.5870099990501603 0.1 0  0.5838516271276677 0.1 0  0.5804306777252044 0.1 0  0.5767253213867742 0.1 0  0.5727119126568829 0.1 0  0.5683648419728728 0.1 0  0.5636563686658396 0.1 0  0.5585564464256487 0.1 0  0.553032533861338 0.1 0  0.5470493797429086 0.1 0  0.5405688047392474 0.1 0  0.5335494554118987 0.1 0  0.5259465377421426 0.1 0  0.5177115367342673 0.1 0  0.5087919032858004 0.1 0  0.4991337283995394 0.1 0  0.4891510538315422 0.1 0  0.4791683792635633 0.1 0  0.4691857046955692 0.1 0  0.4592030301275718 0.1 0  0.4492203555595768 0.1 0  0.4392376809916101 0.1 0  0.4292550064236231 0.1 0  0.4192723318556257 0.1 0  0.4092896572876283 0.1 0  0.3993069827196312 0.1 0  0.3893243081516344 0.1 0  0.3793416335836381 0.1 0  0.3693589590156716 0.1 0  0.3593762844476855 0.1 0  0.3493936098796884 0.1 0  0.339410935311691 0.1 0  0.3294282607436938 0.1 0  0.3194455861756964 0.1 0  0.309462911607699 0.1 0  0.2994802370397325 0.1 0  0.289497562471748 0.1 0  0.2795148879037506 0.1 0  0.2695322133357532 0.1 0  0.259549538767756 0.1 0  0.2495668641997586 0.1 0  0.2395841896317614 0.1 0  0.2296015150637929 0.1 0  0.2196188404958104 0.1 0  0.2096361659278132 0.1 0  0.1996534913598158 0.1 0  0.1896708167918186 0.1 0  0.1796881422238212 0.1 0  0.1697054676558238 0.1 0  0.1597227930878544 0.1 0  0.1497401185198726 0.1 0  0.1397574439518752 0.1 0  0.1297747693838778 0.1 0  0.1197920948158806 0.1 0  0.1098094202478832 0.1 0  0.09982674567988603 0.1 0  0.08984407111191528 0.1 0  0.07986139654393476 0.1 0  0.06987872197593736 0.1 0  0.05989604740794019 0.1 0  0.04991337283994346 0.1 0  0.03993069827194606 0.1 0  0.02994802370394867 0.1 0  0.01996534913597636 0.1 0  0.009982674567997396 0.1 0  0 0.0999 0  0 0.09977000000000001 0  0 0.09960100000000001 0  0 0.09938130000000001 0  0 0.09909569 0  0 0.09872439700000001 0  0 0.0982417161 0  0 0.08859337288001966 0  0 0.07894502966004778 0  0 0.06929668644007592 0  0 0.05964834322010403 0  0 0.05000000000013086 0  0 0.04035165678010225 0  0 0.03070331356007286 0  0 0.02105497034004294 0  0 0.01140662712002138 0  0 0.0017582839 0  0 0.001275603 0  0 0.0009043100000000001 0  0 0.0006187 0  0 0.000399 0  0 0.00023 0  0 0.0001 0  0.8499604698612127 0.001987825758675686 0  0.8498419419501758 0.003972508355598183 0  0.8496446036837649 0.005950909601221334 0  0.8493687670944424 0.007919901235160634 0  0.8490148683361018 0.009876369879393913 0  0.848583466995498 0.01181722195346081 0  0.8480752452089941 0.0137393885633634 0  0.8474910065762096 0.01563983038202207 0  0.8468316749013368 0.01751554241054205 0  0.8460982927208922 0.01936355876947565 0  0.8452920196625288 0.02118095736479131 0  0.8444141306128639 0.02296486450871126 0  0.8434660136911488 0.02471245948506252 0  0.8424491680670687 0.02642097898287933 0  0.8413652015856961 0.02808772147709254 0  0.8402158282144307 0.02971005151505794 0  0.8390028653484272 0.03128540385886769 0  0.8377282309355252 0.03281128754675249 0  0.8363939404430695 0.03428528983436345 0  0.835002103647575 0.035705080034141 0  0.8335549213282895 0.03706841316609471 0  0.8320546817782261 0.03837313351938642 0  0.8305037571900199 0.03961717805816446 0  0.8289045998973762 0.04079857969062888 0  0.8272597384811238 0.04191547038911452 0  0.8255717738146556 0.04296608411261248 0  0.8238433749311384 0.04394875961723102 0  0.8220772747686852 0.04486194310089533 0  0.8202762658829765 0.04570419063765199 0  0.8184431960615485 0.04647417045021113 0  0.8165809637620716 0.04717066504429277 0  0.8146925135518589 0.04779257312102414 0  0.8127808314534357 0.04833891131747656 0  0.8108489402245794 0.04880881576112554 0  0.8088998946048485 0.0492015434313049 0  0.8069367764019684 0.04951647335129077 0  0.8049626897489155 0.04975310754572022 0  0.8029807560660138 0.04991107185059158 0  0.8009941091954104 0.04999011649223868 0  0.7990058904340278 0.04999011648486965 0  0.7970192435631003 0.04991107182844177 0  0.7950373098802342 0.04975310750872926 0  0.7930632232355526 0.04951647330051096 0  0.7911001050721009 0.0492015433728694 0  0.7891510594635256 0.0488088156917993 0  0.7872191682474048 0.04833891123837861 0  0.7853074861666494 0.0477925730344872 0  0.7834190359753489 0.04717066495199339 0  0.7815568036815072 0.04647417034824316 0  0.7797237338737355 0.0457041905297194 0  0.7779227250079263 0.04486194299096224 0  0.7761566248524159 0.0439487594998034 0  0.7744282259802111 0.04296608399052491 0  0.7727402613290182 0.04191547026564019 0  0.7710953999193346 0.04079857956077381 0  0.7694962426274063 0.03961717791758931 0  0.7679453180491105 0.03837313337515336 0  0.76644507851546 0.03706841302465409 0  0.7649978962180805 0.03570507990244135 0  0.7636060594361814 0.03428528970618785 0  0.7622717689506066 0.03281128741582038 0  0.7609971345427389 0.03128540372318665 0  0.7597841716871934 0.02971005138189509 0  0.7586347983241462 0.0280877213443157 0  0.7575508318526489 0.02642097885389376 0  0.7565339862392872 0.02471245936270851 0  0.7555858693260761 0.02296486439062078 0  0.7547079802846822 0.02118095725191039 0  0.7539017072380688 0.01936355867177506 0  0.753168325065669 0.01751554232232444 0  0.7525089933954597 0.01563983029599447 0  0.7519247547682739 0.01373938848382231 0  0.7514165329881413 0.01181722188619754 0  0.7509851316528798 0.009876369824711319 0  0.7506312328979305 0.00791990118761648 0  0.7503553963120339 0.005950909566172544 0  0.7501580580480869 0.003972508333800129 0  0.7500395301382524 0.001987825745231463 0  0.7499024577182275 0.0001004769198279318 0  0.7497756527519234 0.0002310969156042432 0  0.7496108062957278 0.0004009029101134481 0  0.7493965059026738 0.0006216507029754143 0  0.7491179153917035 0.0009086228336959704 0  0.7487557477274421 0.001281686603632694 0  0.7482849297639023 0.001766669504550433 0  0.8500985177045769 9.9520701533869e-05 0  0.8502265907205269 0.0002288976135278987 0  0.8503930856412619 0.0003970875991201374 0  0.8506095290382174 0.0006157345803900475 0  0.8508909054542596 0.0008999756560409308 0  0.8512566947951143 0.001269489054387079 0  0.8517322209382255 0.001749856472237072 0  1.091132316109228 0.0001 0  1.091132316109228 0.00023 0  1.091132316109228 0.000399 0  1.091132316109228 0.0006187 0  1.091132316109228 0.0009043100000000001 0  1.091132316109228 0.001275603 0  1.091132316109228 0.0017582839 0  1.089139487050473 0.0001 0  1.089139487050473 0.00023 0  1.089139487050473 0.000399 0  1.089139487050473 0.0006187 0  1.089139487050473 0.0009043100000000001 0  1.089139487050473 0.001275603 0  1.089139487050473 0.0017582839 0  1.010807687705324 0.0999 0  1.010807687705324 0.09977000000000001 0  1.010807687705324 0.09960100000000001 0  1.010807687705324 0.09938130000000001 0  1.010807687705324 0.09909569 0  1.010807687705324 0.09872439700000001 0  1.010807687705324 0.0982417161 0  1.012804222618908 0.0999 0  1.012804222618908 0.09977000000000001 0  1.012804222618908 0.09960100000000001 0  1.012804222618908 0.09938130000000001 0  1.012804222618908 0.09909569 0  1.012804222618908 0.09872439700000001 0  1.012804222618908 0.0982417161 0  1.020790362273232 0.0999 0  1.020790362273232 0.09977000000000001 0  1.020790362273232 0.09960100000000001 0  1.020790362273232 0.09938130000000001 0  1.020790362273232 0.09909569 0  1.020790362273232 0.09872439700000001 0  1.020790362273232 0.0982417161 0  1.01679729244607 0.0999 0  1.01679729244607 0.09977000000000001 0  1.01679729244607 0.09960100000000001 0  1.01679729244607 0.09938130000000001 0  1.01679729244607 0.09909569 0  1.01679729244607 0.09872439700000001 0  1.01679729244607 0.0982417161 0  1.00881115279174 0.0999 0  1.00881115279174 0.09977000000000001 0  1.00881115279174 0.09960100000000001 0  1.00881115279174 0.09938130000000001 0  1.00881115279174 0.09909569 0  1.00881115279174 0.09872439700000001 0  1.00881115279174 0.0982417161 0  1.006814617878156 0.0999 0  1.006814617878156 0.09977000000000001 0  1.006814617878156 0.09960100000000001 0  1.006814617878156 0.09938130000000001 0  1.006814617878156 0.09909569 0  1.006814617878156 0.09872439700000001 0  1.006814617878156 0.0982417161 0  1.004818082964572 0.0999 0  1.004818082964572 0.09977000000000001 0  1.004818082964572 0.09960100000000001 0  1.004818082964572 0.09938130000000001 0  1.004818082964572 0.09909569 0  1.004818082964572 0.09872439700000001 0  1.004818082964572 0.0982417161 0  1.014800757532489 0.0999 0  1.014800757532489 0.09977000000000001 0  1.014800757532489 0.09960100000000001 0  1.014800757532489 0.09938130000000001 0  1.014800757532489 0.09909569 0  1.014800757532489 0.09872439700000001 0  1.014800757532489 0.0982417161 0  1.002821548050988 0.0999 0  1.002821548050988 0.09977000000000001 0  1.002821548050988 0.09960100000000001 0  1.002821548050988 0.09938130000000001 0  1.002821548050988 0.09909569 0  1.002821548050988 0.09872439700000001 0  1.002821548050988 0.0982417161 0  1.000825013137404 0.0999 0  1.000825013137404 0.09977000000000001 0  1.000825013137404 0.09960100000000001 0  1.000825013137404 0.09938130000000001 0  1.000825013137404 0.09909569 0  1.000825013137404 0.09872439700000001 0  1.000825013137404 0.0982417161 0  1.018793827359651 0.0999 0  1.018793827359651 0.09977000000000001 0  1.018793827359651 0.09960100000000001 0  1.018793827359651 0.09938130000000001 0  1.018793827359651 0.09909569 0  1.018793827359651 0.09872439700000001 0  1.018793827359651 0.0982417161 0  0.9988284782238199 0.0999 0  0.9988284782238199 0.09977000000000001 0  0.9988284782238199 0.09960100000000001 0  0.9988284782238199 0.09938130000000001 0  0.9988284782238199 0.09909569 0  0.9988284782238199 0.09872439700000001 0  0.9988284782238199 0.0982417161 0  0.9968319433102334 0.0999 0  0.9968319433102334 0.09977000000000001 0  0.9968319433102334 0.09960100000000001 0  0.9968319433102334 0.09938130000000001 0  0.9968319433102334 0.09909569 0  0.9968319433102334 0.09872439700000001 0  0.9968319433102334 0.0982417161 0  0.9948354083966463 0.0999 0  0.9948354083966463 0.09977000000000001 0  0.9948354083966463 0.09960100000000001 0  0.9948354083966463 0.09938130000000001 0  0.9948354083966463 0.09909569 0  0.9948354083966463 0.09872439700000001 0  0.9948354083966463 0.0982417161 0  0.9928388734830592 0.0999 0  0.9928388734830592 0.09977000000000001 0  0.9928388734830592 0.09960100000000001 0  0.9928388734830592 0.09938130000000001 0  0.9928388734830592 0.09909569 0  0.9928388734830592 0.09872439700000001 0  0.9928388734830592 0.0982417161 0  0.9908423385694721 0.0999 0  0.9908423385694721 0.09977000000000001 0  0.9908423385694721 0.09960100000000001 0  0.9908423385694721 0.09938130000000001 0  0.9908423385694721 0.09909569 0  0.9908423385694721 0.09872439700000001 0  0.9908423385694721 0.0982417161 0  0.9888458036558849 0.0999 0  0.9888458036558849 0.09977000000000001 0  0.9888458036558849 0.09960100000000001 0  0.9888458036558849 0.09938130000000001 0  0.9888458036558849 0.09909569 0  0.9888458036558849 0.09872439700000001 0  0.9888458036558849 0.0982417161 0  0.9868492687422977 0.0999 0  0.9868492687422977 0.09977000000000001 0  0.9868492687422977 0.09960100000000001 0  0.9868492687422977 0.09938130000000001 0  0.9868492687422977 0.09909569 0  0.9868492687422977 0.09872439700000001 0  0.9868492687422977 0.0982417161 0  0.9848527338287106 0.0999 0  0.9848527338287106 0.09977000000000001 0  0.9848527338287106 0.09960100000000001 0  0.9848527338287106 0.09938130000000001 0  0.9848527338287106 0.09909569 0  0.9848527338287106 0.09872439700000001 0  0.9848527338287106 0.0982417161 0  0.8599641452937733 0.0001 0  0.8599641452937733 0.00023 0  0.8599641452937733 0.000399 0  0.8599641452937733 0.0006187 0  0.8599641452937733 0.0009043100000000001 0  0.8599641452937733 0.001275603 0  0.8599641452937733 0.0017582839 0  0.855978487176264 0.0001 0  0.855978487176264 0.00023 0  0.855978487176264 0.000399 0  0.855978487176264 0.0006187000000000001 0  0.855978487176264 0.0009043100000000002 0  0.855978487176264 0.001275603 0  0.855978487176264 0.001758283900000001 0  0.8579713162350187 0.0001 0  0.8579713162350187 0.00023 0  0.8579713162350187 0.000399 0  0.8579713162350187 0.0006187 0  0.8579713162350187 0.0009043100000000001 0  0.8579713162350187 0.001275603 0  0.8579713162350187 0.0017582839 0  0.8539856581175093 0.0001 0  0.8539856581175093 0.00023 0  0.8539856581175093 0.000399 0  0.8539856581175093 0.0006187 0  0.8539856581175093 0.0009043100000000001 0  0.8539856581175093 0.001275603 0  0.8539856581175093 0.0017582839 0  0.8519928290587546 0.0001 0  0.8519928290587546 0.00023 0  0.8519928290587546 0.000399 0  0.8519928290587546 0.0006187 0  0.8519928290587546 0.0009043100000000001 0  0.8519928290587546 0.001275603 0  0.8519928290587546 0.0017582839 0  0.8619569743525279 0.0001 0  0.8619569743525279 0.00023 0  0.8619569743525279 0.000399 0  0.8619569743525279 0.0006187 0  0.8619569743525279 0.0009043100000000001 0  0.8619569743525279 0.001275603 0  0.8619569743525279 0.0017582839 0  0.8639498034112826 0.0001 0  0.8639498034112826 0.00023 0  0.8639498034112826 0.000399 0  0.8639498034112826 0.0006187 0  0.8639498034112826 0.0009043100000000001 0  0.8639498034112826 0.001275603 0  0.8639498034112826 0.0017582839 0  0.8659426324700373 0.0001 0  0.8659426324700373 0.00023 0  0.8659426324700373 0.000399 0  0.8659426324700373 0.0006187 0  0.8659426324700373 0.0009043100000000001 0  0.8659426324700373 0.001275603 0  0.8659426324700373 0.0017582839 0  0.867935461528792 0.0001 0  0.867935461528792 0.00023 0  0.867935461528792 0.000399 0  0.867935461528792 0.0006187000000000001 0  0.867935461528792 0.0009043100000000002 0  0.867935461528792 0.001275603 0  0.867935461528792 0.001758283900000001 0  0.8699282905875466 0.0001 0  0.8699282905875466 0.00023 0  0.8699282905875466 0.000399 0  0.8699282905875466 0.0006187000000000001 0  0.8699282905875466 0.0009043100000000002 0  0.8699282905875466 0.001275603 0  0.8699282905875466 0.001758283900000001 0  0.8719211196463013 9.999999999999999e-05 0  0.8719211196463013 0.00023 0  0.8719211196463013 0.000399 0  0.8719211196463013 0.0006187 0  0.8719211196463013 0.0009043100000000001 0  0.8719211196463013 0.001275603 0  0.8719211196463013 0.0017582839 0  0.873913948705056 9.999999999999999e-05 0  0.873913948705056 0.00023 0  0.873913948705056 0.000399 0  0.873913948705056 0.0006187 0  0.873913948705056 0.0009043100000000001 0  0.873913948705056 0.001275603 0  0.873913948705056 0.0017582839 0  0.8759067777638107 0.0001 0  0.8759067777638107 0.00023 0  0.8759067777638107 0.000399 0  0.8759067777638107 0.0006187 0  0.8759067777638107 0.0009043100000000001 0  0.8759067777638107 0.001275603 0  0.8759067777638107 0.0017582839 0  0.8778996068225653 0.0001 0  0.8778996068225653 0.00023 0  0.8778996068225653 0.000399 0  0.8778996068225653 0.0006187000000000001 0  0.8778996068225653 0.0009043100000000002 0  0.8778996068225653 0.001275603 0  0.8778996068225653 0.001758283900000001 0  0.8798924358813199 0.0001 0  0.8798924358813199 0.00023 0  0.8798924358813199 0.000399 0  0.8798924358813199 0.0006187 0  0.8798924358813199 0.0009043100000000001 0  0.8798924358813199 0.001275603 0  0.8798924358813199 0.0017582839 0  0.8818852649400746 0.0001 0  0.8818852649400746 0.00023 0  0.8818852649400746 0.000399 0  0.8818852649400746 0.0006187 0  0.8818852649400746 0.0009043100000000001 0  0.8818852649400746 0.001275603 0  0.8818852649400746 0.0017582839 0  0.8838780939988293 9.999999999999998e-05 0  0.8838780939988293 0.00023 0  0.8838780939988293 0.0003989999999999999 0  0.8838780939988293 0.0006186999999999999 0  0.8838780939988293 0.00090431 0  0.8838780939988293 0.001275603 0  0.8838780939988293 0.0017582839 0  0.885870923057584 0.0001 0  0.885870923057584 0.00023 0  0.885870923057584 0.000399 0  0.885870923057584 0.0006187000000000001 0  0.885870923057584 0.0009043100000000002 0  0.885870923057584 0.001275603 0  0.885870923057584 0.001758283900000001 0  0.8878637521163386 0.0001 0  0.8878637521163386 0.00023 0  0.8878637521163386 0.000399 0  0.8878637521163386 0.0006187 0  0.8878637521163386 0.0009043100000000001 0  0.8878637521163386 0.001275603 0  0.8878637521163386 0.0017582839 0  0.8898565811750933 0.0001 0  0.8898565811750933 0.00023 0  0.8898565811750933 0.000399 0  0.8898565811750933 0.0006187 0  0.8898565811750933 0.0009043100000000001 0  0.8898565811750933 0.001275603 0  0.8898565811750933 0.0017582839 0  0.8918494102338479 9.999999999999999e-05 0  0.8918494102338479 0.00023 0  0.8918494102338479 0.000399 0  0.8918494102338479 0.0006187 0  0.8918494102338479 0.0009043100000000001 0  0.8918494102338479 0.001275603 0  0.8918494102338479 0.0017582839 0  0.8938422392926026 0.0001 0  0.8938422392926026 0.00023 0  0.8938422392926026 0.000399 0  0.8938422392926026 0.0006187 0  0.8938422392926026 0.0009043100000000001 0  0.8938422392926026 0.001275603 0  0.8938422392926026 0.0017582839 0  0.8958350683513573 0.0001 0  0.8958350683513573 0.00023 0  0.8958350683513573 0.000399 0  0.8958350683513573 0.0006187000000000001 0  0.8958350683513573 0.0009043100000000002 0  0.8958350683513573 0.001275603 0  0.8958350683513573 0.001758283900000001 0  0.8978278974101119 0.0001 0  0.8978278974101119 0.00023 0  0.8978278974101119 0.000399 0  0.8978278974101119 0.0006187000000000001 0  0.8978278974101119 0.0009043100000000002 0  0.8978278974101119 0.001275603 0  0.8978278974101119 0.001758283900000001 0  0.8998207264688666 9.999999999999999e-05 0  0.8998207264688666 0.00023 0  0.8998207264688666 0.000399 0  0.8998207264688666 0.0006187 0  0.8998207264688666 0.0009043100000000001 0  0.8998207264688666 0.001275603 0  0.8998207264688666 0.0017582839 0  0.9018135555276212 0.0001 0  0.9018135555276212 0.00023 0  0.9018135555276212 0.000399 0  0.9018135555276212 0.0006187 0  0.9018135555276212 0.0009043100000000001 0  0.9018135555276212 0.001275603 0  0.9018135555276212 0.0017582839 0  0.903806384586376 0.0001 0  0.903806384586376 0.00023 0  0.903806384586376 0.000399 0  0.903806384586376 0.0006187 0  0.903806384586376 0.0009043100000000001 0  0.903806384586376 0.001275603 0  0.903806384586376 0.0017582839 0  0.9057992136451306 0.0001 0  0.9057992136451306 0.00023 0  0.9057992136451306 0.000399 0  0.9057992136451306 0.0006187 0  0.9057992136451306 0.0009043100000000001 0  0.9057992136451306 0.001275603 0  0.9057992136451306 0.0017582839 0  0.9077920427038852 0.0001 0  0.9077920427038852 0.00023 0  0.9077920427038852 0.000399 0  0.9077920427038852 0.0006187 0  0.9077920427038852 0.0009043100000000001 0  0.9077920427038852 0.001275603 0  0.9077920427038852 0.0017582839 0  0.9097848717626399 0.0001 0  0.9097848717626399 0.00023 0  0.9097848717626399 0.000399 0  0.9097848717626399 0.0006187000000000001 0  0.9097848717626399 0.0009043100000000002 0  0.9097848717626399 0.001275603 0  0.9097848717626399 0.001758283900000001 0  0.9117777008213945 0.0001 0  0.9117777008213945 0.00023 0  0.9117777008213945 0.000399 0  0.9117777008213945 0.0006187 0  0.9117777008213945 0.0009043100000000001 0  0.9117777008213945 0.001275603 0  0.9117777008213945 0.0017582839 0  0.9137705298801493 9.999999999999999e-05 0  0.9137705298801493 0.00023 0  0.9137705298801493 0.000399 0  0.9137705298801493 0.0006187 0  0.9137705298801493 0.0009043100000000001 0  0.9137705298801493 0.001275603 0  0.9137705298801493 0.0017582839 0  0.9157633589389039 0.0001 0  0.9157633589389039 0.00023 0  0.9157633589389039 0.000399 0  0.9157633589389039 0.0006187000000000001 0  0.9157633589389039 0.0009043100000000002 0  0.9157633589389039 0.001275603 0  0.9157633589389039 0.001758283900000001 0  0.9177561879976586 0.0001 0  0.9177561879976586 0.00023 0  0.9177561879976586 0.000399 0  0.9177561879976586 0.0006187000000000001 0  0.9177561879976586 0.0009043100000000002 0  0.9177561879976586 0.001275603 0  0.9177561879976586 0.001758283900000001 0  0.9197490170564132 9.999999999999999e-05 0  0.9197490170564132 0.00023 0  0.9197490170564132 0.000399 0  0.9197490170564132 0.0006187 0  0.9197490170564132 0.0009043100000000001 0  0.9197490170564132 0.001275603 0  0.9197490170564132 0.0017582839 0  0.921741846115168 9.999999999999999e-05 0  0.921741846115168 0.00023 0  0.921741846115168 0.000399 0  0.921741846115168 0.0006187 0  0.921741846115168 0.0009043100000000001 0  0.921741846115168 0.001275603 0  0.921741846115168 0.0017582839 0  0.9237346751739226 9.999999999999999e-05 0  0.9237346751739226 0.00023 0  0.9237346751739226 0.000399 0  0.9237346751739226 0.0006187 0  0.9237346751739226 0.0009043100000000001 0  0.9237346751739226 0.001275603 0  0.9237346751739226 0.0017582839 0  0.9257275042326772 0.0001 0  0.9257275042326772 0.00023 0  0.9257275042326772 0.000399 0  0.9257275042326772 0.0006187000000000001 0  0.9257275042326772 0.0009043100000000002 0  0.9257275042326772 0.001275603 0  0.9257275042326772 0.001758283900000001 0  0.9277203332914319 0.0001 0  0.9277203332914319 0.00023 0  0.9277203332914319 0.000399 0  0.9277203332914319 0.0006187000000000001 0  0.9277203332914319 0.0009043100000000002 0  0.9277203332914319 0.001275603 0  0.9277203332914319 0.001758283900000001 0  0.9297131623501866 0.0001 0  0.9297131623501866 0.00023 0  0.9297131623501866 0.000399 0  0.9297131623501866 0.0006187 0  0.9297131623501866 0.0009043100000000001 0  0.9297131623501866 0.001275603 0  0.9297131623501866 0.0017582839 0  0.9317059914089413 9.999999999999999e-05 0  0.9317059914089413 0.00023 0  0.9317059914089413 0.000399 0  0.9317059914089413 0.0006187 0  0.9317059914089413 0.0009043100000000001 0  0.9317059914089413 0.001275603 0  0.9317059914089413 0.0017582839 0  0.9336988204676959 9.999999999999999e-05 0  0.9336988204676959 0.00023 0  0.9336988204676959 0.000399 0  0.9336988204676959 0.0006187 0  0.9336988204676959 0.0009043100000000001 0  0.9336988204676959 0.001275603 0  0.9336988204676959 0.0017582839 0  0.9356916495264506 9.999999999999999e-05 0  0.9356916495264506 0.00023 0  0.9356916495264506 0.000399 0  0.9356916495264506 0.0006187 0  0.9356916495264506 0.0009043100000000001 0  0.9356916495264506 0.001275603 0  0.9356916495264506 0.0017582839 0  0.9376844785852052 0.0001 0  0.9376844785852052 0.00023 0  0.9376844785852052 0.000399 0  0.9376844785852052 0.0006187 0  0.9376844785852052 0.0009043100000000001 0  0.9376844785852052 0.001275603 0  0.9376844785852052 0.0017582839 0  0.93967730764396 0.0001 0  0.93967730764396 0.00023 0  0.93967730764396 0.000399 0  0.93967730764396 0.0006187 0  0.93967730764396 0.0009043100000000001 0  0.93967730764396 0.001275603 0  0.93967730764396 0.0017582839 0  0.9416701367027146 0.0001 0  0.9416701367027146 0.00023 0  0.9416701367027146 0.000399 0  0.9416701367027146 0.0006187 0  0.9416701367027146 0.0009043100000000001 0  0.9416701367027146 0.001275603 0  0.9416701367027146 0.0017582839 0  0.9436629657614692 0.0001 0  0.9436629657614692 0.00023 0  0.9436629657614692 0.000399 0  0.9436629657614692 0.0006187 0  0.9436629657614692 0.0009043100000000001 0  0.9436629657614692 0.001275603 0  0.9436629657614692 0.0017582839 0  0.9456557948202239 9.999999999999999e-05 0  0.9456557948202239 0.00023 0  0.9456557948202239 0.000399 0  0.9456557948202239 0.0006187 0  0.9456557948202239 0.0009043100000000001 0  0.9456557948202239 0.001275603 0  0.9456557948202239 0.0017582839 0  0.9476486238789785 0.0001 0  0.9476486238789785 0.00023 0  0.9476486238789785 0.000399 0  0.9476486238789785 0.0006187 0  0.9476486238789785 0.0009043100000000001 0  0.9476486238789785 0.001275603 0  0.9476486238789785 0.0017582839 0  0.9496414529377333 0.0001 0  0.9496414529377333 0.00023 0  0.9496414529377333 0.000399 0  0.9496414529377333 0.0006187000000000001 0  0.9496414529377333 0.0009043100000000002 0  0.9496414529377333 0.001275603 0  0.9496414529377333 0.001758283900000001 0  0.9516342819964879 0.0001 0  0.9516342819964879 0.00023 0  0.9516342819964879 0.000399 0  0.9516342819964879 0.0006187 0  0.9516342819964879 0.0009043100000000001 0  0.9516342819964879 0.001275603 0  0.9516342819964879 0.0017582839 0  0.9536271110552426 9.999999999999999e-05 0  0.9536271110552426 0.00023 0  0.9536271110552426 0.000399 0  0.9536271110552426 0.0006187 0  0.9536271110552426 0.0009043100000000001 0  0.9536271110552426 0.001275603 0  0.9536271110552426 0.0017582839 0  0.9556199401139972 0.0001 0  0.9556199401139972 0.00023 0  0.9556199401139972 0.000399 0  0.9556199401139972 0.0006187 0  0.9556199401139972 0.0009043100000000001 0  0.9556199401139972 0.001275603 0  0.9556199401139972 0.0017582839 0  0.957612769172752 0.0001 0  0.957612769172752 0.00023 0  0.957612769172752 0.000399 0  0.957612769172752 0.0006187 0  0.957612769172752 0.0009043100000000001 0  0.957612769172752 0.001275603 0  0.957612769172752 0.0017582839 0  0.9596055982315066 0.0001 0  0.9596055982315066 0.00023 0  0.9596055982315066 0.000399 0  0.9596055982315066 0.0006187000000000001 0  0.9596055982315066 0.0009043100000000002 0  0.9596055982315066 0.001275603 0  0.9596055982315066 0.001758283900000001 0  0.9615984272902612 0.0001 0  0.9615984272902612 0.00023 0  0.9615984272902612 0.000399 0  0.9615984272902612 0.0006187 0  0.9615984272902612 0.0009043100000000001 0  0.9615984272902612 0.001275603 0  0.9615984272902612 0.0017582839 0  0.9635912563490159 9.999999999999999e-05 0  0.9635912563490159 0.00023 0  0.9635912563490159 0.000399 0  0.9635912563490159 0.0006187 0  0.9635912563490159 0.0009043100000000001 0  0.9635912563490159 0.001275603 0  0.9635912563490159 0.0017582839 0  0.9655840854077706 9.999999999999999e-05 0  0.9655840854077706 0.00023 0  0.9655840854077706 0.000399 0  0.9655840854077706 0.0006187 0  0.9655840854077706 0.0009043100000000001 0  0.9655840854077706 0.001275603 0  0.9655840854077706 0.0017582839 0  0.9675769144665253 0.0001 0  0.9675769144665253 0.00023 0  0.9675769144665253 0.000399 0  0.9675769144665253 0.0006187 0  0.9675769144665253 0.0009043100000000001 0  0.9675769144665253 0.001275603 0  0.9675769144665253 0.0017582839 0  0.9695697435252775 9.999999999999999e-05 0  0.9695697435252775 0.00023 0  0.9695697435252775 0.000399 0  0.9695697435252775 0.0006187 0  0.9695697435252775 0.0009043100000000001 0  0.9695697435252775 0.001275603 0  0.9695697435252775 0.0017582839 0  0.9715625725840263 0.0001 0  0.9715625725840263 0.00023 0  0.9715625725840263 0.000399 0  0.9715625725840263 0.0006187000000000001 0  0.9715625725840263 0.0009043100000000002 0  0.9715625725840263 0.001275603 0  0.9715625725840263 0.001758283900000001 0  0.9735554016427752 0.0001 0  0.9735554016427752 0.00023 0  0.9735554016427752 0.000399 0  0.9735554016427752 0.0006187 0  0.9735554016427752 0.0009043100000000001 0  0.9735554016427752 0.001275603 0  0.9735554016427752 0.0017582839 0  0.9755482307015241 0.0001 0  0.9755482307015241 0.00023 0  0.9755482307015241 0.000399 0  0.9755482307015241 0.0006187 0  0.9755482307015241 0.0009043100000000001 0  0.9755482307015241 0.001275603 0  0.9755482307015241 0.0017582839 0  0.9775410597602689 9.999999999999999e-05 0  0.9775410597602689 0.00023 0  0.9775410597602689 0.000399 0  0.9775410597602689 0.0006187 0  0.9775410597602689 0.0009043100000000001 0  0.9775410597602689 0.001275603 0  0.9775410597602689 0.0017582839 0  0.9795338888190119 0.0001 0  0.9795338888190119 0.00023 0  0.9795338888190119 0.000399 0  0.9795338888190119 0.0006187 0  0.9795338888190119 0.0009043100000000001 0  0.9795338888190119 0.001275603 0  0.9795338888190119 0.0017582839 0  0.9815267178777549 9.999999999999999e-05 0  0.9815267178777549 0.00023 0  0.9815267178777549 0.000399 0  0.9815267178777549 0.0006187 0  0.9815267178777549 0.0009043100000000001 0  0.9815267178777549 0.001275603 0  0.9815267178777549 0.0017582839 0  0.9835195469364979 0.0001 0  0.9835195469364979 0.00023 0  0.9835195469364979 0.000399 0  0.9835195469364979 0.0006187000000000001 0  0.9835195469364979 0.0009043100000000002 0  0.9835195469364979 0.001275603 0  0.9835195469364979 0.001758283900000001 0  0.9855123759952465 0.0001 0  0.9855123759952465 0.00023 0  0.9855123759952465 0.000399 0  0.9855123759952465 0.0006187 0  0.9855123759952465 0.0009043100000000001 0  0.9855123759952465 0.001275603 0  0.9855123759952465 0.0017582839 0  0.9875052050539954 0.0001 0  0.9875052050539954 0.00023 0  0.9875052050539954 0.000399 0  0.9875052050539954 0.0006187 0  0.9875052050539954 0.0009043100000000001 0  0.9875052050539954 0.001275603 0  0.9875052050539954 0.0017582839 0  0.9894980341127442 0.0001 0  0.9894980341127442 0.00023 0  0.9894980341127442 0.000399 0  0.9894980341127442 0.0006187 0  0.9894980341127442 0.0009043100000000001 0  0.9894980341127442 0.001275603 0  0.9894980341127442 0.0017582839 0  0.9914908631714945 9.999999999999999e-05 0  0.9914908631714945 0.00023 0  0.9914908631714945 0.000399 0  0.9914908631714945 0.0006187 0  0.9914908631714945 0.0009043100000000001 0  0.9914908631714945 0.001275603 0  0.9914908631714945 0.0017582839 0  0.9934836922302491 0.0001 0  0.9934836922302491 0.00023 0  0.9934836922302491 0.000399 0  0.9934836922302491 0.0006187000000000001 0  0.9934836922302491 0.0009043100000000002 0  0.9934836922302491 0.001275603 0  0.9934836922302491 0.001758283900000001 0  0.9954765212890038 0.0001 0  0.9954765212890038 0.00023 0  0.9954765212890038 0.000399 0  0.9954765212890038 0.0006187 0  0.9954765212890038 0.0009043100000000001 0  0.9954765212890038 0.001275603 0  0.9954765212890038 0.0017582839 0  0.9974693503477584 9.999999999999999e-05 0  0.9974693503477584 0.00023 0  0.9974693503477584 0.000399 0  0.9974693503477584 0.0006187 0  0.9974693503477584 0.0009043100000000001 0  0.9974693503477584 0.001275603 0  0.9974693503477584 0.0017582839 0  0.9994621794065132 9.999999999999999e-05 0  0.9994621794065132 0.00023 0  0.9994621794065132 0.000399 0  0.9994621794065132 0.0006187 0  0.9994621794065132 0.0009043100000000001 0  0.9994621794065132 0.001275603 0  0.9994621794065132 0.0017582839 0  1.001455008465268 0.0001 0  1.001455008465268 0.00023 0  1.001455008465268 0.000399 0  1.001455008465268 0.0006187 0  1.001455008465268 0.0009043100000000001 0  1.001455008465268 0.001275603 0  1.001455008465268 0.0017582839 0  1.003447837524022 0.0001 0  1.003447837524022 0.00023 0  1.003447837524022 0.000399 0  1.003447837524022 0.0006187 0  1.003447837524022 0.0009043100000000001 0  1.003447837524022 0.001275603 0  1.003447837524022 0.0017582839 0  1.005440666582777 0.0001 0  1.005440666582777 0.00023 0  1.005440666582777 0.000399 0  1.005440666582777 0.0006187 0  1.005440666582777 0.0009043100000000001 0  1.005440666582777 0.001275603 0  1.005440666582777 0.0017582839 0  1.007433495641532 9.999999999999999e-05 0  1.007433495641532 0.00023 0  1.007433495641532 0.000399 0  1.007433495641532 0.0006187 0  1.007433495641532 0.0009043100000000001 0  1.007433495641532 0.001275603 0  1.007433495641532 0.0017582839 0  1.009426324700286 9.999999999999999e-05 0  1.009426324700286 0.00023 0  1.009426324700286 0.000399 0  1.009426324700286 0.0006187 0  1.009426324700286 0.0009043100000000001 0  1.009426324700286 0.001275603 0  1.009426324700286 0.0017582839 0  1.011419153759041 0.0001 0  1.011419153759041 0.00023 0  1.011419153759041 0.000399 0  1.011419153759041 0.0006187 0  1.011419153759041 0.0009043100000000001 0  1.011419153759041 0.001275603 0  1.011419153759041 0.0017582839 0  1.013411982817796 0.0001 0  1.013411982817796 0.00023 0  1.013411982817796 0.000399 0  1.013411982817796 0.0006187 0  1.013411982817796 0.0009043100000000001 0  1.013411982817796 0.001275603 0  1.013411982817796 0.0017582839 0  1.01540481187655 9.999999999999999e-05 0  1.01540481187655 0.00023 0  1.01540481187655 0.000399 0  1.01540481187655 0.0006187 0  1.01540481187655 0.0009043100000000001 0  1.01540481187655 0.001275603 0  1.01540481187655 0.0017582839 0  1.017397640935305 9.999999999999999e-05 0  1.017397640935305 0.00023 0  1.017397640935305 0.000399 0  1.017397640935305 0.0006187 0  1.017397640935305 0.0009043100000000001 0  1.017397640935305 0.001275603 0  1.017397640935305 0.0017582839 0  1.01939046999406 0.0001 0  1.01939046999406 0.00023 0  1.01939046999406 0.000399 0  1.01939046999406 0.0006187000000000001 0  1.01939046999406 0.0009043100000000002 0  1.01939046999406 0.001275603 0  1.01939046999406 0.001758283900000001 0  1.021383299052814 0.0001 0  1.021383299052814 0.00023 0  1.021383299052814 0.000399 0  1.021383299052814 0.0006187 0  1.021383299052814 0.0009043100000000001 0  1.021383299052814 0.001275603 0  1.021383299052814 0.0017582839 0  1.023376128111569 0.0001 0  1.023376128111569 0.00023 0  1.023376128111569 0.000399 0  1.023376128111569 0.0006187 0  1.023376128111569 0.0009043100000000001 0  1.023376128111569 0.001275603 0  1.023376128111569 0.0017582839 0  1.025368957170324 0.0001 0  1.025368957170324 0.00023 0  1.025368957170324 0.000399 0  1.025368957170324 0.0006187 0  1.025368957170324 0.0009043100000000001 0  1.025368957170324 0.001275603 0  1.025368957170324 0.0017582839 0  1.027361786229078 9.999999999999999e-05 0  1.027361786229078 0.00023 0  1.027361786229078 0.000399 0  1.027361786229078 0.0006187 0  1.027361786229078 0.0009043100000000001 0  1.027361786229078 0.001275603 0  1.027361786229078 0.0017582839 0  1.029354615287833 0.0001 0  1.029354615287833 0.00023 0  1.029354615287833 0.000399 0  1.029354615287833 0.0006187 0  1.029354615287833 0.0009043100000000001 0  1.029354615287833 0.001275603 0  1.029354615287833 0.0017582839 0  1.031347444346588 9.999999999999999e-05 0  1.031347444346588 0.00023 0  1.031347444346588 0.000399 0  1.031347444346588 0.0006187 0  1.031347444346588 0.0009043100000000001 0  1.031347444346588 0.001275603 0  1.031347444346588 0.0017582839 0  1.033340273405342 9.999999999999999e-05 0  1.033340273405342 0.00023 0  1.033340273405342 0.000399 0  1.033340273405342 0.0006187 0  1.033340273405342 0.0009043100000000001 0  1.033340273405342 0.001275603 0  1.033340273405342 0.0017582839 0  1.035333102464097 0.0001 0  1.035333102464097 0.00023 0  1.035333102464097 0.000399 0  1.035333102464097 0.0006187000000000001 0  1.035333102464097 0.0009043100000000002 0  1.035333102464097 0.001275603 0  1.035333102464097 0.001758283900000001 0  1.037325931522852 0.0001 0  1.037325931522852 0.00023 0  1.037325931522852 0.000399 0  1.037325931522852 0.0006187000000000001 0  1.037325931522852 0.0009043100000000002 0  1.037325931522852 0.001275603 0  1.037325931522852 0.001758283900000001 0  1.039318760581606 0.0001 0  1.039318760581606 0.00023 0  1.039318760581606 0.000399 0  1.039318760581606 0.0006187 0  1.039318760581606 0.0009043100000000001 0  1.039318760581606 0.001275603 0  1.039318760581606 0.0017582839 0  1.041311589640361 0.0001 0  1.041311589640361 0.00023 0  1.041311589640361 0.000399 0  1.041311589640361 0.0006187 0  1.041311589640361 0.0009043100000000001 0  1.041311589640361 0.001275603 0  1.041311589640361 0.0017582839 0  1.043304418699116 9.999999999999999e-05 0  1.043304418699116 0.00023 0  1.043304418699116 0.000399 0  1.043304418699116 0.0006187 0  1.043304418699116 0.0009043100000000001 0  1.043304418699116 0.001275603 0  1.043304418699116 0.0017582839 0  1.04529724775787 9.999999999999999e-05 0  1.04529724775787 0.00023 0  1.04529724775787 0.000399 0  1.04529724775787 0.0006187 0  1.04529724775787 0.0009043100000000001 0  1.04529724775787 0.001275603 0  1.04529724775787 0.0017582839 0  1.047290076816625 0.0001 0  1.047290076816625 0.00023 0  1.047290076816625 0.000399 0  1.047290076816625 0.0006187000000000001 0  1.047290076816625 0.0009043100000000002 0  1.047290076816625 0.001275603 0  1.047290076816625 0.001758283900000001 0  1.04928290587538 0.0001 0  1.04928290587538 0.00023 0  1.04928290587538 0.000399 0  1.04928290587538 0.0006187 0  1.04928290587538 0.0009043100000000001 0  1.04928290587538 0.001275603 0  1.04928290587538 0.0017582839 0  1.051275734934134 0.0001 0  1.051275734934134 0.00023 0  1.051275734934134 0.000399 0  1.051275734934134 0.0006187 0  1.051275734934134 0.0009043100000000001 0  1.051275734934134 0.001275603 0  1.051275734934134 0.0017582839 0  1.053268563992889 0.0001 0  1.053268563992889 0.00023 0  1.053268563992889 0.000399 0  1.053268563992889 0.0006187 0  1.053268563992889 0.0009043100000000001 0  1.053268563992889 0.001275603 0  1.053268563992889 0.0017582839 0  1.055261393051644 0.0001 0  1.055261393051644 0.00023 0  1.055261393051644 0.000399 0  1.055261393051644 0.0006187 0  1.055261393051644 0.0009043100000000001 0  1.055261393051644 0.001275603 0  1.055261393051644 0.0017582839 0  1.057254222110398 9.999999999999999e-05 0  1.057254222110398 0.00023 0  1.057254222110398 0.000399 0  1.057254222110398 0.0006187 0  1.057254222110398 0.0009043100000000001 0  1.057254222110398 0.001275603 0  1.057254222110398 0.0017582839 0  1.059247051169153 0.0001 0  1.059247051169153 0.00023 0  1.059247051169153 0.000399 0  1.059247051169153 0.0006187 0  1.059247051169153 0.0009043100000000001 0  1.059247051169153 0.001275603 0  1.059247051169153 0.0017582839 0  1.061239880227908 9.999999999999999e-05 0  1.061239880227908 0.00023 0  1.061239880227908 0.000399 0  1.061239880227908 0.0006187 0  1.061239880227908 0.0009043100000000001 0  1.061239880227908 0.001275603 0  1.061239880227908 0.0017582839 0  1.063232709286662 9.999999999999999e-05 0  1.063232709286662 0.00023 0  1.063232709286662 0.000399 0  1.063232709286662 0.0006187 0  1.063232709286662 0.0009043100000000001 0  1.063232709286662 0.001275603 0  1.063232709286662 0.0017582839 0  1.065225538345417 0.0001 0  1.065225538345417 0.00023 0  1.065225538345417 0.000399 0  1.065225538345417 0.0006187 0  1.065225538345417 0.0009043100000000001 0  1.065225538345417 0.001275603 0  1.065225538345417 0.0017582839 0  1.067218367404172 9.999999999999999e-05 0  1.067218367404172 0.00023 0  1.067218367404172 0.000399 0  1.067218367404172 0.0006187 0  1.067218367404172 0.0009043100000000001 0  1.067218367404172 0.001275603 0  1.067218367404172 0.0017582839 0  1.069211196462926 0.0001 0  1.069211196462926 0.00023 0  1.069211196462926 0.000399 0  1.069211196462926 0.0006187 0  1.069211196462926 0.0009043100000000001 0  1.069211196462926 0.001275603 0  1.069211196462926 0.0017582839 0  1.071204025521681 0.0001 0  1.071204025521681 0.00023 0  1.071204025521681 0.000399 0  1.071204025521681 0.0006187 0  1.071204025521681 0.0009043100000000001 0  1.071204025521681 0.001275603 0  1.071204025521681 0.0017582839 0  1.073196854580436 0.0001 0  1.073196854580436 0.00023 0  1.073196854580436 0.000399 0  1.073196854580436 0.0006187 0  1.073196854580436 0.0009043100000000001 0  1.073196854580436 0.001275603 0  1.073196854580436 0.0017582839 0  1.07518968363919 0.0001 0  1.07518968363919 0.00023 0  1.07518968363919 0.000399 0  1.07518968363919 0.0006187 0  1.07518968363919 0.0009043100000000001 0  1.07518968363919 0.001275603 0  1.07518968363919 0.0017582839 0  1.077182512697945 0.0001 0  1.077182512697945 0.00023 0  1.077182512697945 0.000399 0  1.077182512697945 0.0006187 0  1.077182512697945 0.0009043100000000001 0  1.077182512697945 0.001275603 0  1.077182512697945 0.0017582839 0  1.0791753417567 9.999999999999999e-05 0  1.0791753417567 0.00023 0  1.0791753417567 0.000399 0  1.0791753417567 0.0006187 0  1.0791753417567 0.0009043100000000001 0  1.0791753417567 0.001275603 0  1.0791753417567 0.0017582839 0  1.081168170815454 0.0001 0  1.081168170815454 0.00023 0  1.081168170815454 0.000399 0  1.081168170815454 0.0006187 0  1.081168170815454 0.0009043100000000001 0  1.081168170815454 0.001275603 0  1.081168170815454 0.0017582839 0  1.083160999874209 0.0001 0  1.083160999874209 0.00023 0  1.083160999874209 0.000399 0  1.083160999874209 0.0006187 0  1.083160999874209 0.0009043100000000001 0  1.083160999874209 0.001275603 0  1.083160999874209 0.0017582839 0  1.085153828932964 0.0001 0  1.085153828932964 0.00023 0  1.085153828932964 0.000399 0  1.085153828932964 0.0006187 0  1.085153828932964 0.0009043100000000001 0  1.085153828932964 0.001275603 0  1.085153828932964 0.0017582839 0  1.087146657991718 0.0001 0  1.087146657991718 0.00023 0  1.087146657991718 0.000399 0  1.087146657991718 0.0006187 0  1.087146657991718 0.0009043100000000001 0  1.087146657991718 0.001275603 0  1.087146657991718 0.0017582839 0  1.521003931773478 0.0001 0  1.521003931773478 0.00023 0  1.521003931773478 0.000399 0  1.521003931773478 0.0006187000000000001 0  1.521003931773478 0.0009043100000000002 0  1.521003931773478 0.001275603 0  1.521003931773478 0.001758283900000001 0  1.431326624129069 0.0001 0  1.431326624129069 0.00023 0  1.431326624129069 0.000399 0  1.431326624129069 0.0006187000000000001 0  1.431326624129069 0.0009043100000000002 0  1.431326624129069 0.001275603 0  1.431326624129069 0.001758283900000001 0  1.351613461778471 0.0001 0  1.351613461778471 0.00023 0  1.351613461778471 0.000399 0  1.351613461778471 0.0006187 0  1.351613461778471 0.0009043100000000001 0  1.351613461778471 0.001275603 0  1.351613461778471 0.0017582839 0  1.154902845989377 9.999999999999999e-05 0  1.154902845989377 0.00023 0  1.154902845989377 0.000399 0  1.154902845989377 0.0006187 0  1.154902845989377 0.0009043100000000001 0  1.154902845989377 0.001275603 0  1.154902845989377 0.0017582839 0  1.119031922931793 9.999999999999999e-05 0  1.119031922931793 0.00023 0  1.119031922931793 0.000399 0  1.119031922931793 0.0006187 0  1.119031922931793 0.0009043100000000001 0  1.119031922931793 0.001275603 0  1.119031922931793 0.0017582839 0  1.760069301728178 0.0999 0  1.760069301728178 0.09977000000000001 0  1.760069301728178 0.09960100000000001 0  1.760069301728178 0.09938130000000001 0  1.760069301728178 0.09909569 0  1.760069301728178 0.09872439700000001 0  1.760069301728178 0.0982417161 0  1.36157760707236 9.999999999999999e-05 0  1.36157760707236 0.00023 0  1.36157760707236 0.000399 0  1.36157760707236 0.0006187 0  1.36157760707236 0.0009043100000000001 0  1.36157760707236 0.001275603 0  1.36157760707236 0.0017582839 0  1.511039786479664 9.999999999999999e-05 0  1.511039786479664 0.00023 0  1.511039786479664 0.000399 0  1.511039786479664 0.0006187 0  1.511039786479664 0.0009043100000000001 0  1.511039786479664 0.001275603 0  1.511039786479664 0.0017582839 0  1.321721025897057 0.0001 0  1.321721025897057 0.00023 0  1.321721025897057 0.000399 0  1.321721025897057 0.0006187 0  1.321721025897057 0.0009043100000000001 0  1.321721025897057 0.001275603 0  1.321721025897057 0.0017582839 0  1.540932222361076 0.0001 0  1.540932222361076 0.00023 0  1.540932222361076 0.000399 0  1.540932222361076 0.0006187 0  1.540932222361076 0.0009043100000000001 0  1.540932222361076 0.001275603 0  1.540932222361076 0.0017582839 0  1.099103632344246 9.999999999999999e-05 0  1.099103632344246 0.00023 0  1.099103632344246 0.000399 0  1.099103632344246 0.0006187 0  1.099103632344246 0.0009043100000000001 0  1.099103632344246 0.001275603 0  1.099103632344246 0.0017582839 0  1.341649316484614 0.0001 0  1.341649316484614 0.00023 0  1.341649316484614 0.000399 0  1.341649316484614 0.0006187 0  1.341649316484614 0.0009043100000000001 0  1.341649316484614 0.001275603 0  1.341649316484614 0.0017582839 0  1.530968077067251 0.0001 0  1.530968077067251 0.00023 0  1.530968077067251 0.000399 0  1.530968077067251 0.0006187000000000001 0  1.530968077067251 0.0009043100000000002 0  1.530968077067251 0.001275603 0  1.530968077067251 0.001758283900000001 0  1.16486699128315 0.0001 0  1.16486699128315 0.00023 0  1.16486699128315 0.000399 0  1.16486699128315 0.0006187 0  1.16486699128315 0.0009043100000000001 0  1.16486699128315 0.001275603 0  1.16486699128315 0.0017582839 0  1.33168517119083 0.0001 0  1.33168517119083 0.00023 0  1.33168517119083 0.000399 0  1.33168517119083 0.0006187 0  1.33168517119083 0.0009043100000000001 0  1.33168517119083 0.001275603 0  1.33168517119083 0.0017582839 0  1.550896367654947 0.0001 0  1.550896367654947 0.00023 0  1.550896367654947 0.000399 0  1.550896367654947 0.0006187 0  1.550896367654947 0.0009043100000000001 0  1.550896367654947 0.001275603 0  1.550896367654947 0.0017582839 0  1.690190579752499 0.0999 0  1.690190579752499 0.09977000000000001 0  1.690190579752499 0.09960100000000001 0  1.690190579752499 0.09938130000000001 0  1.690190579752499 0.09909569 0  1.690190579752499 0.09872439700000001 0  1.690190579752499 0.0982417161 0  1.501075641185789 9.999999999999999e-05 0  1.501075641185789 0.00023 0  1.501075641185789 0.000399 0  1.501075641185789 0.0006187 0  1.501075641185789 0.0009043100000000001 0  1.501075641185789 0.001275603 0  1.501075641185789 0.0017582839 0  1.680207905184533 0.0999 0  1.680207905184533 0.09977000000000001 0  1.680207905184533 0.09960100000000001 0  1.680207905184533 0.09938130000000001 0  1.680207905184533 0.09909569 0  1.680207905184533 0.09872439700000001 0  1.680207905184533 0.0982417161 0  1.267185511970863 0.0001 0  1.267185511970863 0.00023 0  1.267185511970863 0.000399 0  1.267185511970863 0.0006187 0  1.267185511970863 0.0009043100000000001 0  1.267185511970863 0.001275603 0  1.267185511970863 0.0017582839 0  1.620311857776821 0.0999 0  1.620311857776821 0.09977000000000001 0  1.620311857776821 0.09960100000000001 0  1.620311857776821 0.09938130000000001 0  1.620311857776821 0.09909569 0  1.620311857776821 0.09872439700000001 0  1.620311857776821 0.0982417161 0  1.580788803536311 0.0001 0  1.580788803536311 0.00023 0  1.580788803536311 0.000399 0  1.580788803536311 0.0006187000000000001 0  1.580788803536311 0.0009043100000000002 0  1.580788803536311 0.001275603 0  1.580788803536311 0.001758283900000001 0  1.10906777763802 0.0001 0  1.10906777763802 0.00023 0  1.10906777763802 0.000399 0  1.10906777763802 0.0006187000000000001 0  1.10906777763802 0.0009043100000000002 0  1.10906777763802 0.001275603 0  1.10906777763802 0.001758283900000001 0  1.150917187871868 9.999999999999999e-05 0  1.150917187871868 0.00023 0  1.150917187871868 0.000399 0  1.150917187871868 0.0006187 0  1.150917187871868 0.0009043100000000001 0  1.150917187871868 0.001275603 0  1.150917187871868 0.0017582839 0  1.570824658242518 0.0001 0  1.570824658242518 0.00023 0  1.570824658242518 0.000399 0  1.570824658242518 0.0006187 0  1.570824658242518 0.0009043100000000001 0  1.570824658242518 0.001275603 0  1.570824658242518 0.0017582839 0  1.30179273530951 9.999999999999999e-05 0  1.30179273530951 0.00023 0  1.30179273530951 0.000399 0  1.30179273530951 0.0006187 0  1.30179273530951 0.0009043100000000001 0  1.30179273530951 0.001275603 0  1.30179273530951 0.0017582839 0  1.660242556048641 0.0999 0  1.660242556048641 0.09977000000000001 0  1.660242556048641 0.09960100000000001 0  1.660242556048641 0.09938130000000001 0  1.660242556048641 0.09909569 0  1.660242556048641 0.09872439700000001 0  1.660242556048641 0.0982417161 0  1.461219060010506 0.0001 0  1.461219060010506 0.00023 0  1.461219060010506 0.000399 0  1.461219060010506 0.0006187 0  1.461219060010506 0.0009043100000000001 0  1.461219060010506 0.001275603 0  1.461219060010506 0.0017582839 0  1.127003239166811 0.0001 0  1.127003239166811 0.00023 0  1.127003239166811 0.000399 0  1.127003239166811 0.0006187000000000001 0  1.127003239166811 0.0009043100000000002 0  1.127003239166811 0.001275603 0  1.127003239166811 0.001758283900000001 0  1.311756880603283 9.999999999999999e-05 0  1.311756880603283 0.00023 0  1.311756880603283 0.000399 0  1.311756880603283 0.0006187 0  1.311756880603283 0.0009043100000000001 0  1.311756880603283 0.001275603 0  1.311756880603283 0.0017582839 0  1.560860512948745 0.0001 0  1.560860512948745 0.00023 0  1.560860512948745 0.000399 0  1.560860512948745 0.0006187000000000001 0  1.560860512948745 0.0009043100000000002 0  1.560860512948745 0.001275603 0  1.560860512948745 0.001758283900000001 0  1.274834732580962 9.999999999999999e-05 0  1.274834732580962 0.00023 0  1.274834732580962 0.000399 0  1.274834732580962 0.0006187 0  1.274834732580962 0.0009043100000000001 0  1.274834732580962 0.001275603 0  1.274834732580962 0.0017582839 0  1.117039093873038 9.999999999999998e-05 0  1.117039093873038 0.00023 0  1.117039093873038 0.0003989999999999999 0  1.117039093873038 0.0006186999999999999 0  1.117039093873038 0.00090431 0  1.117039093873038 0.001275603 0  1.117039093873038 0.0017582839 0  1.292089952249604 0.0001 0  1.292089952249604 0.00023 0  1.292089952249604 0.000399 0  1.292089952249604 0.0006187 0  1.292089952249604 0.0009043100000000001 0  1.292089952249604 0.001275603 0  1.292089952249604 0.0017582839 0  1.590752948830143 0.0001 0  1.590752948830143 0.00023 0  1.590752948830143 0.000399 0  1.590752948830143 0.0006187 0  1.590752948830143 0.0009043100000000001 0  1.590752948830143 0.001275603 0  1.590752948830143 0.0017582839 0  1.411398333541451 9.999999999999999e-05 0  1.411398333541451 0.00023 0  1.411398333541451 0.000399 0  1.411398333541451 0.0006187 0  1.411398333541451 0.0009043100000000001 0  1.411398333541451 0.001275603 0  1.411398333541451 0.0017582839 0  1.128996068225566 0.0001 0  1.128996068225566 0.00023 0  1.128996068225566 0.000399 0  1.128996068225566 0.0006187 0  1.128996068225566 0.0009043100000000001 0  1.128996068225566 0.001275603 0  1.128996068225566 0.0017582839 0  1.600717094123925 0.0001 0  1.600717094123925 0.00023 0  1.600717094123925 0.000399 0  1.600717094123925 0.0006187 0  1.600717094123925 0.0009043100000000001 0  1.600717094123925 0.001275603 0  1.600717094123925 0.0017582839 0  1.283118657571247 0.0001 0  1.283118657571247 0.00023 0  1.283118657571247 0.000399 0  1.283118657571247 0.0006187 0  1.283118657571247 0.0009043100000000001 0  1.283118657571247 0.001275603 0  1.283118657571247 0.0017582839 0  1.111060606696774 0.0001 0  1.111060606696774 0.00023 0  1.111060606696774 0.000399 0  1.111060606696774 0.0006187 0  1.111060606696774 0.0009043100000000001 0  1.111060606696774 0.001275603 0  1.111060606696774 0.0017582839 0  1.180809623753187 0.0001 0  1.180809623753187 0.00023 0  1.180809623753187 0.000399 0  1.180809623753187 0.0006187000000000001 0  1.180809623753187 0.0009043100000000002 0  1.180809623753187 0.001275603 0  1.180809623753187 0.001758283900000001 0  1.093125145167982 9.999999999999999e-05 0  1.093125145167982 0.00023 0  1.093125145167982 0.000399 0  1.093125145167982 0.0006187 0  1.093125145167982 0.0009043100000000001 0  1.093125145167982 0.001275603 0  1.093125145167982 0.0017582839 0  1.166859820341905 0.0001 0  1.166859820341905 0.00023 0  1.166859820341905 0.000399 0  1.166859820341905 0.0006187000000000001 0  1.166859820341905 0.0009043100000000002 0  1.166859820341905 0.001275603 0  1.166859820341905 0.001758283900000001 0  1.640277206912754 0.0999 0  1.640277206912754 0.09977000000000001 0  1.640277206912754 0.09960100000000001 0  1.640277206912754 0.09938130000000001 0  1.640277206912754 0.09909569 0  1.640277206912754 0.09872439700000001 0  1.640277206912754 0.0982417161 0  1.421362478835224 0.0001 0  1.421362478835224 0.00023 0  1.421362478835224 0.000399 0  1.421362478835224 0.0006187 0  1.421362478835224 0.0009043100000000001 0  1.421362478835224 0.001275603 0  1.421362478835224 0.0017582839 0  1.253600390288261 0.0001 0  1.253600390288261 0.00023 0  1.253600390288261 0.000399 0  1.253600390288261 0.0006187000000000001 0  1.253600390288261 0.0009043100000000002 0  1.253600390288261 0.001275603 0  1.253600390288261 0.001758283900000001 0  1.640573675299105 0.0001 0  1.640573675299105 0.00023 0  1.640573675299105 0.000399 0  1.640573675299105 0.0006187 0  1.640573675299105 0.0009043100000000001 0  1.640573675299105 0.001275603 0  1.640573675299105 0.0017582839 0  1.242017269350748 0.0001 0  1.242017269350748 0.00023 0  1.242017269350748 0.000399 0  1.242017269350748 0.0006187000000000001 0  1.242017269350748 0.0009043100000000002 0  1.242017269350748 0.001275603 0  1.242017269350748 0.001758283900000001 0  1.650537820592878 0.0001 0  1.650537820592878 0.00023 0  1.650537820592878 0.000399 0  1.650537820592878 0.0006187 0  1.650537820592878 0.0009043100000000001 0  1.650537820592878 0.001275603 0  1.650537820592878 0.0017582839 0  1.247578120948599 0.0001 0  1.247578120948599 0.00023 0  1.247578120948599 0.000399 0  1.247578120948599 0.0006187000000000001 0  1.247578120948599 0.0009043100000000002 0  1.247578120948599 0.001275603 0  1.247578120948599 0.001758283900000001 0  1.162874162224395 0.0001 0  1.162874162224395 0.0002300000000000001 0  1.162874162224395 0.0003990000000000002 0  1.162874162224395 0.0006187000000000002 0  1.162874162224395 0.0009043100000000004 0  1.162874162224395 0.001275603000000001 0  1.162874162224395 0.001758283900000001 0  1.630609530005332 0.0001 0  1.630609530005332 0.00023 0  1.630609530005332 0.000399 0  1.630609530005332 0.0006187000000000001 0  1.630609530005332 0.0009043100000000002 0  1.630609530005332 0.001275603 0  1.630609530005332 0.001758283900000001 0  1.146931529754358 0.0001 0  1.146931529754358 0.00023 0  1.146931529754358 0.000399 0  1.146931529754358 0.0006187 0  1.146931529754358 0.0009043100000000001 0  1.146931529754358 0.001275603 0  1.146931529754358 0.0017582839 0  1.381505897659957 9.999999999999999e-05 0  1.381505897659957 0.00023 0  1.381505897659957 0.000399 0  1.381505897659957 0.0006187 0  1.381505897659957 0.0009043100000000001 0  1.381505897659957 0.001275603 0  1.381505897659957 0.0017582839 0  1.227763034966436 0.0001 0  1.227763034966436 0.00023 0  1.227763034966436 0.000399 0  1.227763034966436 0.0006187000000000001 0  1.227763034966436 0.0009043100000000002 0  1.227763034966436 0.001275603 0  1.227763034966436 0.001758283900000001 0  1.121024751990547 9.999999999999999e-05 0  1.121024751990547 0.00023 0  1.121024751990547 0.000399 0  1.121024751990547 0.0006187 0  1.121024751990547 0.0009043100000000001 0  1.121024751990547 0.001275603 0  1.121024751990547 0.0017582839 0  1.710155928888432 0.0999 0  1.710155928888432 0.09977000000000001 0  1.710155928888432 0.09960100000000001 0  1.710155928888432 0.09938130000000001 0  1.710155928888432 0.09909569 0  1.710155928888432 0.09872439700000001 0  1.710155928888432 0.0982417161 0  1.660501965886704 0.0001 0  1.660501965886704 0.00023 0  1.660501965886704 0.000399 0  1.660501965886704 0.0006187 0  1.660501965886704 0.0009043100000000001 0  1.660501965886704 0.001275603 0  1.660501965886704 0.0017582839 0  1.371541752366183 0.0001 0  1.371541752366183 0.00023 0  1.371541752366183 0.000399 0  1.371541752366183 0.0006187 0  1.371541752366183 0.0009043100000000001 0  1.371541752366183 0.001275603 0  1.371541752366183 0.0017582839 0  1.232141120812665 0.0001 0  1.232141120812665 0.00023 0  1.232141120812665 0.000399 0  1.232141120812665 0.0006187 0  1.232141120812665 0.0009043100000000001 0  1.232141120812665 0.001275603 0  1.232141120812665 0.0017582839 0  1.670466111180512 0.0001 0  1.670466111180512 0.00023 0  1.670466111180512 0.000399 0  1.670466111180512 0.0006187 0  1.670466111180512 0.0009043100000000001 0  1.670466111180512 0.001275603 0  1.670466111180512 0.0017582839 0  1.23688248446048 0.0001 0  1.23688248446048 0.00023 0  1.23688248446048 0.000399 0  1.23688248446048 0.0006187000000000001 0  1.23688248446048 0.0009043100000000002 0  1.23688248446048 0.001275603 0  1.23688248446048 0.001758283900000001 0  1.481147350598211 0.0001 0  1.481147350598211 0.00023 0  1.481147350598211 0.000399 0  1.481147350598211 0.0006187000000000001 0  1.481147350598211 0.0009043100000000002 0  1.481147350598211 0.001275603 0  1.481147350598211 0.001758283900000001 0  1.097110803285491 9.999999999999999e-05 0  1.097110803285491 0.00023 0  1.097110803285491 0.000399 0  1.097110803285491 0.0006187 0  1.097110803285491 0.0009043100000000001 0  1.097110803285491 0.001275603 0  1.097110803285491 0.0017582839 0  1.620645384711508 0.0001 0  1.620645384711508 0.00023 0  1.620645384711508 0.000399 0  1.620645384711508 0.0006187000000000001 0  1.620645384711508 0.0009043100000000002 0  1.620645384711508 0.001275603 0  1.620645384711508 0.001758283900000001 0  1.207705128061463 0.0001 0  1.207705128061463 0.00023 0  1.207705128061463 0.000399 0  1.207705128061463 0.0006187 0  1.207705128061463 0.0009043100000000001 0  1.207705128061463 0.001275603 0  1.207705128061463 0.0017582839 0  1.7003585470619 0.0001 0  1.7003585470619 0.00023 0  1.7003585470619 0.000399 0  1.7003585470619 0.0006187 0  1.7003585470619 0.0009043100000000001 0  1.7003585470619 0.001275603 0  1.7003585470619 0.0017582839 0  1.223720393159986 0.0001 0  1.223720393159986 0.00023 0  1.223720393159986 0.000399 0  1.223720393159986 0.0006187000000000001 0  1.223720393159986 0.0009043100000000002 0  1.223720393159986 0.001275603 0  1.223720393159986 0.001758283900000001 0  1.690394401768069 0.0001 0  1.690394401768069 0.00023 0  1.690394401768069 0.000399 0  1.690394401768069 0.0006187 0  1.690394401768069 0.0009043100000000001 0  1.690394401768069 0.001275603 0  1.690394401768069 0.0017582839 0  1.219987493828263 0.0001 0  1.219987493828263 0.00023 0  1.219987493828263 0.000399 0  1.219987493828263 0.0006187000000000001 0  1.219987493828263 0.0009043100000000002 0  1.219987493828263 0.001275603 0  1.219987493828263 0.001758283900000001 0  1.113053435755529 9.999999999999999e-05 0  1.113053435755529 0.00023 0  1.113053435755529 0.000399 0  1.113053435755529 0.0006187 0  1.113053435755529 0.0009043100000000001 0  1.113053435755529 0.001275603 0  1.113053435755529 0.0017582839 0  1.650259881480705 0.0999 0  1.650259881480705 0.09977000000000001 0  1.650259881480705 0.09960100000000001 0  1.650259881480705 0.09938130000000001 0  1.650259881480705 0.09909569 0  1.650259881480705 0.09872439700000001 0  1.650259881480705 0.0982417161 0  1.590363834072961 0.0999 0  1.590363834072961 0.09977000000000001 0  1.590363834072961 0.09960100000000001 0  1.590363834072961 0.09938130000000001 0  1.590363834072961 0.09909569 0  1.590363834072961 0.09872439700000001 0  1.590363834072961 0.0982417161 0  1.095117974226737 0.0001 0  1.095117974226737 0.00023 0  1.095117974226737 0.000399 0  1.095117974226737 0.0006187 0  1.095117974226737 0.0009043100000000001 0  1.095117974226737 0.001275603 0  1.095117974226737 0.0017582839 0  1.101096461403001 9.999999999999999e-05 0  1.101096461403001 0.00023 0  1.101096461403001 0.000399 0  1.101096461403001 0.0006187 0  1.101096461403001 0.0009043100000000001 0  1.101096461403001 0.001275603 0  1.101096461403001 0.0017582839 0  1.680430256474285 9.999999999999999e-05 0  1.680430256474285 0.00023 0  1.680430256474285 0.000399 0  1.680430256474285 0.0006187 0  1.680430256474285 0.0009043100000000001 0  1.680430256474285 0.001275603 0  1.680430256474285 0.0017582839 0  1.2104188818489 0.0001 0  1.2104188818489 0.00023 0  1.2104188818489 0.000399 0  1.2104188818489 0.0006187000000000001 0  1.2104188818489 0.0009043100000000002 0  1.2104188818489 0.001275603 0  1.2104188818489 0.001758283900000001 0  1.720286837649466 0.0001 0  1.720286837649466 0.00023 0  1.720286837649466 0.000399 0  1.720286837649466 0.0006187 0  1.720286837649466 0.0009043100000000001 0  1.720286837649466 0.001275603 0  1.720286837649466 0.0017582839 0  1.216540604460539 9.999999999999999e-05 0  1.216540604460539 0.00023 0  1.216540604460539 0.000399 0  1.216540604460539 0.0006187 0  1.216540604460539 0.0009043100000000001 0  1.216540604460539 0.001275603 0  1.216540604460539 0.0017582839 0  1.401434188247646 0.0001 0  1.401434188247646 0.00023 0  1.401434188247646 0.000399 0  1.401434188247646 0.0006187 0  1.401434188247646 0.0009043100000000001 0  1.401434188247646 0.001275603 0  1.401434188247646 0.0017582839 0  1.710322692355692 9.999999999999999e-05 0  1.710322692355692 0.00023 0  1.710322692355692 0.000399 0  1.710322692355692 0.0006187 0  1.710322692355692 0.0009043100000000001 0  1.710322692355692 0.001275603 0  1.710322692355692 0.0017582839 0  1.213357812369785 0.0001 0  1.213357812369785 0.00023 0  1.213357812369785 0.000399 0  1.213357812369785 0.0006187 0  1.213357812369785 0.0009043100000000001 0  1.213357812369785 0.001275603 0  1.213357812369785 0.0017582839 0  1.730250982943265 9.999999999999999e-05 0  1.730250982943265 0.00023 0  1.730250982943265 0.000399 0  1.730250982943265 0.0006187 0  1.730250982943265 0.0009043100000000001 0  1.730250982943265 0.001275603 0  1.730250982943265 0.0017582839 0  1.700173254320466 0.0999 0  1.700173254320466 0.09977000000000001 0  1.700173254320466 0.09960100000000001 0  1.700173254320466 0.09938130000000001 0  1.700173254320466 0.09909569 0  1.700173254320466 0.09872439700000001 0  1.700173254320466 0.0982417161 0  1.610681239417698 0.0001 0  1.610681239417698 0.00023 0  1.610681239417698 0.000399 0  1.610681239417698 0.0006187000000000001 0  1.610681239417698 0.0009043100000000002 0  1.610681239417698 0.001275603 0  1.610681239417698 0.001758283900000001 0  1.182802452811942 0.0001 0  1.182802452811942 0.00023 0  1.182802452811942 0.000399 0  1.182802452811942 0.0006187000000000001 0  1.182802452811942 0.0009043100000000002 0  1.182802452811942 0.001275603 0  1.182802452811942 0.001758283900000001 0  1.142945871636849 0.0001 0  1.142945871636849 0.00023 0  1.142945871636849 0.000399 0  1.142945871636849 0.0006187000000000001 0  1.142945871636849 0.0009043100000000002 0  1.142945871636849 0.001275603 0  1.142945871636849 0.001758283900000001 0  1.451254914716717 0.0001 0  1.451254914716717 0.00023 0  1.451254914716717 0.000399 0  1.451254914716717 0.0006187 0  1.451254914716717 0.0009043100000000001 0  1.451254914716717 0.001275603 0  1.451254914716717 0.0017582839 0  1.760143418824716 0.0001 0  1.760143418824716 0.00023 0  1.760143418824716 0.000399 0  1.760143418824716 0.0006187 0  1.760143418824716 0.0009043100000000001 0  1.760143418824716 0.001275603 0  1.760143418824716 0.0017582839 0  1.205199299294777 9.999999999999998e-05 0  1.205199299294777 0.00023 0  1.205199299294777 0.0003989999999999999 0  1.205199299294777 0.0006186999999999999 0  1.205199299294777 0.00090431 0  1.205199299294777 0.001275603 0  1.205199299294777 0.0017582839 0  1.750179273530885 9.999999999999999e-05 0  1.750179273530885 0.00023 0  1.750179273530885 0.000399 0  1.750179273530885 0.0006187 0  1.750179273530885 0.0009043100000000001 0  1.750179273530885 0.001275603 0  1.750179273530885 0.0017582839 0  1.148924358813113 0.0001 0  1.148924358813113 0.00023 0  1.148924358813113 0.000399 0  1.148924358813113 0.0006187 0  1.148924358813113 0.0009043100000000001 0  1.148924358813113 0.001275603 0  1.148924358813113 0.0017582839 0  1.107074948579265 0.0001 0  1.107074948579265 0.00023 0  1.107074948579265 0.000399 0  1.107074948579265 0.0006187000000000001 0  1.107074948579265 0.0009043100000000002 0  1.107074948579265 0.001275603 0  1.107074948579265 0.001758283900000001 0  1.600346508640897 0.0999 0  1.600346508640897 0.09977000000000001 0  1.600346508640897 0.09960100000000001 0  1.600346508640897 0.09938130000000001 0  1.600346508640897 0.09909569 0  1.600346508640897 0.09872439700000001 0  1.600346508640897 0.0982417161 0  1.20288546443348 0.0001 0  1.20288546443348 0.00023 0  1.20288546443348 0.000399 0  1.20288546443348 0.0006187 0  1.20288546443348 0.0009043100000000001 0  1.20288546443348 0.001275603 0  1.20288546443348 0.0017582839 0  1.391470042953772 0.0001 0  1.391470042953772 0.00023 0  1.391470042953772 0.000399 0  1.391470042953772 0.0006187000000000001 0  1.391470042953772 0.0009043100000000002 0  1.391470042953772 0.001275603 0  1.391470042953772 0.001758283900000001 0  1.740215128237097 0.0001 0  1.740215128237097 0.00023 0  1.740215128237097 0.000399 0  1.740215128237097 0.0006187 0  1.740215128237097 0.0009043100000000001 0  1.740215128237097 0.001275603 0  1.740215128237097 0.0017582839 0  1.196752256223225 9.999999999999999e-05 0  1.196752256223225 0.00023 0  1.196752256223225 0.000399 0  1.196752256223225 0.0006187 0  1.196752256223225 0.0009043100000000001 0  1.196752256223225 0.001275603 0  1.196752256223225 0.0017582839 0  1.780071709412366 0.0001 0  1.780071709412366 0.00023 0  1.780071709412366 0.000399 0  1.780071709412366 0.0006187 0  1.780071709412366 0.0009043100000000001 0  1.780071709412366 0.001275603 0  1.780071709412366 0.0017582839 0  1.200748912638162 9.999999999999999e-05 0  1.200748912638162 0.00023 0  1.200748912638162 0.000399 0  1.200748912638162 0.0006187 0  1.200748912638162 0.0009043100000000001 0  1.200748912638162 0.001275603 0  1.200748912638162 0.0017582839 0  1.770051976296144 0.0999 0  1.770051976296144 0.09977000000000001 0  1.770051976296144 0.09960100000000001 0  1.770051976296144 0.09938130000000001 0  1.770051976296144 0.09909569 0  1.770051976296144 0.09872439700000001 0  1.770051976296144 0.0982417161 0  1.160881333165641 0.0001 0  1.160881333165641 0.00023 0  1.160881333165641 0.000399 0  1.160881333165641 0.0006187 0  1.160881333165641 0.0009043100000000001 0  1.160881333165641 0.001275603 0  1.160881333165641 0.0017582839 0  1.770107564118548 9.999999999999999e-05 0  1.770107564118548 0.00023 0  1.770107564118548 0.000399 0  1.770107564118548 0.0006187 0  1.770107564118548 0.0009043100000000001 0  1.770107564118548 0.001275603 0  1.770107564118548 0.0017582839 0  1.198745085281979 0.0001 0  1.198745085281979 0.00023 0  1.198745085281979 0.000399 0  1.198745085281979 0.0006187000000000001 0  1.198745085281979 0.0009043100000000002 0  1.198745085281979 0.001275603 0  1.198745085281979 0.001758283900000001 0  1.471183205304368 0.0001 0  1.471183205304368 0.00023 0  1.471183205304368 0.000399 0  1.471183205304368 0.0006187 0  1.471183205304368 0.0009043100000000001 0  1.471183205304368 0.001275603 0  1.471183205304368 0.0017582839 0  1.790035854706168 0.0001 0  1.790035854706168 0.00023 0  1.790035854706168 0.000399 0  1.790035854706168 0.0006187 0  1.790035854706168 0.0009043100000000001 0  1.790035854706168 0.001275603 0  1.790035854706168 0.0017582839 0  1.720138603456385 0.0999 0  1.720138603456385 0.09977000000000001 0  1.720138603456385 0.09960100000000001 0  1.720138603456385 0.09938130000000001 0  1.720138603456385 0.09909569 0  1.720138603456385 0.09872439700000001 0  1.720138603456385 0.0982417161 0  1.115046264814284 0.0001 0  1.115046264814284 0.00023 0  1.115046264814284 0.000399 0  1.115046264814284 0.0006187 0  1.115046264814284 0.0009043100000000001 0  1.115046264814284 0.001275603 0  1.115046264814284 0.0017582839 0  1.184795281870697 9.999999999999999e-05 0  1.184795281870697 0.00023 0  1.184795281870697 0.000399 0  1.184795281870697 0.0006187 0  1.184795281870697 0.0009043100000000001 0  1.184795281870697 0.001275603 0  1.184795281870697 0.0017582839 0  1.73012127802432 0.0999 0  1.73012127802432 0.09977000000000001 0  1.73012127802432 0.09960100000000001 0  1.73012127802432 0.09938130000000001 0  1.73012127802432 0.09909569 0  1.73012127802432 0.09872439700000001 0  1.73012127802432 0.0982417161 0  1.750086627160211 0.0999 0  1.750086627160211 0.09977000000000001 0  1.750086627160211 0.09960100000000001 0  1.750086627160211 0.09938130000000001 0  1.750086627160211 0.09909569 0  1.750086627160211 0.09872439700000001 0  1.750086627160211 0.0982417161 0  1.19475942716447 0.0001 0  1.19475942716447 0.00023 0  1.19475942716447 0.000399 0  1.19475942716447 0.0006187 0  1.19475942716447 0.0009043100000000001 0  1.19475942716447 0.001275603 0  1.19475942716447 0.0017582839 0  1.491111495891984 0.0001 0  1.491111495891984 0.00023 0  1.491111495891984 0.000399 0  1.491111495891984 0.0006187 0  1.491111495891984 0.0009043100000000001 0  1.491111495891984 0.001275603 0  1.491111495891984 0.0017582839 0  1.125010410108057 0.0001 0  1.125010410108057 0.00023 0  1.125010410108057 0.000399 0  1.125010410108057 0.0006187000000000001 0  1.125010410108057 0.0009043100000000002 0  1.125010410108057 0.001275603 0  1.125010410108057 0.001758283900000001 0  1.190773769046961 9.999999999999999e-05 0  1.190773769046961 0.00023 0  1.190773769046961 0.000399 0  1.190773769046961 0.0006187 0  1.190773769046961 0.0009043100000000001 0  1.190773769046961 0.001275603 0  1.190773769046961 0.0017582839 0  1.132981726343075 0.0001 0  1.132981726343075 0.00023 0  1.132981726343075 0.000399 0  1.132981726343075 0.0006187 0  1.132981726343075 0.0009043100000000001 0  1.132981726343075 0.001275603 0  1.132981726343075 0.0017582839 0  1.192766598105715 0.0001 0  1.192766598105715 0.00023 0  1.192766598105715 0.000399 0  1.192766598105715 0.0006187 0  1.192766598105715 0.0009043100000000001 0  1.192766598105715 0.001275603 0  1.192766598105715 0.0017582839 0  1.186788110929451 0.0001 0  1.186788110929451 0.00023 0  1.186788110929451 0.000399 0  1.186788110929451 0.0006187 0  1.186788110929451 0.0009043100000000001 0  1.186788110929451 0.001275603 0  1.186788110929451 0.0017582839 0  1.13896021351934 0.0001 0  1.13896021351934 0.00023 0  1.13896021351934 0.000399 0  1.13896021351934 0.0006187 0  1.13896021351934 0.0009043100000000001 0  1.13896021351934 0.001275603 0  1.13896021351934 0.0017582839 0  1.140953042578094 0.0001 0  1.140953042578094 0.00023 0  1.140953042578094 0.000399 0  1.140953042578094 0.0006187 0  1.140953042578094 0.0009043100000000001 0  1.140953042578094 0.001275603 0  1.140953042578094 0.0017582839 0  1.188780939988206 9.999999999999999e-05 0  1.188780939988206 0.00023 0  1.188780939988206 0.000399 0  1.188780939988206 0.0006187 0  1.188780939988206 0.0009043100000000001 0  1.188780939988206 0.001275603 0  1.188780939988206 0.0017582839 0  1.630294532344788 0.0999 0  1.630294532344788 0.09977000000000001 0  1.630294532344788 0.09960100000000001 0  1.630294532344788 0.09938130000000001 0  1.630294532344788 0.09909569 0  1.630294532344788 0.09872439700000001 0  1.630294532344788 0.0982417161 0  1.580381159505026 0.0999 0  1.580381159505026 0.09977000000000001 0  1.580381159505026 0.09960100000000001 0  1.580381159505026 0.09938130000000001 0  1.580381159505026 0.09909569 0  1.580381159505026 0.09872439700000001 0  1.580381159505026 0.0982417161 0  1.103089290461756 0.0001 0  1.103089290461756 0.00023 0  1.103089290461756 0.000399 0  1.103089290461756 0.0006187 0  1.103089290461756 0.0009043100000000001 0  1.103089290461756 0.001275603 0  1.103089290461756 0.0017582839 0  1.13497455540183 9.999999999999999e-05 0  1.13497455540183 0.00023 0  1.13497455540183 0.000399 0  1.13497455540183 0.0006187 0  1.13497455540183 0.0009043100000000001 0  1.13497455540183 0.001275603 0  1.13497455540183 0.0017582839 0  1.44129076942293 0.0001 0  1.44129076942293 0.00023 0  1.44129076942293 0.000399 0  1.44129076942293 0.0006187 0  1.44129076942293 0.0009043100000000001 0  1.44129076942293 0.001275603 0  1.44129076942293 0.0017582839 0  1.130988897284321 0.0001 0  1.130988897284321 0.00023 0  1.130988897284321 0.000399 0  1.130988897284321 0.0006187 0  1.130988897284321 0.0009043100000000001 0  1.130988897284321 0.001275603 0  1.130988897284321 0.0017582839 0  1.136967384460585 0.0001 0  1.136967384460585 0.00023 0  1.136967384460585 0.000399 0  1.136967384460585 0.0006187 0  1.136967384460585 0.0009043100000000001 0  1.136967384460585 0.001275603 0  1.136967384460585 0.0017582839 0  1.178816794694433 0.0001 0  1.178816794694433 0.00023 0  1.178816794694433 0.000399 0  1.178816794694433 0.0006187 0  1.178816794694433 0.0009043100000000001 0  1.178816794694433 0.001275603 0  1.178816794694433 0.0017582839 0  1.123017581049302 0.0001 0  1.123017581049302 0.00023 0  1.123017581049302 0.000399 0  1.123017581049302 0.0006187000000000001 0  1.123017581049302 0.0009043100000000002 0  1.123017581049302 0.001275603 0  1.123017581049302 0.001758283900000001 0  1.174831136576924 9.999999999999999e-05 0  1.174831136576924 0.00023 0  1.174831136576924 0.000399 0  1.174831136576924 0.0006187 0  1.174831136576924 0.0009043100000000001 0  1.174831136576924 0.001275603 0  1.174831136576924 0.0017582839 0  1.610329183208855 0.0999 0  1.610329183208855 0.09977000000000001 0  1.610329183208855 0.09960100000000001 0  1.610329183208855 0.09938130000000001 0  1.610329183208855 0.09909569 0  1.610329183208855 0.09872439700000001 0  1.610329183208855 0.0982417161 0  1.670225230616577 0.0999 0  1.670225230616577 0.09977000000000001 0  1.670225230616577 0.09960100000000001 0  1.670225230616577 0.09938130000000001 0  1.670225230616577 0.09909569 0  1.670225230616577 0.09872439700000001 0  1.670225230616577 0.0982417161 0  1.144938700695604 0.0001 0  1.144938700695604 0.00023 0  1.144938700695604 0.000399 0  1.144938700695604 0.0006187000000000001 0  1.144938700695604 0.0009043100000000002 0  1.144938700695604 0.001275603 0  1.144938700695604 0.001758283900000001 0  1.176823965635678 0.0001 0  1.176823965635678 0.00023 0  1.176823965635678 0.000399 0  1.176823965635678 0.0006187000000000001 0  1.176823965635678 0.0009043100000000002 0  1.176823965635678 0.001275603 0  1.176823965635678 0.001758283900000001 0  1.790017325432064 0.0999 0  1.790017325432064 0.09977000000000001 0  1.790017325432064 0.09960100000000001 0  1.790017325432064 0.09938130000000001 0  1.790017325432064 0.09909569 0  1.790017325432064 0.09872439700000001 0  1.790017325432064 0.0982417161 0  1.170845478459414 9.999999999999999e-05 0  1.170845478459414 0.00023 0  1.170845478459414 0.000399 0  1.170845478459414 0.0006187 0  1.170845478459414 0.0009043100000000001 0  1.170845478459414 0.001275603 0  1.170845478459414 0.0017582839 0  1.740103952592256 0.0999 0  1.740103952592256 0.09977000000000001 0  1.740103952592256 0.09960100000000001 0  1.740103952592256 0.09938130000000001 0  1.740103952592256 0.09909569 0  1.740103952592256 0.09872439700000001 0  1.740103952592256 0.0982417161 0  1.260122366103743 0.0001 0  1.260122366103743 0.00023 0  1.260122366103743 0.000399 0  1.260122366103743 0.0006187 0  1.260122366103743 0.0009043100000000001 0  1.260122366103743 0.001275603 0  1.260122366103743 0.0017582839 0  1.172838307518169 9.999999999999999e-05 0  1.172838307518169 0.00023 0  1.172838307518169 0.000399 0  1.172838307518169 0.0006187 0  1.172838307518169 0.0009043100000000001 0  1.172838307518169 0.001275603 0  1.172838307518169 0.0017582839 0  1.780034650864111 0.0999 0  1.780034650864111 0.09977000000000001 0  1.780034650864111 0.09960100000000001 0  1.780034650864111 0.09938130000000001 0  1.780034650864111 0.09909569 0  1.780034650864111 0.09872439700000001 0  1.780034650864111 0.0982417161 0  1.10508211952051 0.0001 0  1.10508211952051 0.00023 0  1.10508211952051 0.000399 0  1.10508211952051 0.0006187 0  1.10508211952051 0.0009043100000000001 0  1.10508211952051 0.001275603 0  1.10508211952051 0.0017582839 0  1.158888504106886 0.0001 0  1.158888504106886 0.00023 0  1.158888504106886 0.000399 0  1.158888504106886 0.0006187000000000001 0  1.158888504106886 0.0009043100000000002 0  1.158888504106886 0.001275603 0  1.158888504106886 0.001758283900000001 0  1.156895675048131 0.0001 0  1.156895675048131 0.00023 0  1.156895675048131 0.000399 0  1.156895675048131 0.0006187 0  1.156895675048131 0.0009043100000000001 0  1.156895675048131 0.001275603 0  1.156895675048131 0.0017582839 0  1.152910016930622 9.999999999999999e-05 0  1.152910016930622 0.00023 0  1.152910016930622 0.000399 0  1.152910016930622 0.0006187 0  1.152910016930622 0.0009043100000000001 0  1.152910016930622 0.001275603 0  1.152910016930622 0.0017582839 0  1.168852649400659 9.999999999999999e-05 0  1.168852649400659 0.00023 0  1.168852649400659 0.000399 0  1.168852649400659 0.0006187 0  1.168852649400659 0.0009043100000000001 0  1.168852649400659 0.001275603 0  1.168852649400659 0.0017582839 0  0.288248031052906 0.0001 0  0.288248031052906 0.00023 0  0.288248031052906 0.000399 0  0.288248031052906 0.0006187 0  0.288248031052906 0.0009043100000000001 0  0.288248031052906 0.001275603 0  0.288248031052906 0.0017582839 0  0.6187974479335216 9.999999999999999e-05 0  0.6187974479335216 0.00023 0  0.6187974479335216 0.000399 0  0.6187974479335216 0.0006187 0  0.6187974479335216 0.0009043100000000001 0  0.6187974479335216 0.001275603 0  0.6187974479335216 0.0017582839 0  0.4472814274964795 0.0001 0  0.4472814274964795 0.00023 0  0.4472814274964795 0.000399 0  0.4472814274964795 0.0006187000000000001 0  0.4472814274964795 0.0009043100000000002 0  0.4472814274964795 0.001275603 0  0.4472814274964795 0.001758283900000001 0  0.2683688564975261 9.999999999999999e-05 0  0.2683688564975261 0.00023 0  0.2683688564975261 0.000399 0  0.2683688564975261 0.0006187 0  0.2683688564975261 0.0009043100000000001 0  0.2683688564975261 0.001275603 0  0.2683688564975261 0.0017582839 0  1.172527015705732 0.0999 0  1.172527015705732 0.09977000000000001 0  1.172527015705732 0.09960100000000001 0  1.172527015705732 0.09938130000000001 0  1.172527015705732 0.09909569 0  1.172527015705732 0.09872439700000001 0  1.172527015705732 0.0982417161 0  0.3081272056082858 0.0001 0  0.3081272056082858 0.00023 0  0.3081272056082858 0.000399 0  0.3081272056082858 0.0006187000000000001 0  0.3081272056082858 0.0009043100000000002 0  0.3081272056082858 0.001275603 0  0.3081272056082858 0.001758283900000001 0  0.4274022529409527 9.999999999999999e-05 0  0.4274022529409527 0.00023 0  0.4274022529409527 0.000399 0  0.4274022529409527 0.0006187 0  0.4274022529409527 0.0009043100000000001 0  0.4274022529409527 0.001275603 0  0.4274022529409527 0.0017582839 0  0.5157711254978494 9.999999999999999e-05 0  0.5157711254978494 0.00023 0  0.5157711254978494 0.000399 0  0.5157711254978494 0.0006187 0  0.5157711254978494 0.0009043100000000001 0  0.5157711254978494 0.001275603 0  0.5157711254978494 0.0017582839 0  0.2981876183305959 0.0001 0  0.2981876183305959 0.00023 0  0.2981876183305959 0.000399 0  0.2981876183305959 0.0006187 0  0.2981876183305959 0.0009043100000000001 0  0.2981876183305959 0.001275603 0  0.2981876183305959 0.0017582839 0  0.5389528546926976 0.0001 0  0.5389528546926976 0.00023 0  0.5389528546926976 0.000399 0  0.5389528546926976 0.0006187 0  0.5389528546926976 0.0009043100000000001 0  0.5389528546926976 0.001275603 0  0.5389528546926976 0.0017582839 0  0.4075230783854257 9.999999999999999e-05 0  0.4075230783854257 0.00023 0  0.4075230783854257 0.000399 0  0.4075230783854257 0.0006187 0  0.4075230783854257 0.0009043100000000001 0  0.4075230783854257 0.001275603 0  0.4075230783854257 0.0017582839 0  0.05963752366609719 0.0001 0  0.05963752366609719 0.00023 0  0.05963752366609719 0.000399 0  0.05963752366609719 0.0006187 0  0.05963752366609719 0.0009043100000000001 0  0.05963752366609719 0.001275603 0  0.05963752366609719 0.0017582839 0  0.4174626656631892 0.0001 0  0.4174626656631892 0.00023 0  0.4174626656631892 0.000399 0  0.4174626656631892 0.0006187000000000001 0  0.4174626656631892 0.0009043100000000002 0  0.4174626656631892 0.001275603 0  0.4174626656631892 0.001758283900000001 0  0.2584292692198362 0.0001 0  0.2584292692198362 0.00023 0  0.2584292692198362 0.000399 0  0.2584292692198362 0.0006187 0  0.2584292692198362 0.0009043100000000001 0  0.2584292692198362 0.001275603 0  0.2584292692198362 0.0017582839 0  0.009939587277681541 0.0001 0  0.009939587277681541 0.00023 0  0.009939587277681541 0.000399 0  0.009939587277681541 0.0006187 0  0.009939587277681541 0.0009043100000000001 0  0.009939587277681541 0.001275603 0  0.009939587277681541 0.0017582839 0  0.3180667928859758 0.0001 0  0.3180667928859758 0.00023 0  0.3180667928859758 0.000399 0  0.3180667928859758 0.0006187000000000001 0  0.3180667928859758 0.0009043100000000002 0  0.3180667928859758 0.001275603 0  0.3180667928859758 0.001758283900000001 0  0.2186709201090765 0.0001 0  0.2186709201090765 0.00023 0  0.2186709201090765 0.000399 0  0.2186709201090765 0.0006187 0  0.2186709201090765 0.0009043100000000001 0  0.2186709201090765 0.001275603 0  0.2186709201090765 0.0017582839 0  0.616809530477969 0.0001 0  0.616809530477969 0.00023 0  0.616809530477969 0.000399 0  0.616809530477969 0.0006187 0  0.616809530477969 0.0009043100000000001 0  0.616809530477969 0.001275603 0  0.616809530477969 0.0017582839 0  0.3975834911076623 9.999999999999999e-05 0  0.3975834911076623 0.00023 0  0.3975834911076623 0.000399 0  0.3975834911076623 0.0006187 0  0.3975834911076623 0.0009043100000000001 0  0.3975834911076623 0.001275603 0  0.3975834911076623 0.0017582839 0  0.3478855547190456 9.999999999999999e-05 0  0.3478855547190456 0.00023 0  0.3478855547190456 0.000399 0  0.3478855547190456 0.0006187 0  0.3478855547190456 0.0009043100000000001 0  0.3478855547190456 0.001275603 0  0.3478855547190456 0.0017582839 0  0.3876439038298989 0.0001 0  0.3876439038298989 0.00023 0  0.3876439038298989 0.000399 0  0.3876439038298989 0.0006187 0  0.3876439038298989 0.0009043100000000001 0  0.3876439038298989 0.001275603 0  0.3876439038298989 0.0017582839 0  0.3280063801636657 0.0001 0  0.3280063801636657 0.00023 0  0.3280063801636657 0.000399 0  0.3280063801636657 0.0006187 0  0.3280063801636657 0.0009043100000000001 0  0.3280063801636657 0.001275603 0  0.3280063801636657 0.0017582839 0  0.3777043165521413 0.0001 0  0.3777043165521413 0.00023 0  0.3777043165521413 0.000399 0  0.3777043165521413 0.0006187000000000001 0  0.3777043165521413 0.0009043100000000002 0  0.3777043165521413 0.001275603 0  0.3777043165521413 0.001758283900000001 0  0.3379459674413556 0.0001 0  0.3379459674413556 0.00023 0  0.3379459674413556 0.000399 0  0.3379459674413556 0.0006187000000000001 0  0.3379459674413556 0.0009043100000000002 0  0.3379459674413556 0.001275603 0  0.3379459674413556 0.001758283900000001 0  0.278308443775216 0.0001 0  0.278308443775216 0.00023 0  0.278308443775216 0.000399 0  0.278308443775216 0.0006187 0  0.278308443775216 0.0009043100000000001 0  0.278308443775216 0.001275603 0  0.278308443775216 0.0017582839 0  1.190495829927968 0.0999 0  1.190495829927968 0.09977000000000001 0  1.190495829927968 0.09960100000000001 0  1.190495829927968 0.09938130000000001 0  1.190495829927968 0.09909569 0  1.190495829927968 0.09872439700000001 0  1.190495829927968 0.0982417161 0  0.3677647292744254 0.0001 0  0.3677647292744254 0.00023 0  0.3677647292744254 0.000399 0  0.3677647292744254 0.0006187 0  0.3677647292744254 0.0009043100000000001 0  0.3677647292744254 0.001275603 0  0.3677647292744254 0.0017582839 0  1.186502760100799 0.0999 0  1.186502760100799 0.09977000000000001 0  1.186502760100799 0.09960100000000001 0  1.186502760100799 0.09938130000000001 0  1.186502760100799 0.09909569 0  1.186502760100799 0.09872439700000001 0  1.186502760100799 0.0982417161 0  0.3578251419967355 0.0001 0  0.3578251419967355 0.00023 0  0.3578251419967355 0.000399 0  0.3578251419967355 0.0006187000000000001 0  0.3578251419967355 0.0009043100000000002 0  0.3578251419967355 0.001275603 0  0.3578251419967355 0.001758283900000001 0  1.180513155360056 0.0999 0  1.180513155360056 0.09977000000000001 0  1.180513155360056 0.09960100000000001 0  1.180513155360056 0.09938130000000001 0  1.180513155360056 0.09909569 0  1.180513155360056 0.09872439700000001 0  1.180513155360056 0.0982417161 0  0.5918615250678128 0.0001 0  0.5918615250678128 0.00023 0  0.5918615250678128 0.000399 0  0.5918615250678128 0.0006187 0  0.5918615250678128 0.0009043100000000001 0  0.5918615250678128 0.001275603 0  0.5918615250678128 0.0017582839 0  1.192492364841555 0.0999 0  1.192492364841555 0.09977000000000001 0  1.192492364841555 0.09960100000000001 0  1.192492364841555 0.09938130000000001 0  1.192492364841555 0.09909569 0  1.192492364841555 0.09872439700000001 0  1.192492364841555 0.0982417161 0  0.5455300745089914 0.0001 0  0.5455300745089914 0.00023 0  0.5455300745089914 0.000399 0  0.5455300745089914 0.0006187000000000001 0  0.5455300745089914 0.0009043100000000002 0  0.5455300745089914 0.001275603 0  0.5455300745089914 0.001758283900000001 0  1.188499295014381 0.0999 0  1.188499295014381 0.09977000000000001 0  1.188499295014381 0.09960100000000001 0  1.188499295014381 0.09938130000000001 0  1.188499295014381 0.09909569 0  1.188499295014381 0.09872439700000001 0  1.188499295014381 0.0982417161 0  0.4969793638852968 9.999999999999999e-05 0  0.4969793638852968 0.00023 0  0.4969793638852968 0.000399 0  0.4969793638852968 0.0006187 0  0.4969793638852968 0.0009043100000000001 0  0.4969793638852968 0.001275603 0  0.4969793638852968 0.0017582839 0  0.1689729837206268 9.999999999999999e-05 0  0.1689729837206268 0.00023 0  0.1689729837206268 0.000399 0  0.1689729837206268 0.0006187 0  0.1689729837206268 0.0009043100000000001 0  0.1689729837206268 0.001275603 0  0.1689729837206268 0.0017582839 0  0.7480120825444474 0.0001 0  0.7480120825444474 0.00023 0  0.7480120825444474 0.000399 0  0.7480120825444474 0.0006187 0  0.7480120825444474 0.0009043100000000001 0  0.7480120825444474 0.001275603 0  0.7480120825444474 0.0017582839 0  0.7460241650888946 0.0001 0  0.7460241650888946 0.00023 0  0.7460241650888946 0.000399 0  0.7460241650888946 0.0006187 0  0.7460241650888946 0.0009043100000000001 0  0.7460241650888946 0.001275603 0  0.7460241650888946 0.0017582839 0  0.1590333964429369 0.0001 0  0.1590333964429369 0.00023 0  0.1590333964429369 0.000399 0  0.1590333964429369 0.0006187 0  0.1590333964429369 0.0009043100000000001 0  0.1590333964429369 0.001275603 0  0.1590333964429369 0.0017582839 0  0.7440362476333419 0.0001 0  0.7440362476333419 0.00023 0  0.7440362476333419 0.000399 0  0.7440362476333419 0.0006187 0  0.7440362476333419 0.0009043100000000001 0  0.7440362476333419 0.001275603 0  0.7440362476333419 0.0017582839 0  0.6108457781113108 0.0001 0  0.6108457781113108 0.00023 0  0.6108457781113108 0.000399 0  0.6108457781113108 0.0006187000000000001 0  0.6108457781113108 0.0009043100000000002 0  0.6108457781113108 0.001275603 0  0.6108457781113108 0.001758283900000001 0  0.5891188647964261 0.0001 0  0.5891188647964261 0.00023 0  0.5891188647964261 0.000399 0  0.5891188647964261 0.0006187 0  0.5891188647964261 0.0009043100000000001 0  0.5891188647964261 0.001275603 0  0.5891188647964261 0.0017582839 0  0.5067309463239997 9.999999999999999e-05 0  0.5067309463239997 0.00023 0  0.5067309463239997 0.000399 0  0.5067309463239997 0.0006187 0  0.5067309463239997 0.0009043100000000001 0  0.5067309463239997 0.001275603 0  0.5067309463239997 0.0017582839 0  0.7420483301777892 0.0001 0  0.7420483301777892 0.00023 0  0.7420483301777892 0.000399 0  0.7420483301777892 0.0006187 0  0.7420483301777892 0.0009043100000000001 0  0.7420483301777892 0.001275603 0  0.7420483301777892 0.0017582839 0  0.7400604127222364 0.0001 0  0.7400604127222364 0.00023 0  0.7400604127222364 0.000399 0  0.7400604127222364 0.0006187 0  0.7400604127222364 0.0009043100000000001 0  0.7400604127222364 0.001275603 0  0.7400604127222364 0.0017582839 0  0.7380724952666838 9.999999999999999e-05 0  0.7380724952666838 0.00023 0  0.7380724952666838 0.000399 0  0.7380724952666838 0.0006187 0  0.7380724952666838 0.0009043100000000001 0  0.7380724952666838 0.001275603 0  0.7380724952666838 0.0017582839 0  1.158551271310666 0.0999 0  1.158551271310666 0.09977000000000001 0  1.158551271310666 0.09960100000000001 0  1.158551271310666 0.09938130000000001 0  1.158551271310666 0.09909569 0  1.158551271310666 0.09872439700000001 0  1.158551271310666 0.0982417161 0  0.6148216130224162 9.999999999999999e-05 0  0.6148216130224162 0.00023 0  0.6148216130224162 0.000399 0  0.6148216130224162 0.0006187 0  0.6148216130224162 0.0009043100000000001 0  0.6148216130224162 0.001275603 0  0.6148216130224162 0.0017582839 0  0.7360845778111311 0.0001 0  0.7360845778111311 0.00023 0  0.7360845778111311 0.000399 0  0.7360845778111311 0.0006187 0  0.7360845778111311 0.0009043100000000001 0  0.7360845778111311 0.001275603 0  0.7360845778111311 0.0017582839 0  0.7340966603555783 0.0001 0  0.7340966603555783 0.00023 0  0.7340966603555783 0.000399 0  0.7340966603555783 0.0006187 0  0.7340966603555783 0.0009043100000000001 0  0.7340966603555783 0.001275603 0  0.7340966603555783 0.0017582839 0  0.2087313328313865 0.0001 0  0.2087313328313865 0.00023 0  0.2087313328313865 0.000399 0  0.2087313328313865 0.0006187 0  0.2087313328313865 0.0009043100000000001 0  0.2087313328313865 0.001275603 0  0.2087313328313865 0.0017582839 0  0.5794522250791264 9.999999999999999e-05 0  0.5794522250791264 0.00023 0  0.5794522250791264 0.000399 0  0.5794522250791264 0.0006187 0  0.5794522250791264 0.0009043100000000001 0  0.5794522250791264 0.001275603 0  0.5794522250791264 0.0017582839 0  1.174523550619313 0.0999 0  1.174523550619313 0.09977000000000001 0  1.174523550619313 0.09960100000000001 0  1.174523550619313 0.09938130000000001 0  1.174523550619313 0.09909569 0  1.174523550619313 0.09872439700000001 0  1.174523550619313 0.0982417161 0  0.582933778518776 9.999999999999999e-05 0  0.582933778518776 0.00023 0  0.582933778518776 0.000399 0  0.582933778518776 0.0006187 0  0.582933778518776 0.0009043100000000001 0  0.582933778518776 0.001275603 0  0.582933778518776 0.0017582839 0  0.6128336955668636 0.0001 0  0.6128336955668636 0.00023 0  0.6128336955668636 0.000399 0  0.6128336955668636 0.0006187 0  0.6128336955668636 0.0009043100000000001 0  0.6128336955668636 0.001275603 0  0.6128336955668636 0.0017582839 0  0.7321087429000257 0.0001 0  0.7321087429000257 0.00023 0  0.7321087429000257 0.000399 0  0.7321087429000257 0.0006187 0  0.7321087429000257 0.0009043100000000001 0  0.7321087429000257 0.001275603 0  0.7321087429000257 0.0017582839 0  0.1391542218875571 0.0001 0  0.1391542218875571 0.00023 0  0.1391542218875571 0.000399 0  0.1391542218875571 0.0006187000000000001 0  0.1391542218875571 0.0009043100000000002 0  0.1391542218875571 0.001275603 0  0.1391542218875571 0.001758283900000001 0  0.7301208254444729 0.0001 0  0.7301208254444729 0.00023 0  0.7301208254444729 0.000399 0  0.7301208254444729 0.0006187 0  0.7301208254444729 0.0009043100000000001 0  0.7301208254444729 0.001275603 0  0.7301208254444729 0.0017582839 0  0.7281329079889202 0.0001 0  0.7281329079889202 0.00023 0  0.7281329079889202 0.000399 0  0.7281329079889202 0.0006187 0  0.7281329079889202 0.0009043100000000001 0  0.7281329079889202 0.001275603 0  0.7281329079889202 0.0017582839 0  0.1292146346098671 0.0001 0  0.1292146346098671 0.00023 0  0.1292146346098671 0.000399 0  0.1292146346098671 0.0006187 0  0.1292146346098671 0.0009043100000000001 0  0.1292146346098671 0.001275603 0  0.1292146346098671 0.0017582839 0  0.7261449905333676 0.0001 0  0.7261449905333676 0.00023 0  0.7261449905333676 0.000399 0  0.7261449905333676 0.0006187 0  0.7261449905333676 0.0009043100000000001 0  0.7261449905333676 0.001275603 0  0.7261449905333676 0.0017582839 0  1.156554736397085 0.0999 0  1.156554736397085 0.09977000000000001 0  1.156554736397085 0.09960100000000001 0  1.156554736397085 0.09938130000000001 0  1.156554736397085 0.09909569 0  1.156554736397085 0.09872439700000001 0  1.156554736397085 0.0982417161 0  1.176520085532894 0.0999 0  1.176520085532894 0.09977000000000001 0  1.176520085532894 0.09960100000000001 0  1.176520085532894 0.09938130000000001 0  1.176520085532894 0.09909569 0  1.176520085532894 0.09872439700000001 0  1.176520085532894 0.0982417161 0  0.7241570730778149 0.0001 0  0.7241570730778149 0.00023 0  0.7241570730778149 0.000399 0  0.7241570730778149 0.0006187 0  0.7241570730778149 0.0009043100000000001 0  0.7241570730778149 0.001275603 0  0.7241570730778149 0.0017582839 0  0.5861492110966979 0.0001 0  0.5861492110966979 0.00023 0  0.5861492110966979 0.000399 0  0.5861492110966979 0.0006187 0  0.5861492110966979 0.0009043100000000001 0  0.5861492110966979 0.001275603 0  0.5861492110966979 0.0017582839 0  0.722169155622262 0.0001 0  0.722169155622262 0.00023 0  0.722169155622262 0.000399 0  0.722169155622262 0.0006187 0  0.722169155622262 0.0009043100000000001 0  0.722169155622262 0.001275603 0  0.722169155622262 0.0017582839 0  0.7201812381667094 0.0001 0  0.7201812381667094 0.00023 0  0.7201812381667094 0.000399 0  0.7201812381667094 0.0006187 0  0.7201812381667094 0.0009043100000000001 0  0.7201812381667094 0.001275603 0  0.7201812381667094 0.0017582839 0  0.7181933207111566 0.0001 0  0.7181933207111566 0.00023 0  0.7181933207111566 0.000399 0  0.7181933207111566 0.0006187 0  0.7181933207111566 0.0009043100000000001 0  0.7181933207111566 0.001275603 0  0.7181933207111566 0.0017582839 0  0.1987917455536966 0.0001 0  0.1987917455536966 0.00023 0  0.1987917455536966 0.000399 0  0.1987917455536966 0.0006187 0  0.1987917455536966 0.0009043100000000001 0  0.1987917455536966 0.001275603 0  0.1987917455536966 0.0017582839 0  0.149093809165247 0.0001 0  0.149093809165247 0.00023 0  0.149093809165247 0.000399 0  0.149093809165247 0.0006187 0  0.149093809165247 0.0009043100000000001 0  0.149093809165247 0.001275603 0  0.149093809165247 0.0017582839 0  1.178516620446475 0.0999 0  1.178516620446475 0.09977000000000001 0  1.178516620446475 0.09960100000000001 0  1.178516620446475 0.09938130000000001 0  1.178516620446475 0.09909569 0  1.178516620446475 0.09872439700000001 0  1.178516620446475 0.0982417161 0  0.716205403255604 0.0001 0  0.716205403255604 0.00023 0  0.716205403255604 0.000399 0  0.716205403255604 0.0006187 0  0.716205403255604 0.0009043100000000001 0  0.716205403255604 0.001275603 0  0.716205403255604 0.0017582839 0  0.7142174858000513 9.999999999999999e-05 0  0.7142174858000513 0.00023 0  0.7142174858000513 0.000399 0  0.7142174858000513 0.0006187 0  0.7142174858000513 0.0009043100000000001 0  0.7142174858000513 0.001275603 0  0.7142174858000513 0.0017582839 0  1.160547806224247 0.0999 0  1.160547806224247 0.09977000000000001 0  1.160547806224247 0.09960100000000001 0  1.160547806224247 0.09938130000000001 0  1.160547806224247 0.09909569 0  1.160547806224247 0.09872439700000001 0  1.160547806224247 0.0982417161 0  0.5516045497071054 9.999999999999999e-05 0  0.5516045497071054 0.00023 0  0.5516045497071054 0.000399 0  0.5516045497071054 0.0006187 0  0.5516045497071054 0.0009043100000000001 0  0.5516045497071054 0.001275603 0  0.5516045497071054 0.0017582839 0  0.7122295683444986 0.0001 0  0.7122295683444986 0.00023 0  0.7122295683444986 0.000399 0  0.7122295683444986 0.0006187 0  0.7122295683444986 0.0009043100000000001 0  0.7122295683444986 0.001275603 0  0.7122295683444986 0.0017582839 0  0.7102416508889459 0.0001 0  0.7102416508889459 0.00023 0  0.7102416508889459 0.000399 0  0.7102416508889459 0.0006187 0  0.7102416508889459 0.0009043100000000001 0  0.7102416508889459 0.001275603 0  0.7102416508889459 0.0017582839 0  0.2385500946644563 0.0001 0  0.2385500946644563 0.00023 0  0.2385500946644563 0.000399 0  0.2385500946644563 0.0006187000000000001 0  0.2385500946644563 0.0009043100000000002 0  0.2385500946644563 0.001275603 0  0.2385500946644563 0.001758283900000001 0  0.6088578606557582 0.0001 0  0.6088578606557582 0.00023 0  0.6088578606557582 0.000399 0  0.6088578606557582 0.0006187000000000001 0  0.6088578606557582 0.0009043100000000002 0  0.6088578606557582 0.001275603 0  0.6088578606557582 0.001758283900000001 0  0.7082537334333932 0.0001 0  0.7082537334333932 0.00023 0  0.7082537334333932 0.000399 0  0.7082537334333932 0.0006187 0  0.7082537334333932 0.0009043100000000001 0  0.7082537334333932 0.001275603 0  0.7082537334333932 0.0017582839 0  0.7062658159778404 0.0001 0  0.7062658159778404 0.00023 0  0.7062658159778404 0.000399 0  0.7062658159778404 0.0006187 0  0.7062658159778404 0.0009043100000000001 0  0.7062658159778404 0.001275603 0  0.7062658159778404 0.0017582839 0  0.7042778985222878 0.0001 0  0.7042778985222878 0.00023 0  0.7042778985222878 0.000399 0  0.7042778985222878 0.0006187000000000001 0  0.7042778985222878 0.0009043100000000002 0  0.7042778985222878 0.001275603 0  0.7042778985222878 0.001758283900000001 0  0.07951669822147707 9.999999999999999e-05 0  0.07951669822147707 0.00023 0  0.07951669822147707 0.000399 0  0.07951669822147707 0.0006187 0  0.07951669822147707 0.0009043100000000001 0  0.07951669822147707 0.001275603 0  0.07951669822147707 0.0017582839 0  0.7022899810667351 0.0001 0  0.7022899810667351 0.00023 0  0.7022899810667351 0.000399 0  0.7022899810667351 0.0006187 0  0.7022899810667351 0.0009043100000000001 0  0.7022899810667351 0.001275603 0  0.7022899810667351 0.0017582839 0  0.5756825257083404 9.999999999999999e-05 0  0.5756825257083404 0.00023 0  0.5756825257083404 0.000399 0  0.5756825257083404 0.0006187 0  0.5756825257083404 0.0009043100000000001 0  0.5756825257083404 0.001275603 0  0.5756825257083404 0.0017582839 0  1.154558201483504 0.0999 0  1.154558201483504 0.09977000000000001 0  1.154558201483504 0.09960100000000001 0  1.154558201483504 0.09938130000000001 0  1.154558201483504 0.09909569 0  1.154558201483504 0.09872439700000001 0  1.154558201483504 0.0982417161 0  0.06957711094378713 0.0001 0  0.06957711094378713 0.00023 0  0.06957711094378713 0.000399 0  0.06957711094378713 0.0006187 0  0.06957711094378713 0.0009043100000000001 0  0.06957711094378713 0.001275603 0  0.06957711094378713 0.0017582839 0  0.457221014774243 0.0001 0  0.457221014774243 0.00023 0  0.457221014774243 0.000399 0  0.457221014774243 0.0006187 0  0.457221014774243 0.0009043100000000001 0  0.457221014774243 0.001275603 0  0.457221014774243 0.0017582839 0  0.7003020636111823 0.0001 0  0.7003020636111823 0.00023 0  0.7003020636111823 0.000399 0  0.7003020636111823 0.0006187 0  0.7003020636111823 0.0009043100000000001 0  0.7003020636111823 0.001275603 0  0.7003020636111823 0.0017582839 0  0.6983141461556297 0.0001 0  0.6983141461556297 0.00023 0  0.6983141461556297 0.000399 0  0.6983141461556297 0.0006187000000000001 0  0.6983141461556297 0.0009043100000000002 0  0.6983141461556297 0.001275603 0  0.6983141461556297 0.001758283900000001 0  0.696326228700077 9.999999999999999e-05 0  0.696326228700077 0.00023 0  0.696326228700077 0.000399 0  0.696326228700077 0.0006187 0  0.696326228700077 0.0009043100000000001 0  0.696326228700077 0.001275603 0  0.696326228700077 0.0017582839 0  0.6943383112445243 9.999999999999999e-05 0  0.6943383112445243 0.00023 0  0.6943383112445243 0.000399 0  0.6943383112445243 0.0006187 0  0.6943383112445243 0.0009043100000000001 0  0.6943383112445243 0.001275603 0  0.6943383112445243 0.0017582839 0  0.6923503937889716 0.0001 0  0.6923503937889716 0.00023 0  0.6923503937889716 0.000399 0  0.6923503937889716 0.0006187 0  0.6923503937889716 0.0009043100000000001 0  0.6923503937889716 0.001275603 0  0.6923503937889716 0.0017582839 0  0.6903624763334189 0.0001 0  0.6903624763334189 0.00023 0  0.6903624763334189 0.000399 0  0.6903624763334189 0.0006187 0  0.6903624763334189 0.0009043100000000001 0  0.6903624763334189 0.001275603 0  0.6903624763334189 0.0017582839 0  0.6068699432002055 0.0001 0  0.6068699432002055 0.00023 0  0.6068699432002055 0.000399 0  0.6068699432002055 0.0006187000000000001 0  0.6068699432002055 0.0009043100000000002 0  0.6068699432002055 0.001275603 0  0.6068699432002055 0.001758283900000001 0  0.5671813217260944 9.999999999999999e-05 0  0.5671813217260944 0.00023 0  0.5671813217260944 0.000399 0  0.5671813217260944 0.0006187 0  0.5671813217260944 0.0009043100000000001 0  0.5671813217260944 0.001275603 0  0.5671813217260944 0.0017582839 0  0.1192750473321896 9.999999999999999e-05 0  0.1192750473321896 0.00023 0  0.1192750473321896 0.000399 0  0.1192750473321896 0.0006187 0  0.1192750473321896 0.0009043100000000001 0  0.1192750473321896 0.001275603 0  0.1192750473321896 0.0017582839 0  1.16653741096499 0.0999 0  1.16653741096499 0.09977000000000001 0  1.16653741096499 0.09960100000000001 0  1.16653741096499 0.09938130000000001 0  1.16653741096499 0.09909569 0  1.16653741096499 0.09872439700000001 0  1.16653741096499 0.0982417161 0  0.6883745588778661 0.0001 0  0.6883745588778661 0.00023 0  0.6883745588778661 0.000399 0  0.6883745588778661 0.0006187000000000001 0  0.6883745588778661 0.0009043100000000002 0  0.6883745588778661 0.001275603 0  0.6883745588778661 0.001758283900000001 0  0.6863866414223134 0.0001 0  0.6863866414223134 0.00023 0  0.6863866414223134 0.000399 0  0.6863866414223134 0.0006187 0  0.6863866414223134 0.0009043100000000001 0  0.6863866414223134 0.001275603 0  0.6863866414223134 0.0017582839 0  0.6843987239667607 0.0001 0  0.6843987239667607 0.00023 0  0.6843987239667607 0.000399 0  0.6843987239667607 0.0006187 0  0.6843987239667607 0.0009043100000000001 0  0.6843987239667607 0.001275603 0  0.6843987239667607 0.0017582839 0  0.6028941082891001 0.0001 0  0.6028941082891001 0.00023 0  0.6028941082891001 0.000399 0  0.6028941082891001 0.0006187000000000001 0  0.6028941082891001 0.0009043100000000002 0  0.6028941082891001 0.001275603 0  0.6028941082891001 0.001758283900000001 0  0.6824108065112081 0.0001 0  0.6824108065112081 0.00023 0  0.6824108065112081 0.000399 0  0.6824108065112081 0.0006187000000000001 0  0.6824108065112081 0.0009043100000000002 0  0.6824108065112081 0.001275603 0  0.6824108065112081 0.001758283900000001 0  0.6804228890556554 0.0001 0  0.6804228890556554 0.00023 0  0.6804228890556554 0.000399 0  0.6804228890556554 0.0006187 0  0.6804228890556554 0.0009043100000000001 0  0.6804228890556554 0.001275603 0  0.6804228890556554 0.0017582839 0  0.4671606020520065 0.0001 0  0.4671606020520065 0.00023 0  0.4671606020520065 0.000399 0  0.4671606020520065 0.0006187000000000001 0  0.4671606020520065 0.0009043100000000002 0  0.4671606020520065 0.001275603 0  0.4671606020520065 0.001758283900000001 0  0.5716008310492434 0.0001 0  0.5716008310492434 0.00023 0  0.5716008310492434 0.000399 0  0.5716008310492434 0.0006187000000000001 0  0.5716008310492434 0.0009043100000000002 0  0.5716008310492434 0.001275603 0  0.5716008310492434 0.001758283900000001 0  0.6784349716001027 9.999999999999999e-05 0  0.6784349716001027 0.00023 0  0.6784349716001027 0.000399 0  0.6784349716001027 0.0006187 0  0.6784349716001027 0.0009043100000000001 0  0.6784349716001027 0.001275603 0  0.6784349716001027 0.0017582839 0  0.67644705414455 0.0001 0  0.67644705414455 0.00023 0  0.67644705414455 0.000399 0  0.67644705414455 0.0006187 0  0.67644705414455 0.0009043100000000001 0  0.67644705414455 0.001275603 0  0.67644705414455 0.0017582839 0  1.164540876051408 0.0999 0  1.164540876051408 0.09977000000000001 0  1.164540876051408 0.09960100000000001 0  1.164540876051408 0.09938130000000001 0  1.164540876051408 0.09909569 0  1.164540876051408 0.09872439700000001 0  1.164540876051408 0.0982417161 0  0.04969793638840794 0.0001 0  0.04969793638840794 0.00023 0  0.04969793638840794 0.000399 0  0.04969793638840794 0.0006187000000000001 0  0.04969793638840794 0.0009043100000000002 0  0.04969793638840794 0.001275603 0  0.04969793638840794 0.001758283900000001 0  0.08945628549916627 0.0001 0  0.08945628549916627 0.00023 0  0.08945628549916627 0.000399 0  0.08945628549916627 0.0006187 0  0.08945628549916627 0.0009043100000000001 0  0.08945628549916627 0.001275603 0  0.08945628549916627 0.0017582839 0  0.6744591366889973 9.999999999999999e-05 0  0.6744591366889973 0.00023 0  0.6744591366889973 0.000399 0  0.6744591366889973 0.0006187 0  0.6744591366889973 0.0009043100000000001 0  0.6744591366889973 0.001275603 0  0.6744591366889973 0.0017582839 0  0.6724712192334446 9.999999999999999e-05 0  0.6724712192334446 0.00023 0  0.6724712192334446 0.000399 0  0.6724712192334446 0.0006187 0  0.6724712192334446 0.0009043100000000001 0  0.6724712192334446 0.001275603 0  0.6724712192334446 0.0017582839 0  0.4771001893297699 0.0001 0  0.4771001893297699 0.00023 0  0.4771001893297699 0.000399 0  0.4771001893297699 0.0006187 0  0.4771001893297699 0.0009043100000000001 0  0.4771001893297699 0.001275603 0  0.4771001893297699 0.0017582839 0  0.6704833017778919 0.0001 0  0.6704833017778919 0.00023 0  0.6704833017778919 0.000399 0  0.6704833017778919 0.0006187 0  0.6704833017778919 0.0009043100000000001 0  0.6704833017778919 0.001275603 0  0.6704833017778919 0.0017582839 0  0.5572147069557104 0.0001 0  0.5572147069557104 0.00023 0  0.5572147069557104 0.000399 0  0.5572147069557104 0.0006187 0  0.5572147069557104 0.0009043100000000001 0  0.5572147069557104 0.001275603 0  0.5572147069557104 0.0017582839 0  0.6684953843223391 0.0001 0  0.6684953843223391 0.00023 0  0.6684953843223391 0.000399 0  0.6684953843223391 0.0006187 0  0.6684953843223391 0.0009043100000000001 0  0.6684953843223391 0.001275603 0  0.6684953843223391 0.0017582839 0  0.6048820257446528 0.0001 0  0.6048820257446528 0.00023 0  0.6048820257446528 0.000399 0  0.6048820257446528 0.0006187000000000001 0  0.6048820257446528 0.0009043100000000002 0  0.6048820257446528 0.001275603 0  0.6048820257446528 0.001758283900000001 0  0.6665074668667865 0.0001 0  0.6665074668667865 0.00023 0  0.6665074668667865 0.000399 0  0.6665074668667865 0.0006187000000000001 0  0.6665074668667865 0.0009043100000000002 0  0.6665074668667865 0.001275603 0  0.6665074668667865 0.001758283900000001 0  0.6645195494112337 0.0001 0  0.6645195494112337 0.00023 0  0.6645195494112337 0.000399 0  0.6645195494112337 0.0006187000000000001 0  0.6645195494112337 0.0009043100000000002 0  0.6645195494112337 0.001275603 0  0.6645195494112337 0.001758283900000001 0  1.168533945878571 0.0999 0  1.168533945878571 0.09977000000000001 0  1.168533945878571 0.09960100000000001 0  1.168533945878571 0.09938130000000001 0  1.168533945878571 0.09909569 0  1.168533945878571 0.09872439700000001 0  1.168533945878571 0.0982417161 0  0.6625316319556811 0.0001 0  0.6625316319556811 0.00023 0  0.6625316319556811 0.000399 0  0.6625316319556811 0.0006187 0  0.6625316319556811 0.0009043100000000001 0  0.6625316319556811 0.001275603 0  0.6625316319556811 0.0017582839 0  0.2286105073867664 0.0001 0  0.2286105073867664 0.00023 0  0.2286105073867664 0.000399 0  0.2286105073867664 0.0006187 0  0.2286105073867664 0.0009043100000000001 0  0.2286105073867664 0.001275603 0  0.2286105073867664 0.0017582839 0  0.109335460054518 0.0001 0  0.109335460054518 0.00023 0  0.109335460054518 0.000399 0  0.109335460054518 0.0006187000000000001 0  0.109335460054518 0.0009043100000000002 0  0.109335460054518 0.001275603 0  0.109335460054518 0.001758283900000001 0  0.6605437145001284 0.0001 0  0.6605437145001284 0.00023 0  0.6605437145001284 0.000399 0  0.6605437145001284 0.0006187000000000001 0  0.6605437145001284 0.0009043100000000002 0  0.6605437145001284 0.001275603 0  0.6605437145001284 0.001758283900000001 0  0.5318312802296193 0.0001 0  0.5318312802296193 0.00023 0  0.5318312802296193 0.000399 0  0.5318312802296193 0.0006187 0  0.5318312802296193 0.0009043100000000001 0  0.5318312802296193 0.001275603 0  0.5318312802296193 0.0017582839 0  0.02981876183304314 0.0001 0  0.02981876183304314 0.00023 0  0.02981876183304314 0.000399 0  0.02981876183304314 0.0006187 0  0.02981876183304314 0.0009043100000000001 0  0.02981876183304314 0.001275603 0  0.02981876183304314 0.0017582839 0  0.6585557970445757 0.0001 0  0.6585557970445757 0.00023 0  0.6585557970445757 0.000399 0  0.6585557970445757 0.0006187 0  0.6585557970445757 0.0009043100000000001 0  0.6585557970445757 0.001275603 0  0.6585557970445757 0.0017582839 0  0.656567879589023 9.999999999999999e-05 0  0.656567879589023 0.00023 0  0.656567879589023 0.000399 0  0.656567879589023 0.0006187 0  0.656567879589023 0.0009043100000000001 0  0.656567879589023 0.001275603 0  0.656567879589023 0.0017582839 0  0.6545799621334703 9.999999999999999e-05 0  0.6545799621334703 0.00023 0  0.6545799621334703 0.000399 0  0.6545799621334703 0.0006187 0  0.6545799621334703 0.0009043100000000001 0  0.6545799621334703 0.001275603 0  0.6545799621334703 0.0017582839 0  0.6525920446779175 9.999999999999999e-05 0  0.6525920446779175 0.00023 0  0.6525920446779175 0.000399 0  0.6525920446779175 0.0006187 0  0.6525920446779175 0.0009043100000000001 0  0.6525920446779175 0.001275603 0  0.6525920446779175 0.0017582839 0  0.2484896819421462 0.0001 0  0.2484896819421462 0.00023 0  0.2484896819421462 0.000399 0  0.2484896819421462 0.0006187000000000001 0  0.2484896819421462 0.0009043100000000002 0  0.2484896819421462 0.001275603 0  0.2484896819421462 0.001758283900000001 0  1.162544341137828 0.0999 0  1.162544341137828 0.09977000000000001 0  1.162544341137828 0.09960100000000001 0  1.162544341137828 0.09938130000000001 0  1.162544341137828 0.09909569 0  1.162544341137828 0.09872439700000001 0  1.162544341137828 0.0982417161 0  0.5943945443357254 0.0001 0  0.5943945443357254 0.00023 0  0.5943945443357254 0.000399 0  0.5943945443357254 0.0006187000000000001 0  0.5943945443357254 0.0009043100000000002 0  0.5943945443357254 0.001275603 0  0.5943945443357254 0.001758283900000001 0  0.6506041272223648 0.0001 0  0.6506041272223648 0.00023 0  0.6506041272223648 0.000399 0  0.6506041272223648 0.0006187 0  0.6506041272223648 0.0009043100000000001 0  0.6506041272223648 0.001275603 0  0.6506041272223648 0.0017582839 0  0.6486162097668122 0.0001 0  0.6486162097668122 0.00023 0  0.6486162097668122 0.000399 0  0.6486162097668122 0.0006187 0  0.6486162097668122 0.0009043100000000001 0  0.6486162097668122 0.001275603 0  0.6486162097668122 0.0017582839 0  0.562396037778403 0.0001 0  0.562396037778403 0.00023 0  0.562396037778403 0.000399 0  0.562396037778403 0.0006187000000000001 0  0.562396037778403 0.0009043100000000002 0  0.562396037778403 0.001275603 0  0.562396037778403 0.001758283900000001 0  0.09939587277684642 0.0001 0  0.09939587277684642 0.00023 0  0.09939587277684642 0.000399 0  0.09939587277684642 0.0006187 0  0.09939587277684642 0.0009043100000000001 0  0.09939587277684642 0.001275603 0  0.09939587277684642 0.0017582839 0  0.6466282923112595 0.0001 0  0.6466282923112595 0.00023 0  0.6466282923112595 0.000399 0  0.6466282923112595 0.0006187 0  0.6466282923112595 0.0009043100000000001 0  0.6466282923112595 0.001275603 0  0.6466282923112595 0.0017582839 0  0.6446403748557068 0.0001 0  0.6446403748557068 0.00023 0  0.6446403748557068 0.000399 0  0.6446403748557068 0.0006187000000000001 0  0.6446403748557068 0.0009043100000000002 0  0.6446403748557068 0.001275603 0  0.6446403748557068 0.001758283900000001 0  0.6009061908335473 0.0001 0  0.6009061908335473 0.00023 0  0.6009061908335473 0.000399 0  0.6009061908335473 0.0006187000000000001 0  0.6009061908335473 0.0009043100000000002 0  0.6009061908335473 0.001275603 0  0.6009061908335473 0.001758283900000001 0  0.1888521582760067 0.0001 0  0.1888521582760067 0.00023 0  0.1888521582760067 0.000399 0  0.1888521582760067 0.0006187 0  0.1888521582760067 0.0009043100000000001 0  0.1888521582760067 0.001275603 0  0.1888521582760067 0.0017582839 0  0.642652457400154 0.0001 0  0.642652457400154 0.00023 0  0.642652457400154 0.000399 0  0.642652457400154 0.0006187 0  0.642652457400154 0.0009043100000000001 0  0.642652457400154 0.001275603 0  0.642652457400154 0.0017582839 0  0.6406645399446014 0.0001 0  0.6406645399446014 0.00023 0  0.6406645399446014 0.000399 0  0.6406645399446014 0.0006187000000000001 0  0.6406645399446014 0.0009043100000000002 0  0.6406645399446014 0.001275603 0  0.6406645399446014 0.001758283900000001 0  1.170530480792151 0.0999 0  1.170530480792151 0.09977000000000001 0  1.170530480792151 0.09960100000000001 0  1.170530480792151 0.09938130000000001 0  1.170530480792151 0.09909569 0  1.170530480792151 0.09872439700000001 0  1.170530480792151 0.0982417161 0  0.6386766224890487 0.0001 0  0.6386766224890487 0.00023 0  0.6386766224890487 0.000399 0  0.6386766224890487 0.0006187 0  0.6386766224890487 0.0009043100000000001 0  0.6386766224890487 0.001275603 0  0.6386766224890487 0.0017582839 0  1.182509690273637 0.0999 0  1.182509690273637 0.09977000000000001 0  1.182509690273637 0.09960100000000001 0  1.182509690273637 0.09938130000000001 0  1.182509690273637 0.09909569 0  1.182509690273637 0.09872439700000001 0  1.182509690273637 0.0982417161 0  0.6366887050334959 9.999999999999999e-05 0  0.6366887050334959 0.00023 0  0.6366887050334959 0.000399 0  0.6366887050334959 0.0006187 0  0.6366887050334959 0.0009043100000000001 0  0.6366887050334959 0.001275603 0  0.6366887050334959 0.0017582839 0  0.5967339452616621 0.0001 0  0.5967339452616621 0.00023 0  0.5967339452616621 0.000399 0  0.5967339452616621 0.0006187 0  0.5967339452616621 0.0009043100000000001 0  0.5967339452616621 0.001275603 0  0.5967339452616621 0.0017582839 0  0.6347007875779432 0.0001 0  0.6347007875779432 0.00023 0  0.6347007875779432 0.000399 0  0.6347007875779432 0.0006187 0  0.6347007875779432 0.0009043100000000001 0  0.6347007875779432 0.001275603 0  0.6347007875779432 0.0017582839 0  1.184506225187218 0.0999 0  1.184506225187218 0.09977000000000001 0  1.184506225187218 0.09960100000000001 0  1.184506225187218 0.09938130000000001 0  1.184506225187218 0.09909569 0  1.184506225187218 0.09872439700000001 0  1.184506225187218 0.0982417161 0  0.01987917455536239 0.0001 0  0.01987917455536239 0.00023 0  0.01987917455536239 0.000399 0  0.01987917455536239 0.0006187 0  0.01987917455536239 0.0009043100000000001 0  0.01987917455536239 0.001275603 0  0.01987917455536239 0.0017582839 0  0.6327128701223905 0.0001 0  0.6327128701223905 0.00023 0  0.6327128701223905 0.000399 0  0.6327128701223905 0.0006187 0  0.6327128701223905 0.0009043100000000001 0  0.6327128701223905 0.001275603 0  0.6327128701223905 0.0017582839 0  0.6307249526668378 0.0001 0  0.6307249526668378 0.00023 0  0.6307249526668378 0.000399 0  0.6307249526668378 0.0006187 0  0.6307249526668378 0.0009043100000000001 0  0.6307249526668378 0.001275603 0  0.6307249526668378 0.0017582839 0  0.6287370352112852 0.0001 0  0.6287370352112852 0.00023 0  0.6287370352112852 0.000399 0  0.6287370352112852 0.0006187 0  0.6287370352112852 0.0009043100000000001 0  0.6287370352112852 0.001275603 0  0.6287370352112852 0.0017582839 0  0.1789125709983168 9.999999999999999e-05 0  0.1789125709983168 0.00023 0  0.1789125709983168 0.000399 0  0.1789125709983168 0.0006187 0  0.1789125709983168 0.0009043100000000001 0  0.1789125709983168 0.001275603 0  0.1789125709983168 0.0017582839 0  0.5988945293659402 0.0001 0  0.5988945293659402 0.00023 0  0.5988945293659402 0.000399 0  0.5988945293659402 0.0006187000000000001 0  0.5988945293659402 0.0009043100000000002 0  0.5988945293659402 0.001275603 0  0.5988945293659402 0.001758283900000001 0  0.5241202977806269 0.0001 0  0.5241202977806269 0.00023 0  0.5241202977806269 0.000399 0  0.5241202977806269 0.0006187000000000001 0  0.5241202977806269 0.0009043100000000002 0  0.5241202977806269 0.001275603 0  0.5241202977806269 0.001758283900000001 0  0.6267491177557325 0.0001 0  0.6267491177557325 0.00023 0  0.6267491177557325 0.000399 0  0.6267491177557325 0.0006187 0  0.6267491177557325 0.0009043100000000001 0  0.6267491177557325 0.001275603 0  0.6267491177557325 0.0017582839 0  0.4870397766075334 0.0001 0  0.4870397766075334 0.00023 0  0.4870397766075334 0.000399 0  0.4870397766075334 0.0006187 0  0.4870397766075334 0.0009043100000000001 0  0.4870397766075334 0.001275603 0  0.4870397766075334 0.0017582839 0  0.6247612003001798 0.0001 0  0.6247612003001798 0.00023 0  0.6247612003001798 0.000399 0  0.6247612003001798 0.0006187000000000001 0  0.6247612003001798 0.0009043100000000002 0  0.6247612003001798 0.001275603 0  0.6247612003001798 0.001758283900000001 0  0.6227732828446271 0.0001 0  0.6227732828446271 0.00023 0  0.6227732828446271 0.000399 0  0.6227732828446271 0.0006187000000000001 0  0.6227732828446271 0.0009043100000000002 0  0.6227732828446271 0.001275603 0  0.6227732828446271 0.001758283900000001 0  0.6207853653890744 0.0001 0  0.6207853653890744 0.00023 0  0.6207853653890744 0.000399 0  0.6207853653890744 0.0006187 0  0.6207853653890744 0.0009043100000000001 0  0.6207853653890744 0.001275603 0  0.6207853653890744 0.0017582839 0  0.03975834911072389 9.999999999999999e-05 0  0.03975834911072389 0.00023 0  0.03975834911072389 0.000399 0  0.03975834911072389 0.0006187 0  0.03975834911072389 0.0009043100000000001 0  0.03975834911072389 0.001275603 0  0.03975834911072389 0.0017582839 0  0.4373418402187161 0.0001 0  0.4373418402187161 0.00023 0  0.4373418402187161 0.000399 0  0.4373418402187161 0.0006187 0  0.4373418402187161 0.0009043100000000001 0  0.4373418402187161 0.001275603 0  0.4373418402187161 0.0017582839 0  1.570398484937076 0.0999 0  1.570398484937076 0.09977000000000001 0  1.570398484937076 0.09960100000000001 0  1.570398484937076 0.09938130000000001 0  1.570398484937076 0.09909569 0  1.570398484937076 0.09872439700000001 0  1.570398484937076 0.0982417161 0  0.6434452636039245 0.0999 0  0.6434452636039245 0.09977000000000001 0  0.6434452636039245 0.09960100000000001 0  0.6434452636039245 0.09938130000000001 0  0.6434452636039245 0.09909569 0  0.6434452636039245 0.09872439700000001 0  0.6434452636039245 0.0982417161 0  0.6414487286903252 0.0999 0  0.6414487286903252 0.09977000000000001 0  0.6414487286903252 0.09960100000000001 0  0.6414487286903252 0.09938130000000001 0  0.6414487286903252 0.09909569 0  0.6414487286903252 0.09872439700000001 0  0.6414487286903252 0.0982417161 0  0.6394521937767259 0.0999 0  0.6394521937767259 0.09977000000000001 0  0.6394521937767259 0.09960100000000001 0  0.6394521937767259 0.09938130000000001 0  0.6394521937767259 0.09909569 0  0.6394521937767259 0.09872439700000001 0  0.6394521937767259 0.0982417161 0  0.6374556588631266 0.0999 0  0.6374556588631266 0.09977000000000001 0  0.6374556588631266 0.09960100000000001 0  0.6374556588631266 0.09938130000000001 0  0.6374556588631266 0.09909569 0  0.6374556588631266 0.09872439700000001 0  0.6374556588631266 0.0982417161 0  0.6354591239495271 0.0999 0  0.6354591239495271 0.09977000000000001 0  0.6354591239495271 0.09960100000000001 0  0.6354591239495271 0.09938130000000001 0  0.6354591239495271 0.09909569 0  0.6354591239495271 0.09872439700000001 0  0.6354591239495271 0.0982417161 0  0.6334625890359276 0.0999 0  0.6334625890359276 0.09977000000000001 0  0.6334625890359276 0.09960100000000001 0  0.6334625890359276 0.09938130000000001 0  0.6334625890359276 0.09909569 0  0.6334625890359276 0.09872439700000001 0  0.6334625890359276 0.0982417161 0  0.6314660541223283 0.0999 0  0.6314660541223283 0.09977000000000001 0  0.6314660541223283 0.09960100000000001 0  0.6314660541223283 0.09938130000000001 0  0.6314660541223283 0.09909569 0  0.6314660541223283 0.09872439700000001 0  0.6314660541223283 0.0982417161 0  0.6294695192087287 0.0999 0  0.6294695192087287 0.09977000000000001 0  0.6294695192087287 0.09960100000000001 0  0.6294695192087287 0.09938130000000001 0  0.6294695192087287 0.09909569 0  0.6294695192087287 0.09872439700000001 0  0.6294695192087287 0.0982417161 0  0.6274729842951292 0.0999 0  0.6274729842951292 0.09977000000000001 0  0.6274729842951292 0.09960100000000001 0  0.6274729842951292 0.09938130000000001 0  0.6274729842951292 0.09909569 0  0.6274729842951292 0.09872439700000001 0  0.6274729842951292 0.0982417161 0  0.6254764493815299 0.0999 0  0.6254764493815299 0.09977000000000001 0  0.6254764493815299 0.09960100000000001 0  0.6254764493815299 0.09938130000000001 0  0.6254764493815299 0.09909569 0  0.6254764493815299 0.09872439700000001 0  0.6254764493815299 0.0982417161 0  0.6234799144679304 0.0999 0  0.6234799144679304 0.09977000000000001 0  0.6234799144679304 0.09960100000000001 0  0.6234799144679304 0.09938130000000001 0  0.6234799144679304 0.09909569 0  0.6234799144679304 0.09872439700000001 0  0.6234799144679304 0.0982417161 0  0.6214833795543309 0.0999 0  0.6214833795543309 0.09977000000000001 0  0.6214833795543309 0.09960100000000001 0  0.6214833795543309 0.09938130000000001 0  0.6214833795543309 0.09909569 0  0.6214833795543309 0.09872439700000001 0  0.6214833795543309 0.0982417161 0  0.6194868446407313 0.0999 0  0.6194868446407313 0.09977000000000001 0  0.6194868446407313 0.09960100000000001 0  0.6194868446407313 0.09938130000000001 0  0.6194868446407313 0.09909569 0  0.6194868446407313 0.09872439700000001 0  0.6194868446407313 0.0982417161 0  0.6174903097271358 0.0999 0  0.6174903097271358 0.09977000000000001 0  0.6174903097271358 0.09960100000000001 0  0.6174903097271358 0.09938130000000001 0  0.6174903097271358 0.09909569 0  0.6174903097271358 0.09872439700000001 0  0.6174903097271358 0.0982417161 0  0.6154937748135425 0.0999 0  0.6154937748135425 0.09977000000000001 0  0.6154937748135425 0.09960100000000001 0  0.6154937748135425 0.09938130000000001 0  0.6154937748135425 0.09909569 0  0.6154937748135425 0.09872439700000001 0  0.6154937748135425 0.0982417161 0  0.6134972398999492 0.0999 0  0.6134972398999492 0.09977000000000001 0  0.6134972398999492 0.09960100000000001 0  0.6134972398999492 0.09938130000000001 0  0.6134972398999492 0.09909569 0  0.6134972398999492 0.09872439700000001 0  0.6134972398999492 0.0982417161 0  0.6115007049863554 0.0999 0  0.6115007049863554 0.09977000000000001 0  0.6115007049863554 0.09960100000000001 0  0.6115007049863554 0.09938130000000001 0  0.6115007049863554 0.09909569 0  0.6115007049863554 0.09872439700000001 0  0.6115007049863554 0.0982417161 0  0.6095041700727559 0.0999 0  0.6095041700727559 0.09977000000000001 0  0.6095041700727559 0.09960100000000001 0  0.6095041700727559 0.09938130000000001 0  0.6095041700727559 0.09909569 0  0.6095041700727559 0.09872439700000001 0  0.6095041700727559 0.0982417161 0  0.6075076351591566 0.0999 0  0.6075076351591566 0.09977000000000001 0  0.6075076351591566 0.09960100000000001 0  0.6075076351591566 0.09938130000000001 0  0.6075076351591566 0.09909569 0  0.6075076351591566 0.09872439700000001 0  0.6075076351591566 0.0982417161 0  0.6055111002455571 0.0999 0  0.6055111002455571 0.09977000000000001 0  0.6055111002455571 0.09960100000000001 0  0.6055111002455571 0.09938130000000001 0  0.6055111002455571 0.09909569 0  0.6055111002455571 0.09872439700000001 0  0.6055111002455571 0.0982417161 0  0.6035145653319576 0.0999 0  0.6035145653319576 0.09977000000000001 0  0.6035145653319576 0.09960100000000001 0  0.6035145653319576 0.09938130000000001 0  0.6035145653319576 0.09909569 0  0.6035145653319576 0.09872439700000001 0  0.6035145653319576 0.0982417161 0  0.6015180304183625 0.0999 0  0.6015180304183625 0.09977000000000001 0  0.6015180304183625 0.09960100000000001 0  0.6015180304183625 0.09938130000000001 0  0.6015180304183625 0.09909569 0  0.6015180304183625 0.09872439700000001 0  0.6015180304183625 0.0982417161 0  0.5995168868000387 0.0999 0  0.5995168868000387 0.09977000000000001 0  0.5995168868000387 0.09960100000000001 0  0.5995168868000387 0.09938130000000001 0  0.5995168868000387 0.09909569 0  0.5995168868000387 0.09872439700000001 0  0.5995168868000387 0.0982417161 0  0.5973982988221636 0.0999 0  0.5973982988221636 0.09977000000000001 0  0.5973982988221636 0.09960100000000001 0  0.5973982988221636 0.09938130000000001 0  0.5973982988221636 0.09909569 0  0.5973982988221636 0.09872439700000001 0  0.5973982988221636 0.0982417161 0  0.595103578208771 0.0999 0  0.595103578208771 0.09977000000000001 0  0.595103578208771 0.09960100000000001 0  0.595103578208771 0.09938130000000001 0  0.595103578208771 0.09909569 0  0.595103578208771 0.09872439700000001 0  0.595103578208771 0.0982417161 0  0.592618081316068 0.0999 0  0.592618081316068 0.09977000000000001 0  0.592618081316068 0.09960100000000001 0  0.592618081316068 0.09938130000000001 0  0.592618081316068 0.09909569 0  0.592618081316068 0.09872439700000001 0  0.592618081316068 0.0982417161 0  0.5899259481887558 0.0999 0  0.5899259481887558 0.09977000000000001 0  0.5899259481887558 0.09960100000000001 0  0.5899259481887558 0.09938130000000001 0  0.5899259481887558 0.09909569 0  0.5899259481887558 0.09872439700000001 0  0.5899259481887558 0.0982417161 0  0.5870099990501603 0.0999 0  0.5870099990501603 0.09977000000000001 0  0.5870099990501603 0.09960100000000001 0  0.5870099990501603 0.09938130000000001 0  0.5870099990501603 0.09909569 0  0.5870099990501603 0.09872439700000001 0  0.5870099990501603 0.0982417161 0  0.5838516271276677 0.0999 0  0.5838516271276677 0.09977000000000001 0  0.5838516271276677 0.09960100000000001 0  0.5838516271276677 0.09938130000000001 0  0.5838516271276677 0.09909569 0  0.5838516271276677 0.09872439700000001 0  0.5838516271276677 0.0982417161 0  0.5804306777252044 0.0999 0  0.5804306777252044 0.09977000000000001 0  0.5804306777252044 0.09960100000000001 0  0.5804306777252044 0.09938130000000001 0  0.5804306777252044 0.09909569 0  0.5804306777252044 0.09872439700000001 0  0.5804306777252044 0.0982417161 0  0.5767253213867742 0.0999 0  0.5767253213867742 0.09977000000000001 0  0.5767253213867742 0.09960100000000001 0  0.5767253213867742 0.09938130000000001 0  0.5767253213867742 0.09909569 0  0.5767253213867742 0.09872439700000001 0  0.5767253213867742 0.0982417161 0  0.5727119126568829 0.0999 0  0.5727119126568829 0.09977000000000001 0  0.5727119126568829 0.09960100000000001 0  0.5727119126568829 0.09938130000000001 0  0.5727119126568829 0.09909569 0  0.5727119126568829 0.09872439700000001 0  0.5727119126568829 0.0982417161 0  0.5683648419728728 0.0999 0  0.5683648419728728 0.09977000000000001 0  0.5683648419728728 0.09960100000000001 0  0.5683648419728728 0.09938130000000001 0  0.5683648419728728 0.09909569 0  0.5683648419728728 0.09872439700000001 0  0.5683648419728728 0.0982417161 0  0.5636563686658396 0.0999 0  0.5636563686658396 0.09977000000000001 0  0.5636563686658396 0.09960100000000001 0  0.5636563686658396 0.09938130000000001 0  0.5636563686658396 0.09909569 0  0.5636563686658396 0.09872439700000001 0  0.5636563686658396 0.0982417161 0  0.5585564464256487 0.0999 0  0.5585564464256487 0.09977000000000001 0  0.5585564464256487 0.09960100000000001 0  0.5585564464256487 0.09938130000000001 0  0.5585564464256487 0.09909569 0  0.5585564464256487 0.09872439700000001 0  0.5585564464256487 0.0982417161 0  0.553032533861338 0.0999 0  0.553032533861338 0.09977000000000001 0  0.553032533861338 0.09960100000000001 0  0.553032533861338 0.09938130000000001 0  0.553032533861338 0.09909569 0  0.553032533861338 0.09872439700000001 0  0.553032533861338 0.0982417161 0  0.5470493797429086 0.0999 0  0.5470493797429086 0.09977000000000001 0  0.5470493797429086 0.09960100000000001 0  0.5470493797429086 0.09938130000000001 0  0.5470493797429086 0.09909569 0  0.5470493797429086 0.09872439700000001 0  0.5470493797429086 0.0982417161 0  0.5405688047392474 0.0999 0  0.5405688047392474 0.09977000000000001 0  0.5405688047392474 0.09960100000000001 0  0.5405688047392474 0.09938130000000001 0  0.5405688047392474 0.09909569 0  0.5405688047392474 0.09872439700000001 0  0.5405688047392474 0.0982417161 0  0.5335494554118987 0.0999 0  0.5335494554118987 0.09977000000000001 0  0.5335494554118987 0.09960100000000001 0  0.5335494554118987 0.09938130000000001 0  0.5335494554118987 0.09909569 0  0.5335494554118987 0.09872439700000001 0  0.5335494554118987 0.0982417161 0  0.5259465377421426 0.0999 0  0.5259465377421426 0.09977000000000001 0  0.5259465377421426 0.09960100000000001 0  0.5259465377421426 0.09938130000000001 0  0.5259465377421426 0.09909569 0  0.5259465377421426 0.09872439700000001 0  0.5259465377421426 0.0982417161 0  0.5177115367342673 0.0999 0  0.5177115367342673 0.09977000000000001 0  0.5177115367342673 0.09960100000000001 0  0.5177115367342673 0.09938130000000001 0  0.5177115367342673 0.09909569 0  0.5177115367342673 0.09872439700000001 0  0.5177115367342673 0.0982417161 0  0.5087919032858004 0.0999 0  0.5087919032858004 0.09977000000000001 0  0.5087919032858004 0.09960100000000001 0  0.5087919032858004 0.09938130000000001 0  0.5087919032858004 0.09909569 0  0.5087919032858004 0.09872439700000001 0  0.5087919032858004 0.0982417161 0  0.4991337283995394 0.0999 0  0.4991337283995394 0.09977000000000001 0  0.4991337283995394 0.09960100000000001 0  0.4991337283995394 0.09938130000000001 0  0.4991337283995394 0.09909569 0  0.4991337283995394 0.09872439700000001 0  0.4991337283995394 0.0982417161 0  0.4891510538315422 0.0999 0  0.4891510538315422 0.09977000000000001 0  0.4891510538315422 0.09960100000000001 0  0.4891510538315422 0.09938130000000001 0  0.4891510538315422 0.09909569 0  0.4891510538315422 0.09872439700000001 0  0.4891510538315422 0.0982417161 0  0.4791683792635633 0.0999 0  0.4791683792635633 0.09977000000000001 0  0.4791683792635633 0.09960100000000001 0  0.4791683792635633 0.09938130000000001 0  0.4791683792635633 0.09909569 0  0.4791683792635633 0.09872439700000001 0  0.4791683792635633 0.0982417161 0  0.4691857046955692 0.0999 0  0.4691857046955692 0.09977000000000001 0  0.4691857046955692 0.09960100000000001 0  0.4691857046955692 0.09938130000000001 0  0.4691857046955692 0.09909569 0  0.4691857046955692 0.09872439700000001 0  0.4691857046955692 0.0982417161 0  0.4592030301275718 0.0999 0  0.4592030301275718 0.09977000000000001 0  0.4592030301275718 0.09960100000000001 0  0.4592030301275718 0.09938130000000001 0  0.4592030301275718 0.09909569 0  0.4592030301275718 0.09872439700000001 0  0.4592030301275718 0.0982417161 0  0.4492203555595768 0.0999 0  0.4492203555595768 0.09977000000000001 0  0.4492203555595768 0.09960100000000001 0  0.4492203555595768 0.09938130000000001 0  0.4492203555595768 0.09909569 0  0.4492203555595768 0.09872439700000001 0  0.4492203555595768 0.0982417161 0  0.4392376809916101 0.0999 0  0.4392376809916101 0.09977000000000001 0  0.4392376809916101 0.09960100000000001 0  0.4392376809916101 0.09938130000000001 0  0.4392376809916101 0.09909569 0  0.4392376809916101 0.09872439700000001 0  0.4392376809916101 0.0982417161 0  0.4292550064236231 0.0999 0  0.4292550064236231 0.09977000000000001 0  0.4292550064236231 0.09960100000000001 0  0.4292550064236231 0.09938130000000001 0  0.4292550064236231 0.09909569 0  0.4292550064236231 0.09872439700000001 0  0.4292550064236231 0.0982417161 0  0.4192723318556257 0.0999 0  0.4192723318556257 0.09977000000000001 0  0.4192723318556257 0.09960100000000001 0  0.4192723318556257 0.09938130000000001 0  0.4192723318556257 0.09909569 0  0.4192723318556257 0.09872439700000001 0  0.4192723318556257 0.0982417161 0  0.4092896572876283 0.0999 0  0.4092896572876283 0.09977000000000001 0  0.4092896572876283 0.09960100000000001 0  0.4092896572876283 0.09938130000000001 0  0.4092896572876283 0.09909569 0  0.4092896572876283 0.09872439700000001 0  0.4092896572876283 0.0982417161 0  0.3993069827196312 0.0999 0  0.3993069827196312 0.09977000000000001 0  0.3993069827196312 0.09960100000000001 0  0.3993069827196312 0.09938130000000001 0  0.3993069827196312 0.09909569 0  0.3993069827196312 0.09872439700000001 0  0.3993069827196312 0.0982417161 0  0.3893243081516344 0.0999 0  0.3893243081516344 0.09977000000000001 0  0.3893243081516344 0.09960100000000001 0  0.3893243081516344 0.09938130000000001 0  0.3893243081516344 0.09909569 0  0.3893243081516344 0.09872439700000001 0  0.3893243081516344 0.0982417161 0  0.3793416335836381 0.0999 0  0.3793416335836381 0.09977000000000001 0  0.3793416335836381 0.09960100000000001 0  0.3793416335836381 0.09938130000000001 0  0.3793416335836381 0.09909569 0  0.3793416335836381 0.09872439700000001 0  0.3793416335836381 0.0982417161 0  0.3693589590156716 0.0999 0  0.3693589590156716 0.09977000000000001 0  0.3693589590156716 0.09960100000000001 0  0.3693589590156716 0.09938130000000001 0  0.3693589590156716 0.09909569 0  0.3693589590156716 0.09872439700000001 0  0.3693589590156716 0.0982417161 0  0.3593762844476855 0.0999 0  0.3593762844476855 0.09977000000000001 0  0.3593762844476855 0.09960100000000001 0  0.3593762844476855 0.09938130000000001 0  0.3593762844476855 0.09909569 0  0.3593762844476855 0.09872439700000001 0  0.3593762844476855 0.0982417161 0  0.3493936098796884 0.0999 0  0.3493936098796884 0.09977000000000001 0  0.3493936098796884 0.09960100000000001 0  0.3493936098796884 0.09938130000000001 0  0.3493936098796884 0.09909569 0  0.3493936098796884 0.09872439700000001 0  0.3493936098796884 0.0982417161 0  0.339410935311691 0.0999 0  0.339410935311691 0.09977000000000001 0  0.339410935311691 0.09960100000000001 0  0.339410935311691 0.09938130000000001 0  0.339410935311691 0.09909569 0  0.339410935311691 0.09872439700000001 0  0.339410935311691 0.0982417161 0  0.3294282607436938 0.0999 0  0.3294282607436938 0.09977000000000001 0  0.3294282607436938 0.09960100000000001 0  0.3294282607436938 0.09938130000000001 0  0.3294282607436938 0.09909569 0  0.3294282607436938 0.09872439700000001 0  0.3294282607436938 0.0982417161 0  0.3194455861756964 0.0999 0  0.3194455861756964 0.09977000000000001 0  0.3194455861756964 0.09960100000000001 0  0.3194455861756964 0.09938130000000001 0  0.3194455861756964 0.09909569 0  0.3194455861756964 0.09872439700000001 0  0.3194455861756964 0.0982417161 0  0.309462911607699 0.0999 0  0.309462911607699 0.09977000000000001 0  0.309462911607699 0.09960100000000001 0  0.309462911607699 0.09938130000000001 0  0.309462911607699 0.09909569 0  0.309462911607699 0.09872439700000001 0  0.309462911607699 0.0982417161 0  0.2994802370397325 0.0999 0  0.2994802370397325 0.09977000000000001 0  0.2994802370397325 0.09960100000000001 0  0.2994802370397325 0.09938130000000001 0  0.2994802370397325 0.09909569 0  0.2994802370397325 0.09872439700000001 0  0.2994802370397325 0.0982417161 0  0.289497562471748 0.0999 0  0.289497562471748 0.09977000000000001 0  0.289497562471748 0.09960100000000001 0  0.289497562471748 0.09938130000000001 0  0.289497562471748 0.09909569 0  0.289497562471748 0.09872439700000001 0  0.289497562471748 0.0982417161 0  0.2795148879037506 0.0999 0  0.2795148879037506 0.09977000000000001 0  0.2795148879037506 0.09960100000000001 0  0.2795148879037506 0.09938130000000001 0  0.2795148879037506 0.09909569 0  0.2795148879037506 0.09872439700000001 0  0.2795148879037506 0.0982417161 0  0.2695322133357532 0.0999 0  0.2695322133357532 0.09977000000000001 0  0.2695322133357532 0.09960100000000001 0  0.2695322133357532 0.09938130000000001 0  0.2695322133357532 0.09909569 0  0.2695322133357532 0.09872439700000001 0  0.2695322133357532 0.0982417161 0  0.259549538767756 0.0999 0  0.259549538767756 0.09977000000000001 0  0.259549538767756 0.09960100000000001 0  0.259549538767756 0.09938130000000001 0  0.259549538767756 0.09909569 0  0.259549538767756 0.09872439700000001 0  0.259549538767756 0.0982417161 0  0.2495668641997586 0.0999 0  0.2495668641997586 0.09977000000000001 0  0.2495668641997586 0.09960100000000001 0  0.2495668641997586 0.09938130000000001 0  0.2495668641997586 0.09909569 0  0.2495668641997586 0.09872439700000001 0  0.2495668641997586 0.0982417161 0  0.2395841896317614 0.0999 0  0.2395841896317614 0.09977000000000001 0  0.2395841896317614 0.09960100000000001 0  0.2395841896317614 0.09938130000000001 0  0.2395841896317614 0.09909569 0  0.2395841896317614 0.09872439700000001 0  0.2395841896317614 0.0982417161 0  0.2296015150637929 0.0999 0  0.2296015150637929 0.09977000000000001 0  0.2296015150637929 0.09960100000000001 0  0.2296015150637929 0.09938130000000001 0  0.2296015150637929 0.09909569 0  0.2296015150637929 0.09872439700000001 0  0.2296015150637929 0.0982417161 0  0.2196188404958104 0.0999 0  0.2196188404958104 0.09977000000000001 0  0.2196188404958104 0.09960100000000001 0  0.2196188404958104 0.09938130000000001 0  0.2196188404958104 0.09909569 0  0.2196188404958104 0.09872439700000001 0  0.2196188404958104 0.0982417161 0  0.2096361659278132 0.0999 0  0.2096361659278132 0.09977000000000001 0  0.2096361659278132 0.09960100000000001 0  0.2096361659278132 0.09938130000000001 0  0.2096361659278132 0.09909569 0  0.2096361659278132 0.09872439700000001 0  0.2096361659278132 0.0982417161 0  0.1996534913598158 0.0999 0  0.1996534913598158 0.09977000000000001 0  0.1996534913598158 0.09960100000000001 0  0.1996534913598158 0.09938130000000001 0  0.1996534913598158 0.09909569 0  0.1996534913598158 0.09872439700000001 0  0.1996534913598158 0.0982417161 0  0.1896708167918186 0.0999 0  0.1896708167918186 0.09977000000000001 0  0.1896708167918186 0.09960100000000001 0  0.1896708167918186 0.09938130000000001 0  0.1896708167918186 0.09909569 0  0.1896708167918186 0.09872439700000001 0  0.1896708167918186 0.0982417161 0  0.1796881422238212 0.0999 0  0.1796881422238212 0.09977000000000001 0  0.1796881422238212 0.09960100000000001 0  0.1796881422238212 0.09938130000000001 0  0.1796881422238212 0.09909569 0  0.1796881422238212 0.09872439700000001 0  0.1796881422238212 0.0982417161 0  0.1697054676558238 0.0999 0  0.1697054676558238 0.09977000000000001 0  0.1697054676558238 0.09960100000000001 0  0.1697054676558238 0.09938130000000001 0  0.1697054676558238 0.09909569 0  0.1697054676558238 0.09872439700000001 0  0.1697054676558238 0.0982417161 0  0.1597227930878544 0.0999 0  0.1597227930878544 0.09977000000000001 0  0.1597227930878544 0.09960100000000001 0  0.1597227930878544 0.09938130000000001 0  0.1597227930878544 0.09909569 0  0.1597227930878544 0.09872439700000001 0  0.1597227930878544 0.0982417161 0  0.1497401185198726 0.0999 0  0.1497401185198726 0.09977000000000001 0  0.1497401185198726 0.09960100000000001 0  0.1497401185198726 0.09938130000000001 0  0.1497401185198726 0.09909569 0  0.1497401185198726 0.09872439700000001 0  0.1497401185198726 0.0982417161 0  0.1397574439518752 0.0999 0  0.1397574439518752 0.09977000000000001 0  0.1397574439518752 0.09960100000000001 0  0.1397574439518752 0.09938130000000001 0  0.1397574439518752 0.09909569 0  0.1397574439518752 0.09872439700000001 0  0.1397574439518752 0.0982417161 0  0.1297747693838778 0.0999 0  0.1297747693838778 0.09977000000000001 0  0.1297747693838778 0.09960100000000001 0  0.1297747693838778 0.09938130000000001 0  0.1297747693838778 0.09909569 0  0.1297747693838778 0.09872439700000001 0  0.1297747693838778 0.0982417161 0  0.1197920948158806 0.0999 0  0.1197920948158806 0.09977000000000001 0  0.1197920948158806 0.09960100000000001 0  0.1197920948158806 0.09938130000000001 0  0.1197920948158806 0.09909569 0  0.1197920948158806 0.09872439700000001 0  0.1197920948158806 0.0982417161 0  0.1098094202478832 0.0999 0  0.1098094202478832 0.09977000000000001 0  0.1098094202478832 0.09960100000000001 0  0.1098094202478832 0.09938130000000001 0  0.1098094202478832 0.09909569 0  0.1098094202478832 0.09872439700000001 0  0.1098094202478832 0.0982417161 0  0.09982674567988603 0.0999 0  0.09982674567988603 0.09977000000000001 0  0.09982674567988603 0.09960100000000001 0  0.09982674567988603 0.09938130000000001 0  0.09982674567988603 0.09909569 0  0.09982674567988603 0.09872439700000001 0  0.09982674567988603 0.0982417161 0  0.08984407111191528 0.0999 0  0.08984407111191528 0.09977000000000001 0  0.08984407111191528 0.09960100000000001 0  0.08984407111191528 0.09938130000000001 0  0.08984407111191528 0.09909569 0  0.08984407111191528 0.09872439700000001 0  0.08984407111191528 0.0982417161 0  0.07986139654393476 0.0999 0  0.07986139654393476 0.09977000000000001 0  0.07986139654393476 0.09960100000000001 0  0.07986139654393476 0.09938130000000001 0  0.07986139654393476 0.09909569 0  0.07986139654393476 0.09872439700000001 0  0.07986139654393476 0.0982417161 0  0.06987872197593736 0.0999 0  0.06987872197593736 0.09977000000000001 0  0.06987872197593736 0.09960100000000001 0  0.06987872197593736 0.09938130000000001 0  0.06987872197593736 0.09909569 0  0.06987872197593736 0.09872439700000001 0  0.06987872197593736 0.0982417161 0  0.05989604740794019 0.0999 0  0.05989604740794019 0.09977000000000001 0  0.05989604740794019 0.09960100000000001 0  0.05989604740794019 0.09938130000000001 0  0.05989604740794019 0.09909569 0  0.05989604740794019 0.09872439700000001 0  0.05989604740794019 0.0982417161 0  0.04991337283994346 0.0999 0  0.04991337283994346 0.09977000000000001 0  0.04991337283994346 0.09960100000000001 0  0.04991337283994346 0.09938130000000001 0  0.04991337283994346 0.09909569 0  0.04991337283994346 0.09872439700000001 0  0.04991337283994346 0.0982417161 0  0.03993069827194606 0.0999 0  0.03993069827194606 0.09977000000000001 0  0.03993069827194606 0.09960100000000001 0  0.03993069827194606 0.09938130000000001 0  0.03993069827194606 0.09909569 0  0.03993069827194606 0.09872439700000001 0  0.03993069827194606 0.0982417161 0  0.02994802370394867 0.0999 0  0.02994802370394867 0.09977000000000001 0  0.02994802370394867 0.09960100000000001 0  0.02994802370394867 0.09938130000000001 0  0.02994802370394867 0.09909569 0  0.02994802370394867 0.09872439700000001 0  0.02994802370394867 0.0982417161 0  0.01996534913597636 0.0999 0  0.01996534913597636 0.09977000000000001 0  0.01996534913597636 0.09960100000000001 0  0.01996534913597636 0.09938130000000001 0  0.01996534913597636 0.09909569 0  0.01996534913597636 0.09872439700000001 0  0.01996534913597636 0.0982417161 0  0.009982674567997396 0.0999 0  0.009982674567997396 0.09977000000000001 0  0.009982674567997396 0.09960100000000001 0  0.009982674567997396 0.09938130000000001 0  0.009982674567997396 0.09909569 0  0.009982674567997396 0.09872439700000001 0  0.009982674567997396 0.0982417161 0  0.9828561989151235 0.0999 0  0.9828561989151235 0.09977000000000001 0  0.9828561989151235 0.09960100000000001 0  0.9828561989151235 0.09938130000000001 0  0.9828561989151235 0.09909569 0  0.9828561989151235 0.09872439700000001 0  0.9828561989151235 0.0982417161 0  0.9808596640015365 0.0999 0  0.9808596640015365 0.09977000000000001 0  0.9808596640015365 0.09960100000000001 0  0.9808596640015365 0.09938130000000001 0  0.9808596640015365 0.09909569 0  0.9808596640015365 0.09872439700000001 0  0.9808596640015365 0.0982417161 0  0.9788631290879493 0.0999 0  0.9788631290879493 0.09977000000000001 0  0.9788631290879493 0.09960100000000001 0  0.9788631290879493 0.09938130000000001 0  0.9788631290879493 0.09909569 0  0.9788631290879493 0.09872439700000001 0  0.9788631290879493 0.0982417161 0  0.9768665941743621 0.0999 0  0.9768665941743621 0.09977000000000001 0  0.9768665941743621 0.09960100000000001 0  0.9768665941743621 0.09938130000000001 0  0.9768665941743621 0.09909569 0  0.9768665941743621 0.09872439700000001 0  0.9768665941743621 0.0982417161 0  0.974870059260775 0.0999 0  0.974870059260775 0.09977000000000001 0  0.974870059260775 0.09960100000000001 0  0.974870059260775 0.09938130000000001 0  0.974870059260775 0.09909569 0  0.974870059260775 0.09872439700000001 0  0.974870059260775 0.0982417161 0  0.9728735243471879 0.0999 0  0.9728735243471879 0.09977000000000001 0  0.9728735243471879 0.09960100000000001 0  0.9728735243471879 0.09938130000000001 0  0.9728735243471879 0.09909569 0  0.9728735243471879 0.09872439700000001 0  0.9728735243471879 0.0982417161 0  0.9708769894336008 0.0999 0  0.9708769894336008 0.09977000000000001 0  0.9708769894336008 0.09960100000000001 0  0.9708769894336008 0.09938130000000001 0  0.9708769894336008 0.09909569 0  0.9708769894336008 0.09872439700000001 0  0.9708769894336008 0.0982417161 0  0.9688804545200137 0.0999 0  0.9688804545200137 0.09977000000000001 0  0.9688804545200137 0.09960100000000001 0  0.9688804545200137 0.09938130000000001 0  0.9688804545200137 0.09909569 0  0.9688804545200137 0.09872439700000001 0  0.9688804545200137 0.0982417161 0  0.9668839196064265 0.0999 0  0.9668839196064265 0.09977000000000001 0  0.9668839196064265 0.09960100000000001 0  0.9668839196064265 0.09938130000000001 0  0.9668839196064265 0.09909569 0  0.9668839196064265 0.09872439700000001 0  0.9668839196064265 0.0982417161 0  0.9648873846928393 0.0999 0  0.9648873846928393 0.09977000000000001 0  0.9648873846928393 0.09960100000000001 0  0.9648873846928393 0.09938130000000001 0  0.9648873846928393 0.09909569 0  0.9648873846928393 0.09872439700000001 0  0.9648873846928393 0.0982417161 0  0.9628908497792522 0.0999 0  0.9628908497792522 0.09977000000000001 0  0.9628908497792522 0.09960100000000001 0  0.9628908497792522 0.09938130000000001 0  0.9628908497792522 0.09909569 0  0.9628908497792522 0.09872439700000001 0  0.9628908497792522 0.0982417161 0  0.9608943148656651 0.0999 0  0.9608943148656651 0.09977000000000001 0  0.9608943148656651 0.09960100000000001 0  0.9608943148656651 0.09938130000000001 0  0.9608943148656651 0.09909569 0  0.9608943148656651 0.09872439700000001 0  0.9608943148656651 0.0982417161 0  0.9588977799520779 0.0999 0  0.9588977799520779 0.09977000000000001 0  0.9588977799520779 0.09960100000000001 0  0.9588977799520779 0.09938130000000001 0  0.9588977799520779 0.09909569 0  0.9588977799520779 0.09872439700000001 0  0.9588977799520779 0.0982417161 0  0.9569012450384908 0.0999 0  0.9569012450384908 0.09977000000000001 0  0.9569012450384908 0.09960100000000001 0  0.9569012450384908 0.09938130000000001 0  0.9569012450384908 0.09909569 0  0.9569012450384908 0.09872439700000001 0  0.9569012450384908 0.0982417161 0  0.9549047101249036 0.0999 0  0.9549047101249036 0.09977000000000001 0  0.9549047101249036 0.09960100000000001 0  0.9549047101249036 0.09938130000000001 0  0.9549047101249036 0.09909569 0  0.9549047101249036 0.09872439700000001 0  0.9549047101249036 0.0982417161 0  0.9529081752113165 0.0999 0  0.9529081752113165 0.09977000000000001 0  0.9529081752113165 0.09960100000000001 0  0.9529081752113165 0.09938130000000001 0  0.9529081752113165 0.09909569 0  0.9529081752113165 0.09872439700000001 0  0.9529081752113165 0.0982417161 0  0.9509116402977295 0.0999 0  0.9509116402977295 0.09977000000000001 0  0.9509116402977295 0.09960100000000001 0  0.9509116402977295 0.09938130000000001 0  0.9509116402977295 0.09909569 0  0.9509116402977295 0.09872439700000001 0  0.9509116402977295 0.0982417161 0  0.9489151053841424 0.0999 0  0.9489151053841424 0.09977000000000001 0  0.9489151053841424 0.09960100000000001 0  0.9489151053841424 0.09938130000000001 0  0.9489151053841424 0.09909569 0  0.9489151053841424 0.09872439700000001 0  0.9489151053841424 0.0982417161 0  0.9469185704705552 0.0999 0  0.9469185704705552 0.09977000000000001 0  0.9469185704705552 0.09960100000000001 0  0.9469185704705552 0.09938130000000001 0  0.9469185704705552 0.09909569 0  0.9469185704705552 0.09872439700000001 0  0.9469185704705552 0.0982417161 0  0.9449220355569681 0.0999 0  0.9449220355569681 0.09977000000000001 0  0.9449220355569681 0.09960100000000001 0  0.9449220355569681 0.09938130000000001 0  0.9449220355569681 0.09909569 0  0.9449220355569681 0.09872439700000001 0  0.9449220355569681 0.0982417161 0  0.9429255006433809 0.0999 0  0.9429255006433809 0.09977000000000001 0  0.9429255006433809 0.09960100000000001 0  0.9429255006433809 0.09938130000000001 0  0.9429255006433809 0.09909569 0  0.9429255006433809 0.09872439700000001 0  0.9429255006433809 0.0982417161 0  0.9409289657297938 0.0999 0  0.9409289657297938 0.09977000000000001 0  0.9409289657297938 0.09960100000000001 0  0.9409289657297938 0.09938130000000001 0  0.9409289657297938 0.09909569 0  0.9409289657297938 0.09872439700000001 0  0.9409289657297938 0.0982417161 0  0.9389324308162067 0.0999 0  0.9389324308162067 0.09977000000000001 0  0.9389324308162067 0.09960100000000001 0  0.9389324308162067 0.09938130000000001 0  0.9389324308162067 0.09909569 0  0.9389324308162067 0.09872439700000001 0  0.9389324308162067 0.0982417161 0  0.9369358959026196 0.0999 0  0.9369358959026196 0.09977000000000001 0  0.9369358959026196 0.09960100000000001 0  0.9369358959026196 0.09938130000000001 0  0.9369358959026196 0.09909569 0  0.9369358959026196 0.09872439700000001 0  0.9369358959026196 0.0982417161 0  0.9349393609890324 0.0999 0  0.9349393609890324 0.09977000000000001 0  0.9349393609890324 0.09960100000000001 0  0.9349393609890324 0.09938130000000001 0  0.9349393609890324 0.09909569 0  0.9349393609890324 0.09872439700000001 0  0.9349393609890324 0.0982417161 0  0.9329428260754452 0.0999 0  0.9329428260754452 0.09977000000000001 0  0.9329428260754452 0.09960100000000001 0  0.9329428260754452 0.09938130000000001 0  0.9329428260754452 0.09909569 0  0.9329428260754452 0.09872439700000001 0  0.9329428260754452 0.0982417161 0  0.9309462911618581 0.0999 0  0.9309462911618581 0.09977000000000001 0  0.9309462911618581 0.09960100000000001 0  0.9309462911618581 0.09938130000000001 0  0.9309462911618581 0.09909569 0  0.9309462911618581 0.09872439700000001 0  0.9309462911618581 0.0982417161 0  0.928949756248271 0.0999 0  0.928949756248271 0.09977000000000001 0  0.928949756248271 0.09960100000000001 0  0.928949756248271 0.09938130000000001 0  0.928949756248271 0.09909569 0  0.928949756248271 0.09872439700000001 0  0.928949756248271 0.0982417161 0  0.9269532213346838 0.0999 0  0.9269532213346838 0.09977000000000001 0  0.9269532213346838 0.09960100000000001 0  0.9269532213346838 0.09938130000000001 0  0.9269532213346838 0.09909569 0  0.9269532213346838 0.09872439700000001 0  0.9269532213346838 0.0982417161 0  0.9249566864210967 0.0999 0  0.9249566864210967 0.09977000000000001 0  0.9249566864210967 0.09960100000000001 0  0.9249566864210967 0.09938130000000001 0  0.9249566864210967 0.09909569 0  0.9249566864210967 0.09872439700000001 0  0.9249566864210967 0.0982417161 0  0.9229601515075097 0.0999 0  0.9229601515075097 0.09977000000000001 0  0.9229601515075097 0.09960100000000001 0  0.9229601515075097 0.09938130000000001 0  0.9229601515075097 0.09909569 0  0.9229601515075097 0.09872439700000001 0  0.9229601515075097 0.0982417161 0  0.9209636165939225 0.0999 0  0.9209636165939225 0.09977000000000001 0  0.9209636165939225 0.09960100000000001 0  0.9209636165939225 0.09938130000000001 0  0.9209636165939225 0.09909569 0  0.9209636165939225 0.09872439700000001 0  0.9209636165939225 0.0982417161 0  0.9189670816803354 0.0999 0  0.9189670816803354 0.09977000000000001 0  0.9189670816803354 0.09960100000000001 0  0.9189670816803354 0.09938130000000001 0  0.9189670816803354 0.09909569 0  0.9189670816803354 0.09872439700000001 0  0.9189670816803354 0.0982417161 0  0.9169705467667483 0.0999 0  0.9169705467667483 0.09977000000000001 0  0.9169705467667483 0.09960100000000001 0  0.9169705467667483 0.09938130000000001 0  0.9169705467667483 0.09909569 0  0.9169705467667483 0.09872439700000001 0  0.9169705467667483 0.0982417161 0  0.9149740118531611 0.0999 0  0.9149740118531611 0.09977000000000001 0  0.9149740118531611 0.09960100000000001 0  0.9149740118531611 0.09938130000000001 0  0.9149740118531611 0.09909569 0  0.9149740118531611 0.09872439700000001 0  0.9149740118531611 0.0982417161 0  0.912977476939574 0.0999 0  0.912977476939574 0.09977000000000001 0  0.912977476939574 0.09960100000000001 0  0.912977476939574 0.09938130000000001 0  0.912977476939574 0.09909569 0  0.912977476939574 0.09872439700000001 0  0.912977476939574 0.0982417161 0  0.9109809420259868 0.0999 0  0.9109809420259868 0.09977000000000001 0  0.9109809420259868 0.09960100000000001 0  0.9109809420259868 0.09938130000000001 0  0.9109809420259868 0.09909569 0  0.9109809420259868 0.09872439700000001 0  0.9109809420259868 0.0982417161 0  0.9089844071123997 0.0999 0  0.9089844071123997 0.09977000000000001 0  0.9089844071123997 0.09960100000000001 0  0.9089844071123997 0.09938130000000001 0  0.9089844071123997 0.09909569 0  0.9089844071123997 0.09872439700000001 0  0.9089844071123997 0.0982417161 0  0.9069878721988125 0.0999 0  0.9069878721988125 0.09977000000000001 0  0.9069878721988125 0.09960100000000001 0  0.9069878721988125 0.09938130000000001 0  0.9069878721988125 0.09909569 0  0.9069878721988125 0.09872439700000001 0  0.9069878721988125 0.0982417161 0  0.9049913372852255 0.0999 0  0.9049913372852255 0.09977000000000001 0  0.9049913372852255 0.09960100000000001 0  0.9049913372852255 0.09938130000000001 0  0.9049913372852255 0.09909569 0  0.9049913372852255 0.09872439700000001 0  0.9049913372852255 0.0982417161 0  0.9029948023716383 0.0999 0  0.9029948023716383 0.09977000000000001 0  0.9029948023716383 0.09960100000000001 0  0.9029948023716383 0.09938130000000001 0  0.9029948023716383 0.09909569 0  0.9029948023716383 0.09872439700000001 0  0.9029948023716383 0.0982417161 0  0.9009982674580512 0.0999 0  0.9009982674580512 0.09977000000000001 0  0.9009982674580512 0.09960100000000001 0  0.9009982674580512 0.09938130000000001 0  0.9009982674580512 0.09909569 0  0.9009982674580512 0.09872439700000001 0  0.9009982674580512 0.0982417161 0  0.8990017325444609 0.0999 0  0.8990017325444609 0.09977000000000001 0  0.8990017325444609 0.09960100000000001 0  0.8990017325444609 0.09938130000000001 0  0.8990017325444609 0.09909569 0  0.8990017325444609 0.09872439700000001 0  0.8990017325444609 0.0982417161 0  0.8970051976308676 0.0999 0  0.8970051976308676 0.09977000000000001 0  0.8970051976308676 0.09960100000000001 0  0.8970051976308676 0.09938130000000001 0  0.8970051976308676 0.09909569 0  0.8970051976308676 0.09872439700000001 0  0.8970051976308676 0.0982417161 0  0.8950086627172743 0.0999 0  0.8950086627172743 0.09977000000000001 0  0.8950086627172743 0.09960100000000001 0  0.8950086627172743 0.09938130000000001 0  0.8950086627172743 0.09909569 0  0.8950086627172743 0.09872439700000001 0  0.8950086627172743 0.0982417161 0  0.893012127803681 0.0999 0  0.893012127803681 0.09977000000000001 0  0.893012127803681 0.09960100000000001 0  0.893012127803681 0.09938130000000001 0  0.893012127803681 0.09909569 0  0.893012127803681 0.09872439700000001 0  0.893012127803681 0.0982417161 0  0.8910155928900877 0.0999 0  0.8910155928900877 0.09977000000000001 0  0.8910155928900877 0.09960100000000001 0  0.8910155928900877 0.09938130000000001 0  0.8910155928900877 0.09909569 0  0.8910155928900877 0.09872439700000001 0  0.8910155928900877 0.0982417161 0  0.8890190579764944 0.0999 0  0.8890190579764944 0.09977000000000001 0  0.8890190579764944 0.09960100000000001 0  0.8890190579764944 0.09938130000000001 0  0.8890190579764944 0.09909569 0  0.8890190579764944 0.09872439700000001 0  0.8890190579764944 0.0982417161 0  0.8870225230629013 0.0999 0  0.8870225230629013 0.09977000000000001 0  0.8870225230629013 0.09960100000000001 0  0.8870225230629013 0.09938130000000001 0  0.8870225230629013 0.09909569 0  0.8870225230629013 0.09872439700000001 0  0.8870225230629013 0.0982417161 0  0.8850259881493052 0.0999 0  0.8850259881493052 0.09977000000000001 0  0.8850259881493052 0.09960100000000001 0  0.8850259881493052 0.09938130000000001 0  0.8850259881493052 0.09909569 0  0.8850259881493052 0.09872439700000001 0  0.8850259881493052 0.0982417161 0  0.8830294532357057 0.0999 0  0.8830294532357057 0.09977000000000001 0  0.8830294532357057 0.09960100000000001 0  0.8830294532357057 0.09938130000000001 0  0.8830294532357057 0.09909569 0  0.8830294532357057 0.09872439700000001 0  0.8830294532357057 0.0982417161 0  0.8810329183221062 0.0999 0  0.8810329183221062 0.09977000000000001 0  0.8810329183221062 0.09960100000000001 0  0.8810329183221062 0.09938130000000001 0  0.8810329183221062 0.09909569 0  0.8810329183221062 0.09872439700000001 0  0.8810329183221062 0.0982417161 0  0.8790363834085069 0.0999 0  0.8790363834085069 0.09977000000000001 0  0.8790363834085069 0.09960100000000001 0  0.8790363834085069 0.09938130000000001 0  0.8790363834085069 0.09909569 0  0.8790363834085069 0.09872439700000001 0  0.8790363834085069 0.0982417161 0  0.8770398484949075 0.0999 0  0.8770398484949075 0.09977000000000001 0  0.8770398484949075 0.09960100000000001 0  0.8770398484949075 0.09938130000000001 0  0.8770398484949075 0.09909569 0  0.8770398484949075 0.09872439700000001 0  0.8770398484949075 0.0982417161 0  0.8750433135813079 0.0999 0  0.8750433135813079 0.09977000000000001 0  0.8750433135813079 0.09960100000000001 0  0.8750433135813079 0.09938130000000001 0  0.8750433135813079 0.09909569 0  0.8750433135813079 0.09872439700000001 0  0.8750433135813079 0.0982417161 0  0.8730467786677084 0.0999 0  0.8730467786677084 0.09977000000000001 0  0.8730467786677084 0.09960100000000001 0  0.8730467786677084 0.09938130000000001 0  0.8730467786677084 0.09909569 0  0.8730467786677084 0.09872439700000001 0  0.8730467786677084 0.0982417161 0  0.8710502437541091 0.0999 0  0.8710502437541091 0.09977000000000001 0  0.8710502437541091 0.09960100000000001 0  0.8710502437541091 0.09938130000000001 0  0.8710502437541091 0.09909569 0  0.8710502437541091 0.09872439700000001 0  0.8710502437541091 0.0982417161 0  0.8690537088405096 0.0999 0  0.8690537088405096 0.09977000000000001 0  0.8690537088405096 0.09960100000000001 0  0.8690537088405096 0.09938130000000001 0  0.8690537088405096 0.09909569 0  0.8690537088405096 0.09872439700000001 0  0.8690537088405096 0.0982417161 0  0.8670571739269103 0.0999 0  0.8670571739269103 0.09977000000000001 0  0.8670571739269103 0.09960100000000001 0  0.8670571739269103 0.09938130000000001 0  0.8670571739269103 0.09909569 0  0.8670571739269103 0.09872439700000001 0  0.8670571739269103 0.0982417161 0  0.8650606390133108 0.0999 0  0.8650606390133108 0.09977000000000001 0  0.8650606390133108 0.09960100000000001 0  0.8650606390133108 0.09938130000000001 0  0.8650606390133108 0.09909569 0  0.8650606390133108 0.09872439700000001 0  0.8650606390133108 0.0982417161 0  0.8630641040997113 0.0999 0  0.8630641040997113 0.09977000000000001 0  0.8630641040997113 0.09960100000000001 0  0.8630641040997113 0.09938130000000001 0  0.8630641040997113 0.09909569 0  0.8630641040997113 0.09872439700000001 0  0.8630641040997113 0.0982417161 0  0.8610675691861118 0.0999 0  0.8610675691861118 0.09977000000000001 0  0.8610675691861118 0.09960100000000001 0  0.8610675691861118 0.09938130000000001 0  0.8610675691861118 0.09909569 0  0.8610675691861118 0.09872439700000001 0  0.8610675691861118 0.0982417161 0  0.8590710342725125 0.0999 0  0.8590710342725125 0.09977000000000001 0  0.8590710342725125 0.09960100000000001 0  0.8590710342725125 0.09938130000000001 0  0.8590710342725125 0.09909569 0  0.8590710342725125 0.09872439700000001 0  0.8590710342725125 0.0982417161 0  0.857074499358913 0.0999 0  0.857074499358913 0.09977000000000001 0  0.857074499358913 0.09960100000000001 0  0.857074499358913 0.09938130000000001 0  0.857074499358913 0.09909569 0  0.857074499358913 0.09872439700000001 0  0.857074499358913 0.0982417161 0  0.8550779644453135 0.0999 0  0.8550779644453135 0.09977000000000001 0  0.8550779644453135 0.09960100000000001 0  0.8550779644453135 0.09938130000000001 0  0.8550779644453135 0.09909569 0  0.8550779644453135 0.09872439700000001 0  0.8550779644453135 0.0982417161 0  0.8530814295317142 0.0999 0  0.8530814295317142 0.09977000000000001 0  0.8530814295317142 0.09960100000000001 0  0.8530814295317142 0.09938130000000001 0  0.8530814295317142 0.09909569 0  0.8530814295317142 0.09872439700000001 0  0.8530814295317142 0.0982417161 0  0.8510848946181147 0.0999 0  0.8510848946181147 0.09977000000000001 0  0.8510848946181147 0.09960100000000001 0  0.8510848946181147 0.09938130000000001 0  0.8510848946181147 0.09909569 0  0.8510848946181147 0.09872439700000001 0  0.8510848946181147 0.0982417161 0  0.8490883597045152 0.0999 0  0.8490883597045152 0.09977000000000001 0  0.8490883597045152 0.09960100000000001 0  0.8490883597045152 0.09938130000000001 0  0.8490883597045152 0.09909569 0  0.8490883597045152 0.09872439700000001 0  0.8490883597045152 0.0982417161 0  0.8470918247909159 0.0999 0  0.8470918247909159 0.09977000000000001 0  0.8470918247909159 0.09960100000000001 0  0.8470918247909159 0.09938130000000001 0  0.8470918247909159 0.09909569 0  0.8470918247909159 0.09872439700000001 0  0.8470918247909159 0.0982417161 0  0.8450952898773164 0.0999 0  0.8450952898773164 0.09977000000000001 0  0.8450952898773164 0.09960100000000001 0  0.8450952898773164 0.09938130000000001 0  0.8450952898773164 0.09909569 0  0.8450952898773164 0.09872439700000001 0  0.8450952898773164 0.0982417161 0  0.8430987549637179 0.0999 0  0.8430987549637179 0.09977000000000001 0  0.8430987549637179 0.09960100000000001 0  0.8430987549637179 0.09938130000000001 0  0.8430987549637179 0.09909569 0  0.8430987549637179 0.09872439700000001 0  0.8430987549637179 0.0982417161 0  0.8411022200501216 0.0999 0  0.8411022200501216 0.09977000000000001 0  0.8411022200501216 0.09960100000000001 0  0.8411022200501216 0.09938130000000001 0  0.8411022200501216 0.09909569 0  0.8411022200501216 0.09872439700000001 0  0.8411022200501216 0.0982417161 0  0.8391056851365253 0.0999 0  0.8391056851365253 0.09977000000000001 0  0.8391056851365253 0.09960100000000001 0  0.8391056851365253 0.09938130000000001 0  0.8391056851365253 0.09909569 0  0.8391056851365253 0.09872439700000001 0  0.8391056851365253 0.0982417161 0  0.837109150222929 0.0999 0  0.837109150222929 0.09977000000000001 0  0.837109150222929 0.09960100000000001 0  0.837109150222929 0.09938130000000001 0  0.837109150222929 0.09909569 0  0.837109150222929 0.09872439700000001 0  0.837109150222929 0.0982417161 0  0.8351126153093325 0.0999 0  0.8351126153093325 0.09977000000000001 0  0.8351126153093325 0.09960100000000001 0  0.8351126153093325 0.09938130000000001 0  0.8351126153093325 0.09909569 0  0.8351126153093325 0.09872439700000001 0  0.8351126153093325 0.0982417161 0  0.8331160803957361 0.0999 0  0.8331160803957361 0.09977000000000001 0  0.8331160803957361 0.09960100000000001 0  0.8331160803957361 0.09938130000000001 0  0.8331160803957361 0.09909569 0  0.8331160803957361 0.09872439700000001 0  0.8331160803957361 0.0982417161 0  0.8311195454821398 0.0999 0  0.8311195454821398 0.09977000000000001 0  0.8311195454821398 0.09960100000000001 0  0.8311195454821398 0.09938130000000001 0  0.8311195454821398 0.09909569 0  0.8311195454821398 0.09872439700000001 0  0.8311195454821398 0.0982417161 0  0.8291230105685433 0.0999 0  0.8291230105685433 0.09977000000000001 0  0.8291230105685433 0.09960100000000001 0  0.8291230105685433 0.09938130000000001 0  0.8291230105685433 0.09909569 0  0.8291230105685433 0.09872439700000001 0  0.8291230105685433 0.0982417161 0  0.827126475654947 0.0999 0  0.827126475654947 0.09977000000000001 0  0.827126475654947 0.09960100000000001 0  0.827126475654947 0.09938130000000001 0  0.827126475654947 0.09909569 0  0.827126475654947 0.09872439700000001 0  0.827126475654947 0.0982417161 0  0.8251299407413507 0.0999 0  0.8251299407413507 0.09977000000000001 0  0.8251299407413507 0.09960100000000001 0  0.8251299407413507 0.09938130000000001 0  0.8251299407413507 0.09909569 0  0.8251299407413507 0.09872439700000001 0  0.8251299407413507 0.0982417161 0  0.8231334058277543 0.0999 0  0.8231334058277543 0.09977000000000001 0  0.8231334058277543 0.09960100000000001 0  0.8231334058277543 0.09938130000000001 0  0.8231334058277543 0.09909569 0  0.8231334058277543 0.09872439700000001 0  0.8231334058277543 0.0982417161 0  0.821136870914158 0.0999 0  0.821136870914158 0.09977000000000001 0  0.821136870914158 0.09960100000000001 0  0.821136870914158 0.09938130000000001 0  0.821136870914158 0.09909569 0  0.821136870914158 0.09872439700000001 0  0.821136870914158 0.0982417161 0  0.8191403360005617 0.0999 0  0.8191403360005617 0.09977000000000001 0  0.8191403360005617 0.09960100000000001 0  0.8191403360005617 0.09938130000000001 0  0.8191403360005617 0.09909569 0  0.8191403360005617 0.09872439700000001 0  0.8191403360005617 0.0982417161 0  0.8171438010869652 0.0999 0  0.8171438010869652 0.09977000000000001 0  0.8171438010869652 0.09960100000000001 0  0.8171438010869652 0.09938130000000001 0  0.8171438010869652 0.09909569 0  0.8171438010869652 0.09872439700000001 0  0.8171438010869652 0.0982417161 0  0.8151472661733681 0.0999 0  0.8151472661733681 0.09977000000000001 0  0.8151472661733681 0.09960100000000001 0  0.8151472661733681 0.09938130000000001 0  0.8151472661733681 0.09909569 0  0.8151472661733681 0.09872439700000001 0  0.8151472661733681 0.0982417161 0  0.8131507312597688 0.0999 0  0.8131507312597688 0.09977000000000001 0  0.8131507312597688 0.09960100000000001 0  0.8131507312597688 0.09938130000000001 0  0.8131507312597688 0.09909569 0  0.8131507312597688 0.09872439700000001 0  0.8131507312597688 0.0982417161 0  0.8111541963461695 0.0999 0  0.8111541963461695 0.09977000000000001 0  0.8111541963461695 0.09960100000000001 0  0.8111541963461695 0.09938130000000001 0  0.8111541963461695 0.09909569 0  0.8111541963461695 0.09872439700000001 0  0.8111541963461695 0.0982417161 0  0.80915766143257 0.0999 0  0.80915766143257 0.09977000000000001 0  0.80915766143257 0.09960100000000001 0  0.80915766143257 0.09938130000000001 0  0.80915766143257 0.09909569 0  0.80915766143257 0.09872439700000001 0  0.80915766143257 0.0982417161 0  0.8071611265189704 0.0999 0  0.8071611265189704 0.09977000000000001 0  0.8071611265189704 0.09960100000000001 0  0.8071611265189704 0.09938130000000001 0  0.8071611265189704 0.09909569 0  0.8071611265189704 0.09872439700000001 0  0.8071611265189704 0.0982417161 0  0.8051645916053709 0.0999 0  0.8051645916053709 0.09977000000000001 0  0.8051645916053709 0.09960100000000001 0  0.8051645916053709 0.09938130000000001 0  0.8051645916053709 0.09909569 0  0.8051645916053709 0.09872439700000001 0  0.8051645916053709 0.0982417161 0  0.8031680566917716 0.0999 0  0.8031680566917716 0.09977000000000001 0  0.8031680566917716 0.09960100000000001 0  0.8031680566917716 0.09938130000000001 0  0.8031680566917716 0.09909569 0  0.8031680566917716 0.09872439700000001 0  0.8031680566917716 0.0982417161 0  0.8011715217781727 0.0999 0  0.8011715217781727 0.09977000000000001 0  0.8011715217781727 0.09960100000000001 0  0.8011715217781727 0.09938130000000001 0  0.8011715217781727 0.09909569 0  0.8011715217781727 0.09872439700000001 0  0.8011715217781727 0.0982417161 0  0.7991749868645763 0.0999 0  0.7991749868645763 0.09977000000000001 0  0.7991749868645763 0.09960100000000001 0  0.7991749868645763 0.09938130000000001 0  0.7991749868645763 0.09909569 0  0.7991749868645763 0.09872439700000001 0  0.7991749868645763 0.0982417161 0  0.7971784519509799 0.0999 0  0.7971784519509799 0.09977000000000001 0  0.7971784519509799 0.09960100000000001 0  0.7971784519509799 0.09938130000000001 0  0.7971784519509799 0.09909569 0  0.7971784519509799 0.09872439700000001 0  0.7971784519509799 0.0982417161 0  0.7951819170373835 0.0999 0  0.7951819170373835 0.09977000000000001 0  0.7951819170373835 0.09960100000000001 0  0.7951819170373835 0.09938130000000001 0  0.7951819170373835 0.09909569 0  0.7951819170373835 0.09872439700000001 0  0.7951819170373835 0.0982417161 0  0.7931853821237871 0.0999 0  0.7931853821237871 0.09977000000000001 0  0.7931853821237871 0.09960100000000001 0  0.7931853821237871 0.09938130000000001 0  0.7931853821237871 0.09909569 0  0.7931853821237871 0.09872439700000001 0  0.7931853821237871 0.0982417161 0  0.7911888472101909 0.0999 0  0.7911888472101909 0.09977000000000001 0  0.7911888472101909 0.09960100000000001 0  0.7911888472101909 0.09938130000000001 0  0.7911888472101909 0.09909569 0  0.7911888472101909 0.09872439700000001 0  0.7911888472101909 0.0982417161 0  0.7891923122965945 0.0999 0  0.7891923122965945 0.09977000000000001 0  0.7891923122965945 0.09960100000000001 0  0.7891923122965945 0.09938130000000001 0  0.7891923122965945 0.09909569 0  0.7891923122965945 0.09872439700000001 0  0.7891923122965945 0.0982417161 0  0.7871957773829976 0.0999 0  0.7871957773829976 0.09977000000000001 0  0.7871957773829976 0.09960100000000001 0  0.7871957773829976 0.09938130000000001 0  0.7871957773829976 0.09909569 0  0.7871957773829976 0.09872439700000001 0  0.7871957773829976 0.0982417161 0  0.7851992424693981 0.0999 0  0.7851992424693981 0.09977000000000001 0  0.7851992424693981 0.09960100000000001 0  0.7851992424693981 0.09938130000000001 0  0.7851992424693981 0.09909569 0  0.7851992424693981 0.09872439700000001 0  0.7851992424693981 0.0982417161 0  0.7832027075557988 0.0999 0  0.7832027075557988 0.09977000000000001 0  0.7832027075557988 0.09960100000000001 0  0.7832027075557988 0.09938130000000001 0  0.7832027075557988 0.09909569 0  0.7832027075557988 0.09872439700000001 0  0.7832027075557988 0.0982417161 0  0.7812061726421993 0.0999 0  0.7812061726421993 0.09977000000000001 0  0.7812061726421993 0.09960100000000001 0  0.7812061726421993 0.09938130000000001 0  0.7812061726421993 0.09909569 0  0.7812061726421993 0.09872439700000001 0  0.7812061726421993 0.0982417161 0  0.7792096377285997 0.0999 0  0.7792096377285997 0.09977000000000001 0  0.7792096377285997 0.09960100000000001 0  0.7792096377285997 0.09938130000000001 0  0.7792096377285997 0.09909569 0  0.7792096377285997 0.09872439700000001 0  0.7792096377285997 0.0982417161 0  0.7772131028150004 0.0999 0  0.7772131028150004 0.09977000000000001 0  0.7772131028150004 0.09960100000000001 0  0.7772131028150004 0.09938130000000001 0  0.7772131028150004 0.09909569 0  0.7772131028150004 0.09872439700000001 0  0.7772131028150004 0.0982417161 0  0.7752165679014009 0.0999 0  0.7752165679014009 0.09977000000000001 0  0.7752165679014009 0.09960100000000001 0  0.7752165679014009 0.09938130000000001 0  0.7752165679014009 0.09909569 0  0.7752165679014009 0.09872439700000001 0  0.7752165679014009 0.0982417161 0  0.7732200329878016 0.0999 0  0.7732200329878016 0.09977000000000001 0  0.7732200329878016 0.09960100000000001 0  0.7732200329878016 0.09938130000000001 0  0.7732200329878016 0.09909569 0  0.7732200329878016 0.09872439700000001 0  0.7732200329878016 0.0982417161 0  0.7712234980742021 0.0999 0  0.7712234980742021 0.09977000000000001 0  0.7712234980742021 0.09960100000000001 0  0.7712234980742021 0.09938130000000001 0  0.7712234980742021 0.09909569 0  0.7712234980742021 0.09872439700000001 0  0.7712234980742021 0.0982417161 0  0.7692269631606026 0.0999 0  0.7692269631606026 0.09977000000000001 0  0.7692269631606026 0.09960100000000001 0  0.7692269631606026 0.09938130000000001 0  0.7692269631606026 0.09909569 0  0.7692269631606026 0.09872439700000001 0  0.7692269631606026 0.0982417161 0  0.7672304282470033 0.0999 0  0.7672304282470033 0.09977000000000001 0  0.7672304282470033 0.09960100000000001 0  0.7672304282470033 0.09938130000000001 0  0.7672304282470033 0.09909569 0  0.7672304282470033 0.09872439700000001 0  0.7672304282470033 0.0982417161 0  0.765233893333404 0.0999 0  0.765233893333404 0.09977000000000001 0  0.765233893333404 0.09960100000000001 0  0.765233893333404 0.09938130000000001 0  0.765233893333404 0.09909569 0  0.765233893333404 0.09872439700000001 0  0.765233893333404 0.0982417161 0  0.7632373584198044 0.0999 0  0.7632373584198044 0.09977000000000001 0  0.7632373584198044 0.09960100000000001 0  0.7632373584198044 0.09938130000000001 0  0.7632373584198044 0.09909569 0  0.7632373584198044 0.09872439700000001 0  0.7632373584198044 0.0982417161 0  0.7612408235062049 0.0999 0  0.7612408235062049 0.09977000000000001 0  0.7612408235062049 0.09960100000000001 0  0.7612408235062049 0.09938130000000001 0  0.7612408235062049 0.09909569 0  0.7612408235062049 0.09872439700000001 0  0.7612408235062049 0.0982417161 0  0.7592442885926056 0.0999 0  0.7592442885926056 0.09977000000000001 0  0.7592442885926056 0.09960100000000001 0  0.7592442885926056 0.09938130000000001 0  0.7592442885926056 0.09909569 0  0.7592442885926056 0.09872439700000001 0  0.7592442885926056 0.0982417161 0  0.7572477536790061 0.0999 0  0.7572477536790061 0.09977000000000001 0  0.7572477536790061 0.09960100000000001 0  0.7572477536790061 0.09938130000000001 0  0.7572477536790061 0.09909569 0  0.7572477536790061 0.09872439700000001 0  0.7572477536790061 0.0982417161 0  0.7552512187654066 0.0999 0  0.7552512187654066 0.09977000000000001 0  0.7552512187654066 0.09960100000000001 0  0.7552512187654066 0.09938130000000001 0  0.7552512187654066 0.09909569 0  0.7552512187654066 0.09872439700000001 0  0.7552512187654066 0.0982417161 0  0.753254683851807 0.0999 0  0.753254683851807 0.09977000000000001 0  0.753254683851807 0.09960100000000001 0  0.753254683851807 0.09938130000000001 0  0.753254683851807 0.09909569 0  0.753254683851807 0.09872439700000001 0  0.753254683851807 0.0982417161 0  0.7512581489382077 0.0999 0  0.7512581489382077 0.09977000000000001 0  0.7512581489382077 0.09960100000000001 0  0.7512581489382077 0.09938130000000001 0  0.7512581489382077 0.09909569 0  0.7512581489382077 0.09872439700000001 0  0.7512581489382077 0.0982417161 0  0.7492616140246082 0.0999 0  0.7492616140246082 0.09977000000000001 0  0.7492616140246082 0.09960100000000001 0  0.7492616140246082 0.09938130000000001 0  0.7492616140246082 0.09909569 0  0.7492616140246082 0.09872439700000001 0  0.7492616140246082 0.0982417161 0  0.7472650791110087 0.0999 0  0.7472650791110087 0.09977000000000001 0  0.7472650791110087 0.09960100000000001 0  0.7472650791110087 0.09938130000000001 0  0.7472650791110087 0.09909569 0  0.7472650791110087 0.09872439700000001 0  0.7472650791110087 0.0982417161 0  0.7452685441974094 0.0999 0  0.7452685441974094 0.09977000000000001 0  0.7452685441974094 0.09960100000000001 0  0.7452685441974094 0.09938130000000001 0  0.7452685441974094 0.09909569 0  0.7452685441974094 0.09872439700000001 0  0.7452685441974094 0.0982417161 0  0.7432720092838099 0.0999 0  0.7432720092838099 0.09977000000000001 0  0.7432720092838099 0.09960100000000001 0  0.7432720092838099 0.09938130000000001 0  0.7432720092838099 0.09909569 0  0.7432720092838099 0.09872439700000001 0  0.7432720092838099 0.0982417161 0  0.7412754743702106 0.0999 0  0.7412754743702106 0.09977000000000001 0  0.7412754743702106 0.09960100000000001 0  0.7412754743702106 0.09938130000000001 0  0.7412754743702106 0.09909569 0  0.7412754743702106 0.09872439700000001 0  0.7412754743702106 0.0982417161 0  0.7392789394566111 0.0999 0  0.7392789394566111 0.09977000000000001 0  0.7392789394566111 0.09960100000000001 0  0.7392789394566111 0.09938130000000001 0  0.7392789394566111 0.09909569 0  0.7392789394566111 0.09872439700000001 0  0.7392789394566111 0.0982417161 0  0.7372824045430117 0.0999 0  0.7372824045430117 0.09977000000000001 0  0.7372824045430117 0.09960100000000001 0  0.7372824045430117 0.09938130000000001 0  0.7372824045430117 0.09909569 0  0.7372824045430117 0.09872439700000001 0  0.7372824045430117 0.0982417161 0  0.7352858696294124 0.0999 0  0.7352858696294124 0.09977000000000001 0  0.7352858696294124 0.09960100000000001 0  0.7352858696294124 0.09938130000000001 0  0.7352858696294124 0.09909569 0  0.7352858696294124 0.09872439700000001 0  0.7352858696294124 0.0982417161 0  0.7332893347158129 0.0999 0  0.7332893347158129 0.09977000000000001 0  0.7332893347158129 0.09960100000000001 0  0.7332893347158129 0.09938130000000001 0  0.7332893347158129 0.09909569 0  0.7332893347158129 0.09872439700000001 0  0.7332893347158129 0.0982417161 0  0.7312927998022134 0.0999 0  0.7312927998022134 0.09977000000000001 0  0.7312927998022134 0.09960100000000001 0  0.7312927998022134 0.09938130000000001 0  0.7312927998022134 0.09909569 0  0.7312927998022134 0.09872439700000001 0  0.7312927998022134 0.0982417161 0  0.7292962648886201 0.0999 0  0.7292962648886201 0.09977000000000001 0  0.7292962648886201 0.09960100000000001 0  0.7292962648886201 0.09938130000000001 0  0.7292962648886201 0.09909569 0  0.7292962648886201 0.09872439700000001 0  0.7292962648886201 0.0982417161 0  0.7272997299750268 0.0999 0  0.7272997299750268 0.09977000000000001 0  0.7272997299750268 0.09960100000000001 0  0.7272997299750268 0.09938130000000001 0  0.7272997299750268 0.09909569 0  0.7272997299750268 0.09872439700000001 0  0.7272997299750268 0.0982417161 0  0.7253031950614335 0.0999 0  0.7253031950614335 0.09977000000000001 0  0.7253031950614335 0.09960100000000001 0  0.7253031950614335 0.09938130000000001 0  0.7253031950614335 0.09909569 0  0.7253031950614335 0.09872439700000001 0  0.7253031950614335 0.0982417161 0  0.7233066601478402 0.0999 0  0.7233066601478402 0.09977000000000001 0  0.7233066601478402 0.09960100000000001 0  0.7233066601478402 0.09938130000000001 0  0.7233066601478402 0.09909569 0  0.7233066601478402 0.09872439700000001 0  0.7233066601478402 0.0982417161 0  0.7213101252342469 0.0999 0  0.7213101252342469 0.09977000000000001 0  0.7213101252342469 0.09960100000000001 0  0.7213101252342469 0.09938130000000001 0  0.7213101252342469 0.09909569 0  0.7213101252342469 0.09872439700000001 0  0.7213101252342469 0.0982417161 0  0.7193135903206536 0.0999 0  0.7193135903206536 0.09977000000000001 0  0.7193135903206536 0.09960100000000001 0  0.7193135903206536 0.09938130000000001 0  0.7193135903206536 0.09909569 0  0.7193135903206536 0.09872439700000001 0  0.7193135903206536 0.0982417161 0  0.7173170554070603 0.0999 0  0.7173170554070603 0.09977000000000001 0  0.7173170554070603 0.09960100000000001 0  0.7173170554070603 0.09938130000000001 0  0.7173170554070603 0.09909569 0  0.7173170554070603 0.09872439700000001 0  0.7173170554070603 0.0982417161 0  0.7153205204934612 0.0999 0  0.7153205204934612 0.09977000000000001 0  0.7153205204934612 0.09960100000000001 0  0.7153205204934612 0.09938130000000001 0  0.7153205204934612 0.09909569 0  0.7153205204934612 0.09872439700000001 0  0.7153205204934612 0.0982417161 0  0.7133239855798619 0.0999 0  0.7133239855798619 0.09977000000000001 0  0.7133239855798619 0.09960100000000001 0  0.7133239855798619 0.09938130000000001 0  0.7133239855798619 0.09909569 0  0.7133239855798619 0.09872439700000001 0  0.7133239855798619 0.0982417161 0  0.7113274506662624 0.0999 0  0.7113274506662624 0.09977000000000001 0  0.7113274506662624 0.09960100000000001 0  0.7113274506662624 0.09938130000000001 0  0.7113274506662624 0.09909569 0  0.7113274506662624 0.09872439700000001 0  0.7113274506662624 0.0982417161 0  0.709330915752663 0.0999 0  0.709330915752663 0.09977000000000001 0  0.709330915752663 0.09960100000000001 0  0.709330915752663 0.09938130000000001 0  0.709330915752663 0.09909569 0  0.709330915752663 0.09872439700000001 0  0.709330915752663 0.0982417161 0  0.7073343808390635 0.0999 0  0.7073343808390635 0.09977000000000001 0  0.7073343808390635 0.09960100000000001 0  0.7073343808390635 0.09938130000000001 0  0.7073343808390635 0.09909569 0  0.7073343808390635 0.09872439700000001 0  0.7073343808390635 0.0982417161 0  0.705337845925464 0.0999 0  0.705337845925464 0.09977000000000001 0  0.705337845925464 0.09960100000000001 0  0.705337845925464 0.09938130000000001 0  0.705337845925464 0.09909569 0  0.705337845925464 0.09872439700000001 0  0.705337845925464 0.0982417161 0  0.7033413110118647 0.0999 0  0.7033413110118647 0.09977000000000001 0  0.7033413110118647 0.09960100000000001 0  0.7033413110118647 0.09938130000000001 0  0.7033413110118647 0.09909569 0  0.7033413110118647 0.09872439700000001 0  0.7033413110118647 0.0982417161 0  0.7013447760982652 0.0999 0  0.7013447760982652 0.09977000000000001 0  0.7013447760982652 0.09960100000000001 0  0.7013447760982652 0.09938130000000001 0  0.7013447760982652 0.09909569 0  0.7013447760982652 0.09872439700000001 0  0.7013447760982652 0.0982417161 0  0.6993482411846657 0.0999 0  0.6993482411846657 0.09977000000000001 0  0.6993482411846657 0.09960100000000001 0  0.6993482411846657 0.09938130000000001 0  0.6993482411846657 0.09909569 0  0.6993482411846657 0.09872439700000001 0  0.6993482411846657 0.0982417161 0  0.6973517062710661 0.0999 0  0.6973517062710661 0.09977000000000001 0  0.6973517062710661 0.09960100000000001 0  0.6973517062710661 0.09938130000000001 0  0.6973517062710661 0.09909569 0  0.6973517062710661 0.09872439700000001 0  0.6973517062710661 0.0982417161 0  0.6953551713574668 0.0999 0  0.6953551713574668 0.09977000000000001 0  0.6953551713574668 0.09960100000000001 0  0.6953551713574668 0.09938130000000001 0  0.6953551713574668 0.09909569 0  0.6953551713574668 0.09872439700000001 0  0.6953551713574668 0.0982417161 0  0.6933586364438673 0.0999 0  0.6933586364438673 0.09977000000000001 0  0.6933586364438673 0.09960100000000001 0  0.6933586364438673 0.09938130000000001 0  0.6933586364438673 0.09909569 0  0.6933586364438673 0.09872439700000001 0  0.6933586364438673 0.0982417161 0  0.6913621015302678 0.0999 0  0.6913621015302678 0.09977000000000001 0  0.6913621015302678 0.09960100000000001 0  0.6913621015302678 0.09938130000000001 0  0.6913621015302678 0.09909569 0  0.6913621015302678 0.09872439700000001 0  0.6913621015302678 0.0982417161 0  0.6893655666166685 0.0999 0  0.6893655666166685 0.09977000000000001 0  0.6893655666166685 0.09960100000000001 0  0.6893655666166685 0.09938130000000001 0  0.6893655666166685 0.09909569 0  0.6893655666166685 0.09872439700000001 0  0.6893655666166685 0.0982417161 0  0.6873690317030692 0.0999 0  0.6873690317030692 0.09977000000000001 0  0.6873690317030692 0.09960100000000001 0  0.6873690317030692 0.09938130000000001 0  0.6873690317030692 0.09909569 0  0.6873690317030692 0.09872439700000001 0  0.6873690317030692 0.0982417161 0  0.6853724967894697 0.0999 0  0.6853724967894697 0.09977000000000001 0  0.6853724967894697 0.09960100000000001 0  0.6853724967894697 0.09938130000000001 0  0.6853724967894697 0.09909569 0  0.6853724967894697 0.09872439700000001 0  0.6853724967894697 0.0982417161 0  0.6833759618758701 0.0999 0  0.6833759618758701 0.09977000000000001 0  0.6833759618758701 0.09960100000000001 0  0.6833759618758701 0.09938130000000001 0  0.6833759618758701 0.09909569 0  0.6833759618758701 0.09872439700000001 0  0.6833759618758701 0.0982417161 0  0.6813794269622708 0.0999 0  0.6813794269622708 0.09977000000000001 0  0.6813794269622708 0.09960100000000001 0  0.6813794269622708 0.09938130000000001 0  0.6813794269622708 0.09909569 0  0.6813794269622708 0.09872439700000001 0  0.6813794269622708 0.0982417161 0  0.6793828920486713 0.0999 0  0.6793828920486713 0.09977000000000001 0  0.6793828920486713 0.09960100000000001 0  0.6793828920486713 0.09938130000000001 0  0.6793828920486713 0.09909569 0  0.6793828920486713 0.09872439700000001 0  0.6793828920486713 0.0982417161 0  0.6773863571350718 0.0999 0  0.6773863571350718 0.09977000000000001 0  0.6773863571350718 0.09960100000000001 0  0.6773863571350718 0.09938130000000001 0  0.6773863571350718 0.09909569 0  0.6773863571350718 0.09872439700000001 0  0.6773863571350718 0.0982417161 0  0.6753898222214725 0.0999 0  0.6753898222214725 0.09977000000000001 0  0.6753898222214725 0.09960100000000001 0  0.6753898222214725 0.09938130000000001 0  0.6753898222214725 0.09909569 0  0.6753898222214725 0.09872439700000001 0  0.6753898222214725 0.0982417161 0  0.673393287307873 0.0999 0  0.673393287307873 0.09977000000000001 0  0.673393287307873 0.09960100000000001 0  0.673393287307873 0.09938130000000001 0  0.673393287307873 0.09909569 0  0.673393287307873 0.09872439700000001 0  0.673393287307873 0.0982417161 0  0.6713967523942737 0.0999 0  0.6713967523942737 0.09977000000000001 0  0.6713967523942737 0.09960100000000001 0  0.6713967523942737 0.09938130000000001 0  0.6713967523942737 0.09909569 0  0.6713967523942737 0.09872439700000001 0  0.6713967523942737 0.0982417161 0  0.6694002174806741 0.0999 0  0.6694002174806741 0.09977000000000001 0  0.6694002174806741 0.09960100000000001 0  0.6694002174806741 0.09938130000000001 0  0.6694002174806741 0.09909569 0  0.6694002174806741 0.09872439700000001 0  0.6694002174806741 0.0982417161 0  0.6674036825670746 0.0999 0  0.6674036825670746 0.09977000000000001 0  0.6674036825670746 0.09960100000000001 0  0.6674036825670746 0.09938130000000001 0  0.6674036825670746 0.09909569 0  0.6674036825670746 0.09872439700000001 0  0.6674036825670746 0.0982417161 0  0.6654071476534753 0.0999 0  0.6654071476534753 0.09977000000000001 0  0.6654071476534753 0.09960100000000001 0  0.6654071476534753 0.09938130000000001 0  0.6654071476534753 0.09909569 0  0.6654071476534753 0.09872439700000001 0  0.6654071476534753 0.0982417161 0  0.6634106127398758 0.0999 0  0.6634106127398758 0.09977000000000001 0  0.6634106127398758 0.09960100000000001 0  0.6634106127398758 0.09938130000000001 0  0.6634106127398758 0.09909569 0  0.6634106127398758 0.09872439700000001 0  0.6634106127398758 0.0982417161 0  0.6614140778262763 0.0999 0  0.6614140778262763 0.09977000000000001 0  0.6614140778262763 0.09960100000000001 0  0.6614140778262763 0.09938130000000001 0  0.6614140778262763 0.09909569 0  0.6614140778262763 0.09872439700000001 0  0.6614140778262763 0.0982417161 0  0.6594175429126816 0.0999 0  0.6594175429126816 0.09977000000000001 0  0.6594175429126816 0.09960100000000001 0  0.6594175429126816 0.09938130000000001 0  0.6594175429126816 0.09909569 0  0.6594175429126816 0.09872439700000001 0  0.6594175429126816 0.0982417161 0  0.6574210079990883 0.0999 0  0.6574210079990883 0.09977000000000001 0  0.6574210079990883 0.09960100000000001 0  0.6574210079990883 0.09938130000000001 0  0.6574210079990883 0.09909569 0  0.6574210079990883 0.09872439700000001 0  0.6574210079990883 0.0982417161 0  0.655424473085495 0.0999 0  0.655424473085495 0.09977000000000001 0  0.655424473085495 0.09960100000000001 0  0.655424473085495 0.09938130000000001 0  0.655424473085495 0.09909569 0  0.655424473085495 0.09872439700000001 0  0.655424473085495 0.0982417161 0  0.6534279381719017 0.0999 0  0.6534279381719017 0.09977000000000001 0  0.6534279381719017 0.09960100000000001 0  0.6534279381719017 0.09938130000000001 0  0.6534279381719017 0.09909569 0  0.6534279381719017 0.09872439700000001 0  0.6534279381719017 0.0982417161 0  0.6514314032583084 0.0999 0  0.6514314032583084 0.09977000000000001 0  0.6514314032583084 0.09960100000000001 0  0.6514314032583084 0.09938130000000001 0  0.6514314032583084 0.09909569 0  0.6514314032583084 0.09872439700000001 0  0.6514314032583084 0.0982417161 0  0.6494348683447151 0.0999 0  0.6494348683447151 0.09977000000000001 0  0.6494348683447151 0.09960100000000001 0  0.6494348683447151 0.09938130000000001 0  0.6494348683447151 0.09909569 0  0.6494348683447151 0.09872439700000001 0  0.6494348683447151 0.0982417161 0  0.6474383334311218 0.0999 0  0.6474383334311218 0.09977000000000001 0  0.6474383334311218 0.09960100000000001 0  0.6474383334311218 0.09938130000000001 0  0.6474383334311218 0.09909569 0  0.6474383334311218 0.09872439700000001 0  0.6474383334311218 0.0982417161 0  0.645441798517524 0.0999 0  0.645441798517524 0.09977000000000001 0  0.645441798517524 0.09960100000000001 0  0.645441798517524 0.09938130000000001 0  0.645441798517524 0.09909569 0  0.645441798517524 0.09872439700000001 0  0.645441798517524 0.0982417161 0  1.152561666569921 0.0999 0  1.152561666569921 0.09977000000000001 0  1.152561666569921 0.09960100000000001 0  1.152561666569921 0.09938130000000001 0  1.152561666569921 0.09909569 0  1.152561666569921 0.09872439700000001 0  1.152561666569921 0.0982417161 0  1.150565131656334 0.0999 0  1.150565131656334 0.09977000000000001 0  1.150565131656334 0.09960100000000001 0  1.150565131656334 0.09938130000000001 0  1.150565131656334 0.09909569 0  1.150565131656334 0.09872439700000001 0  1.150565131656334 0.0982417161 0  1.148568596742747 0.0999 0  1.148568596742747 0.09977000000000001 0  1.148568596742747 0.09960100000000001 0  1.148568596742747 0.09938130000000001 0  1.148568596742747 0.09909569 0  1.148568596742747 0.09872439700000001 0  1.148568596742747 0.0982417161 0  1.146572061829159 0.0999 0  1.146572061829159 0.09977000000000001 0  1.146572061829159 0.09960100000000001 0  1.146572061829159 0.09938130000000001 0  1.146572061829159 0.09909569 0  1.146572061829159 0.09872439700000001 0  1.146572061829159 0.0982417161 0  1.144575526915573 0.0999 0  1.144575526915573 0.09977000000000001 0  1.144575526915573 0.09960100000000001 0  1.144575526915573 0.09938130000000001 0  1.144575526915573 0.09909569 0  1.144575526915573 0.09872439700000001 0  1.144575526915573 0.0982417161 0  1.142578992001985 0.0999 0  1.142578992001985 0.09977000000000001 0  1.142578992001985 0.09960100000000001 0  1.142578992001985 0.09938130000000001 0  1.142578992001985 0.09909569 0  1.142578992001985 0.09872439700000001 0  1.142578992001985 0.0982417161 0  1.140582457088398 0.0999 0  1.140582457088398 0.09977000000000001 0  1.140582457088398 0.09960100000000001 0  1.140582457088398 0.09938130000000001 0  1.140582457088398 0.09909569 0  1.140582457088398 0.09872439700000001 0  1.140582457088398 0.0982417161 0  1.13858592217481 0.0999 0  1.13858592217481 0.09977000000000001 0  1.13858592217481 0.09960100000000001 0  1.13858592217481 0.09938130000000001 0  1.13858592217481 0.09909569 0  1.13858592217481 0.09872439700000001 0  1.13858592217481 0.0982417161 0  1.136589387261216 0.0999 0  1.136589387261216 0.09977000000000001 0  1.136589387261216 0.09960100000000001 0  1.136589387261216 0.09938130000000001 0  1.136589387261216 0.09909569 0  1.136589387261216 0.09872439700000001 0  1.136589387261216 0.0982417161 0  1.134592852347623 0.0999 0  1.134592852347623 0.09977000000000001 0  1.134592852347623 0.09960100000000001 0  1.134592852347623 0.09938130000000001 0  1.134592852347623 0.09909569 0  1.134592852347623 0.09872439700000001 0  1.134592852347623 0.0982417161 0  1.13259631743403 0.0999 0  1.13259631743403 0.09977000000000001 0  1.13259631743403 0.09960100000000001 0  1.13259631743403 0.09938130000000001 0  1.13259631743403 0.09909569 0  1.13259631743403 0.09872439700000001 0  1.13259631743403 0.0982417161 0  1.130599782520437 0.0999 0  1.130599782520437 0.09977000000000001 0  1.130599782520437 0.09960100000000001 0  1.130599782520437 0.09938130000000001 0  1.130599782520437 0.09909569 0  1.130599782520437 0.09872439700000001 0  1.130599782520437 0.0982417161 0  1.128603247606843 0.0999 0  1.128603247606843 0.09977000000000001 0  1.128603247606843 0.09960100000000001 0  1.128603247606843 0.09938130000000001 0  1.128603247606843 0.09909569 0  1.128603247606843 0.09872439700000001 0  1.128603247606843 0.0982417161 0  1.12660671269325 0.0999 0  1.12660671269325 0.09977000000000001 0  1.12660671269325 0.09960100000000001 0  1.12660671269325 0.09938130000000001 0  1.12660671269325 0.09909569 0  1.12660671269325 0.09872439700000001 0  1.12660671269325 0.0982417161 0  1.124610177779658 0.0999 0  1.124610177779658 0.09977000000000001 0  1.124610177779658 0.09960100000000001 0  1.124610177779658 0.09938130000000001 0  1.124610177779658 0.09909569 0  1.124610177779658 0.09872439700000001 0  1.124610177779658 0.0982417161 0  1.122613642866071 0.0999 0  1.122613642866071 0.09977000000000001 0  1.122613642866071 0.09960100000000001 0  1.122613642866071 0.09938130000000001 0  1.122613642866071 0.09909569 0  1.122613642866071 0.09872439700000001 0  1.122613642866071 0.0982417161 0  1.120617107952484 0.0999 0  1.120617107952484 0.09977000000000001 0  1.120617107952484 0.09960100000000001 0  1.120617107952484 0.09938130000000001 0  1.120617107952484 0.09909569 0  1.120617107952484 0.09872439700000001 0  1.120617107952484 0.0982417161 0  1.118620573038897 0.0999 0  1.118620573038897 0.09977000000000001 0  1.118620573038897 0.09960100000000001 0  1.118620573038897 0.09938130000000001 0  1.118620573038897 0.09909569 0  1.118620573038897 0.09872439700000001 0  1.118620573038897 0.0982417161 0  1.116624038125309 0.0999 0  1.116624038125309 0.09977000000000001 0  1.116624038125309 0.09960100000000001 0  1.116624038125309 0.09938130000000001 0  1.116624038125309 0.09909569 0  1.116624038125309 0.09872439700000001 0  1.116624038125309 0.0982417161 0  1.114627503211722 0.0999 0  1.114627503211722 0.09977000000000001 0  1.114627503211722 0.09960100000000001 0  1.114627503211722 0.09938130000000001 0  1.114627503211722 0.09909569 0  1.114627503211722 0.09872439700000001 0  1.114627503211722 0.0982417161 0  1.112630968298135 0.0999 0  1.112630968298135 0.09977000000000001 0  1.112630968298135 0.09960100000000001 0  1.112630968298135 0.09938130000000001 0  1.112630968298135 0.09909569 0  1.112630968298135 0.09872439700000001 0  1.112630968298135 0.0982417161 0  1.110634433384549 0.0999 0  1.110634433384549 0.09977000000000001 0  1.110634433384549 0.09960100000000001 0  1.110634433384549 0.09938130000000001 0  1.110634433384549 0.09909569 0  1.110634433384549 0.09872439700000001 0  1.110634433384549 0.0982417161 0  1.108637898470968 0.0999 0  1.108637898470968 0.09977000000000001 0  1.108637898470968 0.09960100000000001 0  1.108637898470968 0.09938130000000001 0  1.108637898470968 0.09909569 0  1.108637898470968 0.09872439700000001 0  1.108637898470968 0.0982417161 0  1.106641363557387 0.0999 0  1.106641363557387 0.09977000000000001 0  1.106641363557387 0.09960100000000001 0  1.106641363557387 0.09938130000000001 0  1.106641363557387 0.09909569 0  1.106641363557387 0.09872439700000001 0  1.106641363557387 0.0982417161 0  1.104644828643806 0.0999 0  1.104644828643806 0.09977000000000001 0  1.104644828643806 0.09960100000000001 0  1.104644828643806 0.09938130000000001 0  1.104644828643806 0.09909569 0  1.104644828643806 0.09872439700000001 0  1.104644828643806 0.0982417161 0  1.102648293730225 0.0999 0  1.102648293730225 0.09977000000000001 0  1.102648293730225 0.09960100000000001 0  1.102648293730225 0.09938130000000001 0  1.102648293730225 0.09909569 0  1.102648293730225 0.09872439700000001 0  1.102648293730225 0.0982417161 0  1.100651758816644 0.0999 0  1.100651758816644 0.09977000000000001 0  1.100651758816644 0.09960100000000001 0  1.100651758816644 0.09938130000000001 0  1.100651758816644 0.09909569 0  1.100651758816644 0.09872439700000001 0  1.100651758816644 0.0982417161 0  1.098655223903063 0.0999 0  1.098655223903063 0.09977000000000001 0  1.098655223903063 0.09960100000000001 0  1.098655223903063 0.09938130000000001 0  1.098655223903063 0.09909569 0  1.098655223903063 0.09872439700000001 0  1.098655223903063 0.0982417161 0  1.096658688989482 0.0999 0  1.096658688989482 0.09977000000000001 0  1.096658688989482 0.09960100000000001 0  1.096658688989482 0.09938130000000001 0  1.096658688989482 0.09909569 0  1.096658688989482 0.09872439700000001 0  1.096658688989482 0.0982417161 0  1.094662154075901 0.0999 0  1.094662154075901 0.09977000000000001 0  1.094662154075901 0.09960100000000001 0  1.094662154075901 0.09938130000000001 0  1.094662154075901 0.09909569 0  1.094662154075901 0.09872439700000001 0  1.094662154075901 0.0982417161 0  1.09266561916232 0.0999 0  1.09266561916232 0.09977000000000001 0  1.09266561916232 0.09960100000000001 0  1.09266561916232 0.09938130000000001 0  1.09266561916232 0.09909569 0  1.09266561916232 0.09872439700000001 0  1.09266561916232 0.0982417161 0  1.090669084248739 0.0999 0  1.090669084248739 0.09977000000000001 0  1.090669084248739 0.09960100000000001 0  1.090669084248739 0.09938130000000001 0  1.090669084248739 0.09909569 0  1.090669084248739 0.09872439700000001 0  1.090669084248739 0.0982417161 0  1.088672549335158 0.0999 0  1.088672549335158 0.09977000000000001 0  1.088672549335158 0.09960100000000001 0  1.088672549335158 0.09938130000000001 0  1.088672549335158 0.09909569 0  1.088672549335158 0.09872439700000001 0  1.088672549335158 0.0982417161 0  1.086676014421577 0.0999 0  1.086676014421577 0.09977000000000001 0  1.086676014421577 0.09960100000000001 0  1.086676014421577 0.09938130000000001 0  1.086676014421577 0.09909569 0  1.086676014421577 0.09872439700000001 0  1.086676014421577 0.0982417161 0  1.084679479507996 0.0999 0  1.084679479507996 0.09977000000000001 0  1.084679479507996 0.09960100000000001 0  1.084679479507996 0.09938130000000001 0  1.084679479507996 0.09909569 0  1.084679479507996 0.09872439700000001 0  1.084679479507996 0.0982417161 0  1.082682944594415 0.0999 0  1.082682944594415 0.09977000000000001 0  1.082682944594415 0.09960100000000001 0  1.082682944594415 0.09938130000000001 0  1.082682944594415 0.09909569 0  1.082682944594415 0.09872439700000001 0  1.082682944594415 0.0982417161 0  1.080686409680828 0.0999 0  1.080686409680828 0.09977000000000001 0  1.080686409680828 0.09960100000000001 0  1.080686409680828 0.09938130000000001 0  1.080686409680828 0.09909569 0  1.080686409680828 0.09872439700000001 0  1.080686409680828 0.0982417161 0  1.078689874767241 0.0999 0  1.078689874767241 0.09977000000000001 0  1.078689874767241 0.09960100000000001 0  1.078689874767241 0.09938130000000001 0  1.078689874767241 0.09909569 0  1.078689874767241 0.09872439700000001 0  1.078689874767241 0.0982417161 0  1.076693339853654 0.0999 0  1.076693339853654 0.09977000000000001 0  1.076693339853654 0.09960100000000001 0  1.076693339853654 0.09938130000000001 0  1.076693339853654 0.09909569 0  1.076693339853654 0.09872439700000001 0  1.076693339853654 0.0982417161 0  1.074696804940066 0.0999 0  1.074696804940066 0.09977000000000001 0  1.074696804940066 0.09960100000000001 0  1.074696804940066 0.09938130000000001 0  1.074696804940066 0.09909569 0  1.074696804940066 0.09872439700000001 0  1.074696804940066 0.0982417161 0  1.072700270026479 0.0999 0  1.072700270026479 0.09977000000000001 0  1.072700270026479 0.09960100000000001 0  1.072700270026479 0.09938130000000001 0  1.072700270026479 0.09909569 0  1.072700270026479 0.09872439700000001 0  1.072700270026479 0.0982417161 0  1.070703735112892 0.0999 0  1.070703735112892 0.09977000000000001 0  1.070703735112892 0.09960100000000001 0  1.070703735112892 0.09938130000000001 0  1.070703735112892 0.09909569 0  1.070703735112892 0.09872439700000001 0  1.070703735112892 0.0982417161 0  1.068707200199305 0.0999 0  1.068707200199305 0.09977000000000001 0  1.068707200199305 0.09960100000000001 0  1.068707200199305 0.09938130000000001 0  1.068707200199305 0.09909569 0  1.068707200199305 0.09872439700000001 0  1.068707200199305 0.0982417161 0  0.849467525716913 0.00793573439861147 0  0.8495959119261246 0.007956317511097558 0  0.8497628139980997 0.007983075557329472 0  0.8499797866916674 0.008017861017430961 0  0.8502618511933054 0.008063082115562895 0  0.8506285350454349 0.008121869543134409 0  0.8511052240532031 0.008198293198977379 0  0.8500604109491586 0.001991792308472689 0  0.8501903343634886 0.001996948823208792 0  0.8503592348021173 0.002003652292365726 0  0.8505788053723348 0.00201236680226974 0  0.8508642471136174 0.002023695665144958 0  0.8512353213772847 0.002038423186882742 0  0.8517177179200525 0.002057568965141861 0  0.8499416463282231 0.003980445078808828 0  0.8500712620196846 0.003990762818982666 0  0.8502397624185847 0.004004175881208655 0  0.8504588129371546 0.004021612862102441 0  0.8507435786112957 0.004044280937264362 0  0.851113773987679 0.004073749434974861 0  0.8515950279769772 0.004112058481998509 0  0.8497439136987974 0.00596280394825528 0  0.8498730167183398 0.005978266599399409 0  0.8500408506437448 0.005998368045886777 0  0.8502590347467713 0.006024499926320355 0  0.8505426740807058 0.006058471370884008 0  0.8509114052148206 0.006102634248816755 0  0.8513907556891698 0.006160045990129327 0  0.8491129194083277 0.009896116823777962 0  0.8492403858022212 0.009921787851477225 0  0.8494060921142829 0.009955160187486269 0  0.8496215103199629 0.009998544224298024 0  0.8499015539873471 0.01005494347215331 0  0.8502656107549464 0.01012826249436517 0  0.8507388845528256 0.0102235772232406 0  0.8486806554785795 0.01184085145479811 0  0.8488070005065854 0.0118715698065366 0  0.848971249042993 0.01191150366379663 0  0.8491847721403231 0.01196341767823467 0  0.849462352166852 0.01203090589700412 0  0.8498232062013397 0.0121186405814044 0  0.8502923164461736 0.01223269567112478 0  0.8481714174279632 0.01376686325855153 0  0.8482964413126231 0.0138025803622961 0  0.8484589723626809 0.01384901259716404 0  0.848670262727756 0.01390937450249236 0  0.8489449402023537 0.01398784497941918 0  0.8493020209193307 0.01408985659942404 0  0.8497662258514007 0.01422247170543036 0  0.8475860104630197 0.01567110682792136 0  0.8477095155158729 0.01571176620759044 0  0.8478700720845821 0.01576462340116024 0  0.848078795623904 0.01583333775280098 0  0.8483501362250225 0.01592266640993394 0  0.8487028790064766 0.0160387936642068 0  0.8491614446223668 0.0161897590947615 0  0.8469253602353144 0.01755057115266385 0  0.8470471511694853 0.0175961085174222 0  0.8472054793839074 0.01765530709160806 0  0.8474113060626561 0.01773226523804967 0  0.8476788807450295 0.01783231082842376 0  0.848026727832115 0.01796237009591008 0  0.848478929045326 0.0181314471436423 0  0.8461905113662658 0.01940228442018159 0  0.8463103956052516 0.01945262776609931 0  0.8464662451159329 0.01951807411579235 0  0.8466688494798187 0.0196031543703933 0  0.8469322351528703 0.01971375870137454 0  0.8472746365278373 0.01985754433165014 0  0.8477197583152944 0.02004446565100843 0  0.8453826258026628 0.02122331869087009 0  0.845500413784837 0.02127838841477249 0  0.8456535381616636 0.02134997905584562 0  0.845852599851538 0.02144304688924069 0  0.8461113800483748 0.02156403507265428 0  0.8464477943042626 0.02172131971109195 0  0.8468851328369169 0.02192578974106091 0  0.8445029809808263 0.02301079452819823 0  0.8446184864591776 0.0230705035535313 0  0.8447686435810341 0.02314812528646428 0  0.8449638478394477 0.02324903353927716 0  0.8452176133753853 0.02338021426793391 0  0.8455475085721041 0.02355074921518768 0  0.8459763723278387 0.02377244464661758 0  0.8435529677962433 0.02476188557315741 0  0.8436660081328662 0.02482613948768078 0  0.8438129605704758 0.02490966957656115 0  0.8440039987393684 0.02501825869210564 0  0.8442523483589288 0.02515942454231347 0  0.8445752028643573 0.02534294014758365 0  0.8449949137214143 0.02558151043443488 0  0.8425340884169814 0.02647382298677609 0  0.8426444848718679 0.02654252019184188 0  0.8427880002632204 0.0266318265584274 0  0.8429745702719785 0.02674792483498858 0  0.8432171112833643 0.02689885259451811 0  0.8435324145981656 0.02709505868190651 0  0.8439423089074074 0.02735012659551142 0  0.8414479539038995 0.0281438998395562 0  0.8415555319175639 0.02821693171075895 0  0.8416953833353277 0.02831187314332253 0  0.8418771901784206 0.02843529700565519 0  0.8421135390744413 0.02859574802668764 0  0.8424207926392683 0.02880433435402983 0  0.8428202222735434 0.02907549657957467 0  0.8402962816524963 0.0297694754065546 0  0.8404008711219814 0.02984672646550025 0  0.840536837432312 0.0299471528421296 0  0.8407135936357418 0.03007770713174775 0  0.8409433767002006 0.03024742770825135 0  0.8412420946839969 0.03046806445770603 0  0.8416304280629323 0.03075489223199711 0  0.8390808926929261 0.03134797931801596 0  0.8391823282407747 0.03142932741490872 0  0.8393141944529778 0.0315350799408693 0  0.8394856205288419 0.03167255822461806 0  0.8397084744274652 0.03185127999349144 0  0.8399981844956755 0.03208361829302683 0  0.840374807584349 0.03238565808242285 0  0.8378037088091894 0.03287691562888398 0  0.837901830044953 0.03296223213565492 0  0.8380293876514456 0.03307314359445714 0  0.838195212539886 0.03321732849090002 0  0.8384107848948587 0.03340476885627577 0  0.838691028956323 0.03364844133126424 0  0.8390553462362266 0.03396521554874925 0  0.836466749499874 0.03435386676798073 0  0.8365614012737199 0.0344430167816832 0  0.8366844485797197 0.0345589117994964 0  0.8368444100775193 0.03470957532265357 0  0.8370523600246588 0.03490543790275789 0  0.8373226949559402 0.0351600592568935 0  0.837674130366606 0.03549106701726979 0  0.8350721287614358 0.03577649738501539 0  0.8351631614094549 0.0358693399411521 0  0.8352815038518796 0.03599003526412983 0  0.8354353490270318 0.03614693918400086 0  0.8356353477547297 0.03635091427983321 0  0.8358953461007369 0.03661608190441526 0  0.8362333439505463 0.03696079981637193 0  0.8336220517751018 0.0371425580087199 0  0.8337093213559581 0.03723894630413264 0  0.833822771811071 0.03736425108816921 0  0.833970257402718 0.03752714730741675 0  0.834161988671859 0.03773891239243855 0  0.8344112393217422 0.03801420700296689 0  0.8347352651665905 0.03837208999665374 0  0.8321188114109516 0.03844988861552758 0  0.8322021799334948 0.03854967024051109 0  0.8323105590128009 0.03867938635298966 0  0.8324514518158989 0.03884801729921179 0  0.8326346124599263 0.03906723752930057 0  0.8328727212971618 0.03935222382841597 0  0.8331822627855682 0.039722706017266 0  0.830564784606531 0.03969642204223326 0  0.8306441202479956 0.0397994392215227 0  0.8307472565818996 0.03993336155459898 0  0.8308813338159747 0.04010746058759813 0  0.8310556342202724 0.04033378933049703 0  0.8312822247458593 0.04062801669626561 0  0.8315767924291223 0.04101051227176476 0  0.8289624286007858 0.04088018726159567 0  0.8290376059152182 0.04098627710385251 0  0.8291353364239805 0.04112419389878639 0  0.8292623860853715 0.04130348573220044 0  0.8294275506451797 0.0415365651156387 0  0.8296422645729303 0.04183956831410844 0  0.8299213926790061 0.0422334724721191 0  0.8273142770323579 0.04199931250863948 0  0.8273851771489624 0.04210830726402193 0  0.8274773473005481 0.0422500004460191 0  0.8275971684976097 0.04243420158261543 0  0.8277529360537896 0.04267366306019067 0  0.8279554338768236 0.04298496298103847 0  0.8282186810467677 0.04338965287814061 0  0.8256229359770555 0.04305202820906887 0  0.8256894467881752 0.04316375553446217 0  0.8257759108426309 0.04330900105747347 0  0.8258883141134232 0.04349782023738815 0  0.8260344383654533 0.04374328517127724 0  0.8262243998930925 0.04406238958533305 0  0.8264713498790234 0.04447722532360561 0  0.8238910798068211 0.0440366697953289 0  0.8239530961452086 0.04415095302685614 0  0.8240337173851123 0.04429952122784155 0  0.8241385249969873 0.04449265988912259 0  0.8242747748924246 0.04474374014878794 0  0.8244518997564932 0.04507014448635289 0  0.8246821620797824 0.04549447012518734 0  0.8221214469264349 0.04495168035657478 0  0.8221788707315094 0.04506833878895808 0  0.8222535216781063 0.04521999475105636 0  0.8223505679086822 0.04541714750178412 0  0.822476728008431 0.04567344607773022 0  0.8226407361381043 0.04600663422646014 0  0.8228539467066797 0.04643977881980903 0  0.8203168354775212 0.0457956130778712 0  0.8203695759504293 0.04591446225015616 0  0.8204381385652096 0.04606896617412663 0  0.8205272699644242 0.04626982127528822 0  0.8206431407834032 0.04653093290679829 0  0.8207937728480758 0.04687037802776139 0  0.8209895945321501 0.04731165668501341 0  0.8184800989440242 0.04656713351729748 0  0.8185280726912427 0.04668798550450973 0  0.8185904385626267 0.04684509308788566 0  0.8186715141954258 0.04704933294627436 0  0.8187769125180648 0.04731484476217969 0  0.8189139303374955 0.0476600101228566 0  0.8190920535027553 0.0481087250917366 0  0.8166141415814467 0.04726502174452447 0  0.8166572727466344 0.04738768545482569 0  0.8167133432613783 0.04754714827821727 0  0.8167862349305455 0.04775444994862632 0  0.8168809941004628 0.04802394212015808 0  0.8170041810213553 0.04837428194314938 0  0.8171643240185156 0.04882972371303807 0  0.8147219138471835 0.0478881742570631 0  0.8147601342311054 0.04801245573391374 0  0.8148098207302039 0.04817402165381959 0  0.814874413179032 0.04838405734969719 0  0.8149583833625085 0.04865710375433806 0  0.8150675446010278 0.0490120640803712 0  0.8152094542111031 0.04947351250421427 0  0.8128064077367916 0.0484356057242788 0  0.8128396569051543 0.04856130845312171 0  0.8128828808240257 0.0487247220006175 0  0.8129390719185586 0.04893715961236202 0  0.8130121203414514 0.0492133285076299 0  0.813107083291212 0.04957234807147814 0  0.8132305351259008 0.05003907350448086 0  0.8108706520546012 0.04890645054495915 0  0.8108988774336294 0.04903337576394284 0  0.8109355704263661 0.04919837854862165 0  0.8109832713169238 0.04941288216870409 0  0.8110452824746489 0.04969173687481127 0  0.8111258969796915 0.05005424799275059 0  0.8112306958362469 0.05052551244607172 0  0.8089177076506689 0.04929996421150775 0  0.8089408646102357 0.04942791122577145 0  0.8089709686576724 0.04959424234431426 0  0.8090101039193401 0.04981047279841991 0  0.8090609797595082 0.05009157238875726 0  0.8091271183517267 0.05045700185619582 0  0.8092130985216106 0.05093206016386594 0  0.8069506624974968 0.04961552450437906 0  0.8069687144216836 0.04974429100339384 0  0.8069921819231266 0.04991168745211306 0  0.8070226896750025 0.05012930283544804 0  0.8070623497524412 0.05041220283378352 0  0.8071139078531113 0.05077997283161964 0  0.8071809333839827 0.05125807382880659 0  0.8049726269373906 0.04985263245145899 0  0.8049855452824083 0.04998201482891938 0  0.8050023391309312 0.0501502119196179 0  0.805024171134011 0.05036886813752597 0  0.8050525527380148 0.05065312122080646 0  0.8050894488232198 0.05102265022907109 0  0.8051374137339861 0.05150303793981512 0  0.8029867286347108 0.05001091313964703 0  0.8029944929740167 0.05014070681541913 0  0.8030045866151144 0.05030943859392285 0  0.8030177083485415 0.05052878990597769 0  0.8030347666019967 0.05081394661164897 0  0.8030569423314885 0.05118465032902164 0  0.8030857707798278 0.05166656516160612 0  0.800996107700472 0.05009011629501155 0  0.8009987057570523 0.05022011603861627 0  0.8010020832306066 0.0503891157053024 0  0.8010064739462273 0.05060881527199439 0  0.801012181876534 0.05089442470869397 0  0.8010196021859328 0.05126571697640341 0  0.8010292485881513 0.05174839692442569 0  0.7990039117154069 0.05009011668111803 0  0.7990013393811997 0.05022011693624091 0  0.7989979953467302 0.05038911726790068 0  0.7989936481019201 0.05060881769905837 0  0.7989879966836667 0.05089442825956336 0  0.7989806498399376 0.05126572198821985 0  0.7989710989430895 0.05174840383547329 0  0.7970132907495563 0.05001091429730151 0  0.797005552091949 0.05014070950681918 0  0.7969954918370596 0.05030944327919214 0  0.7969824135057034 0.05052879718327699 0  0.7969654116749403 0.0508139572585873 0  0.7969433092949483 0.0511846653564907 0  0.7969145762009586 0.05166658588376512 0  0.7950273923843904 0.04985263437873569 0  0.7950144996397933 0.04998201930974404 0  0.794997739071817 0.05015021972005489 0  0.794975950333448 0.050368880253459 0  0.7949476249735683 0.05065313894688435 0  0.7949108020057246 0.05102267524833729 0  0.7948629321475278 0.05150307244022613 0  0.7930493567390187 0.04961552719922743 0  0.7930313302935247 0.04974429726755884 0  0.7930078959143825 0.04991169835638967 0  0.7929774312214976 0.05012931977186975 0  0.7929378271207471 0.05041222761199385 0  0.7928863417897717 0.05078000780415518 0  0.7928194108595036 0.05125812205396491 0  0.791082311500668 0.04929996767572551 0  0.7910591798578053 0.04942791926943845 0  0.7910291087220837 0.04959425634126528 0  0.7909900162456455 0.04981049453464014 0  0.7909391960262759 0.05009160418602748 0  0.7908731297410955 0.050457046732831 0  0.790787243570361 0.05093212204367559 0  0.7891293669524785 0.04890645476974231 0  0.7891011666881171 0.04903338557106822 0  0.7890645063444475 0.0491983956127919 0  0.7890168478976769 0.04941290866703268 0  0.7889548919168752 0.0496917756375457 0  0.7888743491418329 0.05005430269921263 0  0.7887696435342779 0.05052558787937963 0  0.7871936110970522 0.04843561070395597 0  0.7871603868015939 0.04856132000920653 0  0.7871171952174982 0.04872474210603226 0  0.7870610461581736 0.04893719083190572 0  0.7869880523810519 0.0492133741755412 0  0.7868931604707934 0.04957241252226734 0  0.7867698009874574 0.05003916237301131 0  0.785278104788109 0.04788817998597149 0  0.7852399089960067 0.04801246902290108 0  0.7851902544662736 0.04817404477090954 0  0.7851257035776205 0.04838409324332053 0  0.7850417874223715 0.04865715625745483 0  0.7849326964205479 0.04901213817582942 0  0.784790878118177 0.04947361466971638 0  0.7833858768266236 0.04726502821514642 0  0.7833427699332809 0.04738770045724536 0  0.7832867309719354 0.04754717437197398 0  0.783213880322186 0.04775449046112118 0  0.7831191744775119 0.04802400137701254 0  0.7829960568794356 0.04837436556767132 0  0.7828360040019364 0.04882983901552773 0  0.7815199191940154 0.04656714071534779 0  0.7814719693602763 0.04668800219258382 0  0.7814096345764153 0.04684512211299065 0  0.7813285993573961 0.04704937800951953 0  0.7812232535726711 0.04731491067500708 0  0.7810863040525285 0.04766010314014089 0  0.7809082696763433 0.04810885334481485 0  0.7796831823694267 0.04579562099551385 0  0.7796304654138253 0.04591448060104664 0  0.7795619333715434 0.04606899808823927 0  0.779472841716577 0.04626987082158969 0  0.7793570225651207 0.04653100537494523 0  0.7792064576682276 0.04687048029430743 0  0.7790107233022664 0.0473117976894783 0  0.7778785706070626 0.04495168898508717 0  0.7778211698859399 0.04506835877744957 0  0.7777465489484803 0.04522002950752068 0  0.7776495417297827 0.04541720145661313 0  0.7775234323454761 0.04567352499043333 0  0.7773594901458774 0.04600674558439957 0  0.777146365286399 0.04643993235655568 0  0.7761089373721836 0.04403667911539726 0  0.7760469436478814 0.04415097461566928 0  0.7759663518062888 0.04429955876602289 0  0.7758615824122183 0.04449271816148259 0  0.7757253821999267 0.0447438253755802 0  0.7755483219239475 0.0450702647539071 0  0.7753181435651747 0.04549463594573206 0  0.7743770808243198 0.04305203820860606 0  0.7743105921216611 0.04316377869211157 0  0.7742241568082048 0.04330904132066873 0  0.7741117909007116 0.04349788273779303 0  0.7739657152209704 0.04374337658005463 0  0.7737758168373068 0.0440625185749947 0  0.7735289489385442 0.0444774031684168 0  0.7726857393684609 0.04199932317491657 0  0.7726148608197363 0.04210833195697588 0  0.7725227187063943 0.04225004337365298 0  0.7724029339590498 0.0424342682153332 0  0.7722472137875018 0.04267376050951749 0  0.7720447775644896 0.04298510049195707 0  0.7717816104745737 0.04338984246912853 0  0.7710375873645263 0.04088019857255219 0  0.7709624310432754 0.0409863032878641 0  0.7708647278256494 0.04112423941776956 0  0.7707377136427356 0.04130355638664667 0  0.7705725952049475 0.04153666844618691 0  0.770357941235823 0.04183971412358922 0  0.7700788910759612 0.04223367350421223 0  0.7694352308918808 0.03969643397543532 0  0.7693559156356976 0.03979946685063513 0  0.7692528058026594 0.03993340958839488 0  0.7691187630197098 0.04010753514748255 0  0.7689445074018753 0.04033389837429653 0  0.7687179750986904 0.0406281705691547 0  0.7684234831045501 0.04101072442247033 0  0.7678812036049694 0.03844990115895355 0  0.767797854827586 0.0385496992778938 0  0.7676895014169877 0.03867943683251613 0  0.7675486419832097 0.03884809565352516 0  0.7673655247192984 0.03906735212083689 0  0.7671274722762137 0.03935238552834214 0  0.7668180041002036 0.03972292895809896 0  0.7663779627408278 0.03714257114877141 0  0.766290712233806 0.03723897671012392 0  0.7661772865746775 0.03736430393988219 0  0.7660298332178106 0.03752722933856794 0  0.7658381438538837 0.03773903235685942 0  0.7655889476807786 0.03801437628063833 0  0.765264992655742 0.03837232338155092 0  0.7649278852367997 0.03577651110764727 0  0.7648368709611347 0.03586937167441497 0  0.7647185524027702 0.03599009041121298 0  0.7645647382768963 0.03614702476905039 0  0.7643647799132604 0.03635103943423901 0  0.7641048340405335 0.03661625849898423 0  0.7637669044059887 0.03696104328315303 0  0.7635332639500004 0.03435388104506361 0  0.7634386298179652 0.03444304978560208 0  0.7633156054463194 0.0345589691483021 0  0.7631556737631798 0.03470966431981212 0  0.7629477625750984 0.03490556804277516 0  0.7626774780305925 0.0351602428826271 0  0.7623261081227349 0.03549132017443463 0  0.7621963040641395 0.03287693043134867 0  0.7620981997117323 0.03296226635153546 0  0.761970664053603 0.03307320304777827 0  0.7618048676980348 0.03321742075289393 0  0.7615893324357963 0.0334049037695443 0  0.7613091365948861 0.03364863169118976 0  0.760944882001703 0.03396547798932888 0  0.7609191195814728 0.031347994620255 0  0.7608177001318271 0.03142936278644386 0  0.7606858548472877 0.03153514140248938 0  0.7605144559773863 0.03167265360334855 0  0.7602916374465145 0.03185141946446546 0  0.7600019733563813 0.03208381508391746 0  0.759625410039208 0.03238592938920505 0  0.7597037300088191 0.0297694911914293 0  0.7595991558269325 0.02984676294382377 0  0.7594632093904801 0.02994721622193659 0  0.7592864790230918 0.03007780548348325 0  0.759056729545487 0.03024757152349391 0  0.7587580552246008 0.03046826737550777 0  0.7583697786074487 0.03075517198312578 0  0.7585520571234986 0.02814391607976757 0  0.7584444935626568 0.02821696923585499 0  0.7583046609335623 0.02831193833876864 0  0.7581228785157396 0.02843539817255638 0  0.7578865613725699 0.02859589595648045 0  0.7575793490864495 0.02880454307558174 0  0.7571799731144929 0.02907578433041341 0  0.7574659219605784 0.02647383965984359 0  0.7573555391008867 0.02654255870757838 0  0.7572120413832875 0.02663189346963361 0  0.7570254943504086 0.0267480286603054 0  0.7567829832076658 0.02689900440817872 0  0.7564677187221004 0.02709527288041405 0  0.7560578748908653 0.02735042189431998 0  0.7564470419157854 0.02476190265535696 0  0.7563340142952331 0.02482617893579996 0  0.756187078388515 0.02490973810037584 0  0.7559960617097815 0.0250183650143245 0  0.7557477400274279 0.02515958000245775 0  0.7554249218403684 0.02534315948703098 0  0.7550052581971908 0.02558181281697617 0  0.7554970280479879 0.02301081198995698 0  0.7553815343864732 0.02307054386909405 0  0.7552313926265041 0.02314819531197223 0  0.7550362083385442 0.02324914218771387 0  0.7547824687641965 0.02338037312617799 0  0.7544526073175445 0.02355097334618136 0  0.7540237874368968 0.02377275363218573 0  0.7546173825283317 0.02122333650534089 0  0.7544996054450759 0.02127842953480055 0  0.7543464952368434 0.0213500504730981 0  0.7541474519661412 0.02144315769288493 0  0.7538886957142282 0.0215641970786078 0  0.7535523125867415 0.02172154828004753 0  0.7531150145210087 0.02192610484191918 0  0.7538094962571326 0.01940230256899578 0  0.7536896219819154 0.01945266963538271 0  0.7535337854241331 0.01951814682168573 0  0.753331197899016 0.01960326716387966 0  0.7530678341163639 0.01971392360873175 0  0.7527254611989161 0.01985777698703949 0  0.752280376406234 0.02004478637883953 0  0.7530746466646593 0.01755058960126812 0  0.7529528647433466 0.0175961510638949 0  0.7527945482456402 0.01765538096530973 0  0.7525887367986217 0.017732379837149 0  0.7523211819174979 0.01783247837054005 0  0.7519733605720368 0.01796260646394842 0  0.7515211928229373 0.01813177298537929 0  0.7524139956991809 0.01567112553970379 0  0.7522904986940185 0.01571180935652591 0  0.7521299525873073 0.01576469831839467 0  0.7519212426485827 0.01583345396882406 0  0.7516499197282409 0.01592283631438226 0  0.7512971999317964 0.01603903336360793 0  0.7508386641964186 0.01619008952760129 0  0.7518285879876111 0.01376688220808854 0  0.7517035711727494 0.01380262404963463 0  0.7515410493134292 0.01384908844364455 0  0.7513297708963129 0.01390949215585745 0  0.7510551089540618 0.01398801698173422 0  0.7506980484291355 0.01409009925537402 0  0.750233869746731 0.01422280621110576 0  0.7513193491825425 0.01184087061780004 0  0.7511930102352641 0.01187161396888329 0  0.751028769603802 0.01191158032529152 0  0.7508152567829015 0.01196353658862221 0  0.7505376901157308 0.01203107973095211 0  0.7501768534484089 0.01211888581598098 0  0.7497077657808904 0.01223303372651852 0  0.750887084489915 0.00989613617014108 0  0.7507596231780608 0.009921832419199769 0  0.7505939234726502 0.009955237542976064 0  0.7503785138556166 0.009998664203885248 0  0.7500984813534728 0.01005511886306719 0  0.7497344391006858 0.01012850992000371 0  0.7492611841720628 0.01022391829402118 0  0.7505324774103157 0.007935753892213609 0  0.7504040952764164 0.007956362408189879 0  0.7502371985023473 0.007983153478959028 0  0.7500202326960574 0.008017981870958922 0  0.7497381771478806 0.008063258780558785 0  0.7493715049352508 0.008122118763038607 0  0.748894831058832 0.008198636740262374 0  0.7502560886524935 0.005962823563557628 0  0.750126988695091 0.005978311760158239 0  0.7499591587504678 0.005998446415739033 0  0.7497409798224576 0.006024621467994065 0  0.7494573472160444 0.006058649035925606 0  0.7490886248277072 0.00610288487423661 0  0.7486092857228688 0.006160391464040916 0  0.7500583552424419 0.003980464785496456 0  0.7499287415951034 0.003990808172701682 0  0.7497602438535632 0.004004254576068476 0  0.7495411967895611 0.004021734900445307 0  0.7492564356063585 0.004044459322135188 0  0.7488862460681949 0.004074001070332033 0  0.7484049996685822 0.004112405342987931 0  0.7499395898371306 0.00199181207045183 0  0.7498096674456722 0.001996994293238307 0  0.7496407683367763 0.002003731182860726 0  0.7494211994952117 0.002012489139369872 0  0.7491357600011777 0.002023874482831762 0  0.7487646886589334 0.002038675429332218 0  0.7482822959140158 0.002057916659782811 0  1.560415810369109 0.0999 0  1.560415810369109 0.09977000000000001 0  1.560415810369109 0.09960100000000001 0  1.560415810369109 0.09938130000000001 0  1.560415810369109 0.09909569 0  1.560415810369109 0.09872439700000001 0  1.560415810369109 0.0982417161 0  1.550433135801143 0.0999 0  1.550433135801143 0.09977000000000001 0  1.550433135801143 0.09960100000000001 0  1.550433135801143 0.09938130000000001 0  1.550433135801143 0.09909569 0  1.550433135801143 0.09872439700000001 0  1.550433135801143 0.0982417161 0  1.540450461233177 0.0999 0  1.540450461233177 0.09977000000000001 0  1.540450461233177 0.09960100000000001 0  1.540450461233177 0.09938130000000001 0  1.540450461233177 0.09909569 0  1.540450461233177 0.09872439700000001 0  1.540450461233177 0.0982417161 0  1.530467786665217 0.0999 0  1.530467786665217 0.09977000000000001 0  1.530467786665217 0.09960100000000001 0  1.530467786665217 0.09938130000000001 0  1.530467786665217 0.09909569 0  1.530467786665217 0.09872439700000001 0  1.530467786665217 0.0982417161 0  1.520485112097282 0.0999 0  1.520485112097282 0.09977000000000001 0  1.520485112097282 0.09960100000000001 0  1.520485112097282 0.09938130000000001 0  1.520485112097282 0.09909569 0  1.520485112097282 0.09872439700000001 0  1.520485112097282 0.0982417161 0  1.510502437529372 0.0999 0  1.510502437529372 0.09977000000000001 0  1.510502437529372 0.09960100000000001 0  1.510502437529372 0.09938130000000001 0  1.510502437529372 0.09909569 0  1.510502437529372 0.09872439700000001 0  1.510502437529372 0.0982417161 0  1.500519762961454 0.0999 0  1.500519762961454 0.09977000000000001 0  1.500519762961454 0.09960100000000001 0  1.500519762961454 0.09938130000000001 0  1.500519762961454 0.09909569 0  1.500519762961454 0.09872439700000001 0  1.500519762961454 0.0982417161 0  1.490537088393518 0.0999 0  1.490537088393518 0.09977000000000001 0  1.490537088393518 0.09960100000000001 0  1.490537088393518 0.09938130000000001 0  1.490537088393518 0.09909569 0  1.490537088393518 0.09872439700000001 0  1.490537088393518 0.0982417161 0  1.480554413825552 0.0999 0  1.480554413825552 0.09977000000000001 0  1.480554413825552 0.09960100000000001 0  1.480554413825552 0.09938130000000001 0  1.480554413825552 0.09909569 0  1.480554413825552 0.09872439700000001 0  1.480554413825552 0.0982417161 0  1.470571739257585 0.0999 0  1.470571739257585 0.09977000000000001 0  1.470571739257585 0.09960100000000001 0  1.470571739257585 0.09938130000000001 0  1.470571739257585 0.09909569 0  1.470571739257585 0.09872439700000001 0  1.470571739257585 0.0982417161 0  1.460589064689625 0.0999 0  1.460589064689625 0.09977000000000001 0  1.460589064689625 0.09960100000000001 0  1.460589064689625 0.09938130000000001 0  1.460589064689625 0.09909569 0  1.460589064689625 0.09872439700000001 0  1.460589064689625 0.0982417161 0  1.450606390121689 0.0999 0  1.450606390121689 0.09977000000000001 0  1.450606390121689 0.09960100000000001 0  1.450606390121689 0.09938130000000001 0  1.450606390121689 0.09909569 0  1.450606390121689 0.09872439700000001 0  1.450606390121689 0.0982417161 0  1.440623715553778 0.0999 0  1.440623715553778 0.09977000000000001 0  1.440623715553778 0.09960100000000001 0  1.440623715553778 0.09938130000000001 0  1.440623715553778 0.09909569 0  1.440623715553778 0.09872439700000001 0  1.440623715553778 0.0982417161 0  1.430641040985861 0.0999 0  1.430641040985861 0.09977000000000001 0  1.430641040985861 0.09960100000000001 0  1.430641040985861 0.09938130000000001 0  1.430641040985861 0.09909569 0  1.430641040985861 0.09872439700000001 0  1.430641040985861 0.0982417161 0  1.420658366417926 0.0999 0  1.420658366417926 0.09977000000000001 0  1.420658366417926 0.09960100000000001 0  1.420658366417926 0.09938130000000001 0  1.420658366417926 0.09909569 0  1.420658366417926 0.09872439700000001 0  1.420658366417926 0.0982417161 0  1.41067569184996 0.0999 0  1.41067569184996 0.09977000000000001 0  1.41067569184996 0.09960100000000001 0  1.41067569184996 0.09938130000000001 0  1.41067569184996 0.09909569 0  1.41067569184996 0.09872439700000001 0  1.41067569184996 0.0982417161 0  1.400693017281994 0.0999 0  1.400693017281994 0.09977000000000001 0  1.400693017281994 0.09960100000000001 0  1.400693017281994 0.09938130000000001 0  1.400693017281994 0.09909569 0  1.400693017281994 0.09872439700000001 0  1.400693017281994 0.0982417161 0  1.390710342714032 0.0999 0  1.390710342714032 0.09977000000000001 0  1.390710342714032 0.09960100000000001 0  1.390710342714032 0.09938130000000001 0  1.390710342714032 0.09909569 0  1.390710342714032 0.09872439700000001 0  1.390710342714032 0.0982417161 0  1.380727668146096 0.0999 0  1.380727668146096 0.09977000000000001 0  1.380727668146096 0.09960100000000001 0  1.380727668146096 0.09938130000000001 0  1.380727668146096 0.09909569 0  1.380727668146096 0.09872439700000001 0  1.380727668146096 0.0982417161 0  1.370744993578183 0.0999 0  1.370744993578183 0.09977000000000001 0  1.370744993578183 0.09960100000000001 0  1.370744993578183 0.09938130000000001 0  1.370744993578183 0.09909569 0  1.370744993578183 0.09872439700000001 0  1.370744993578183 0.0982417161 0  1.360762319010268 0.0999 0  1.360762319010268 0.09977000000000001 0  1.360762319010268 0.09960100000000001 0  1.360762319010268 0.09938130000000001 0  1.360762319010268 0.09909569 0  1.360762319010268 0.09872439700000001 0  1.360762319010268 0.0982417161 0  1.350779644442333 0.0999 0  1.350779644442333 0.09977000000000001 0  1.350779644442333 0.09960100000000001 0  1.350779644442333 0.09938130000000001 0  1.350779644442333 0.09909569 0  1.350779644442333 0.09872439700000001 0  1.350779644442333 0.0982417161 0  1.340796969874369 0.0999 0  1.340796969874369 0.09977000000000001 0  1.340796969874369 0.09960100000000001 0  1.340796969874369 0.09938130000000001 0  1.340796969874369 0.09909569 0  1.340796969874369 0.09872439700000001 0  1.340796969874369 0.0982417161 0  1.330814295306402 0.0999 0  1.330814295306402 0.09977000000000001 0  1.330814295306402 0.09960100000000001 0  1.330814295306402 0.09938130000000001 0  1.330814295306402 0.09909569 0  1.330814295306402 0.09872439700000001 0  1.330814295306402 0.0982417161 0  1.320831620738436 0.0999 0  1.320831620738436 0.09977000000000001 0  1.320831620738436 0.09960100000000001 0  1.320831620738436 0.09938130000000001 0  1.320831620738436 0.09909569 0  1.320831620738436 0.09872439700000001 0  1.320831620738436 0.0982417161 0  1.310848946170482 0.0999 0  1.310848946170482 0.09977000000000001 0  1.310848946170482 0.09960100000000001 0  1.310848946170482 0.09938130000000001 0  1.310848946170482 0.09909569 0  1.310848946170482 0.09872439700000001 0  1.310848946170482 0.0982417161 0  1.300866271602536 0.0999 0  1.300866271602536 0.09977000000000001 0  1.300866271602536 0.09960100000000001 0  1.300866271602536 0.09938130000000001 0  1.300866271602536 0.09909569 0  1.300866271602536 0.09872439700000001 0  1.300866271602536 0.0982417161 0  1.291208096716183 0.0999 0  1.291208096716183 0.09977000000000001 0  1.291208096716183 0.09960100000000001 0  1.291208096716183 0.09938130000000001 0  1.291208096716183 0.09909569 0  1.291208096716183 0.09872439700000001 0  1.291208096716183 0.0982417161 0  1.282288463267615 0.0999 0  1.282288463267615 0.09977000000000001 0  1.282288463267615 0.09960100000000001 0  1.282288463267615 0.09938130000000001 0  1.282288463267615 0.09909569 0  1.282288463267615 0.09872439700000001 0  1.282288463267615 0.0982417161 0  1.274053462259647 0.0999 0  1.274053462259647 0.09977000000000001 0  1.274053462259647 0.09960100000000001 0  1.274053462259647 0.09938130000000001 0  1.274053462259647 0.09909569 0  1.274053462259647 0.09872439700000001 0  1.274053462259647 0.0982417161 0  1.266450544589796 0.0999 0  1.266450544589796 0.09977000000000001 0  1.266450544589796 0.09960100000000001 0  1.266450544589796 0.09938130000000001 0  1.266450544589796 0.09909569 0  1.266450544589796 0.09872439700000001 0  1.266450544589796 0.0982417161 0  1.259431195262359 0.0999 0  1.259431195262359 0.09977000000000001 0  1.259431195262359 0.09960100000000001 0  1.259431195262359 0.09938130000000001 0  1.259431195262359 0.09909569 0  1.259431195262359 0.09872439700000001 0  1.259431195262359 0.0982417161 0  1.252950620258616 0.0999 0  1.252950620258616 0.09977000000000001 0  1.252950620258616 0.09960100000000001 0  1.252950620258616 0.09938130000000001 0  1.252950620258616 0.09909569 0  1.252950620258616 0.09872439700000001 0  1.252950620258616 0.0982417161 0  1.246967466140105 0.0999 0  1.246967466140105 0.09977000000000001 0  1.246967466140105 0.09960100000000001 0  1.246967466140105 0.09938130000000001 0  1.246967466140105 0.09909569 0  1.246967466140105 0.09872439700000001 0  1.246967466140105 0.0982417161 0  1.241443553575717 0.0999 0  1.241443553575717 0.09977000000000001 0  1.241443553575717 0.09960100000000001 0  1.241443553575717 0.09938130000000001 0  1.241443553575717 0.09909569 0  1.241443553575717 0.09872439700000001 0  1.241443553575717 0.0982417161 0  1.236343631335452 0.0999 0  1.236343631335452 0.09977000000000001 0  1.236343631335452 0.09960100000000001 0  1.236343631335452 0.09938130000000001 0  1.236343631335452 0.09909569 0  1.236343631335452 0.09872439700000001 0  1.236343631335452 0.0982417161 0  1.231635158028346 0.0999 0  1.231635158028346 0.09977000000000001 0  1.231635158028346 0.09960100000000001 0  1.231635158028346 0.09938130000000001 0  1.231635158028346 0.09909569 0  1.231635158028346 0.09872439700000001 0  1.231635158028346 0.0982417161 0  1.227288087344267 0.0999 0  1.227288087344267 0.09977000000000001 0  1.227288087344267 0.09960100000000001 0  1.227288087344267 0.09938130000000001 0  1.227288087344267 0.09909569 0  1.227288087344267 0.09872439700000001 0  1.227288087344267 0.0982417161 0  1.223274678614311 0.0999 0  1.223274678614311 0.09977000000000001 0  1.223274678614311 0.09960100000000001 0  1.223274678614311 0.09938130000000001 0  1.223274678614311 0.09909569 0  1.223274678614311 0.09872439700000001 0  1.223274678614311 0.0982417161 0  1.219569322275819 0.0999 0  1.219569322275819 0.09977000000000001 0  1.219569322275819 0.09960100000000001 0  1.219569322275819 0.09938130000000001 0  1.219569322275819 0.09909569 0  1.219569322275819 0.09872439700000001 0  1.219569322275819 0.0982417161 0  1.216148372873299 0.0999 0  1.216148372873299 0.09977000000000001 0  1.216148372873299 0.09960100000000001 0  1.216148372873299 0.09938130000000001 0  1.216148372873299 0.09909569 0  1.216148372873299 0.09872439700000001 0  1.216148372873299 0.0982417161 0  1.212990000950751 0.0999 0  1.212990000950751 0.09977000000000001 0  1.212990000950751 0.09960100000000001 0  1.212990000950751 0.09938130000000001 0  1.212990000950751 0.09909569 0  1.212990000950751 0.09872439700000001 0  1.212990000950751 0.0982417161 0  1.210074051812103 0.0999 0  1.210074051812103 0.09977000000000001 0  1.210074051812103 0.09960100000000001 0  1.210074051812103 0.09938130000000001 0  1.210074051812103 0.09909569 0  1.210074051812103 0.09872439700000001 0  1.210074051812103 0.0982417161 0  1.20738191868474 0.0999 0  1.20738191868474 0.09977000000000001 0  1.20738191868474 0.09960100000000001 0  1.20738191868474 0.09938130000000001 0  1.20738191868474 0.09909569 0  1.20738191868474 0.09872439700000001 0  1.20738191868474 0.0982417161 0  1.204896421791989 0.0999 0  1.204896421791989 0.09977000000000001 0  1.204896421791989 0.09960100000000001 0  1.204896421791989 0.09938130000000001 0  1.204896421791989 0.09909569 0  1.204896421791989 0.09872439700000001 0  1.204896421791989 0.0982417161 0  1.202601701178553 0.0999 0  1.202601701178553 0.09977000000000001 0  1.202601701178553 0.09960100000000001 0  1.202601701178553 0.09938130000000001 0  1.202601701178553 0.09909569 0  1.202601701178553 0.09872439700000001 0  1.202601701178553 0.0982417161 0  1.200483113200636 0.0999 0  1.200483113200636 0.09977000000000001 0  1.200483113200636 0.09960100000000001 0  1.200483113200636 0.09938130000000001 0  1.200483113200636 0.09909569 0  1.200483113200636 0.09872439700000001 0  1.200483113200636 0.0982417161 0  1.198481969582312 0.0999 0  1.198481969582312 0.09977000000000001 0  1.198481969582312 0.09960100000000001 0  1.198481969582312 0.09938130000000001 0  1.198481969582312 0.09909569 0  1.198481969582312 0.09872439700000001 0  1.198481969582312 0.0982417161 0  1.196485434668729 0.0999 0  1.196485434668729 0.09977000000000001 0  1.196485434668729 0.09960100000000001 0  1.196485434668729 0.09938130000000001 0  1.196485434668729 0.09909569 0  1.196485434668729 0.09872439700000001 0  1.196485434668729 0.0982417161 0  1.194488899755142 0.0999 0  1.194488899755142 0.09977000000000001 0  1.194488899755142 0.09960100000000001 0  1.194488899755142 0.09938130000000001 0  1.194488899755142 0.09909569 0  1.194488899755142 0.09872439700000001 0  1.194488899755142 0.0982417161 0  1.066710665285711 0.0999 0  1.066710665285711 0.09977000000000001 0  1.066710665285711 0.09960100000000001 0  1.066710665285711 0.09938130000000001 0  1.066710665285711 0.09909569 0  1.066710665285711 0.09872439700000001 0  1.066710665285711 0.0982417161 0  1.064714130372118 0.0999 0  1.064714130372118 0.09977000000000001 0  1.064714130372118 0.09960100000000001 0  1.064714130372118 0.09938130000000001 0  1.064714130372118 0.09909569 0  1.064714130372118 0.09872439700000001 0  1.064714130372118 0.0982417161 0  1.062717595458525 0.0999 0  1.062717595458525 0.09977000000000001 0  1.062717595458525 0.09960100000000001 0  1.062717595458525 0.09938130000000001 0  1.062717595458525 0.09909569 0  1.062717595458525 0.09872439700000001 0  1.062717595458525 0.0982417161 0  1.060721060544932 0.0999 0  1.060721060544932 0.09977000000000001 0  1.060721060544932 0.09960100000000001 0  1.060721060544932 0.09938130000000001 0  1.060721060544932 0.09909569 0  1.060721060544932 0.09872439700000001 0  1.060721060544932 0.0982417161 0  1.058724525631338 0.0999 0  1.058724525631338 0.09977000000000001 0  1.058724525631338 0.09960100000000001 0  1.058724525631338 0.09938130000000001 0  1.058724525631338 0.09909569 0  1.058724525631338 0.09872439700000001 0  1.058724525631338 0.0982417161 0  1.056727990717745 0.0999 0  1.056727990717745 0.09977000000000001 0  1.056727990717745 0.09960100000000001 0  1.056727990717745 0.09938130000000001 0  1.056727990717745 0.09909569 0  1.056727990717745 0.09872439700000001 0  1.056727990717745 0.0982417161 0  1.054731455804152 0.0999 0  1.054731455804152 0.09977000000000001 0  1.054731455804152 0.09960100000000001 0  1.054731455804152 0.09938130000000001 0  1.054731455804152 0.09909569 0  1.054731455804152 0.09872439700000001 0  1.054731455804152 0.0982417161 0  1.052734920890565 0.0999 0  1.052734920890565 0.09977000000000001 0  1.052734920890565 0.09960100000000001 0  1.052734920890565 0.09938130000000001 0  1.052734920890565 0.09909569 0  1.052734920890565 0.09872439700000001 0  1.052734920890565 0.0982417161 0  1.050738385976977 0.0999 0  1.050738385976977 0.09977000000000001 0  1.050738385976977 0.09960100000000001 0  1.050738385976977 0.09938130000000001 0  1.050738385976977 0.09909569 0  1.050738385976977 0.09872439700000001 0  1.050738385976977 0.0982417161 0  1.04874185106339 0.0999 0  1.04874185106339 0.09977000000000001 0  1.04874185106339 0.09960100000000001 0  1.04874185106339 0.09938130000000001 0  1.04874185106339 0.09909569 0  1.04874185106339 0.09872439700000001 0  1.04874185106339 0.0982417161 0  1.046745316149803 0.0999 0  1.046745316149803 0.09977000000000001 0  1.046745316149803 0.09960100000000001 0  1.046745316149803 0.09938130000000001 0  1.046745316149803 0.09909569 0  1.046745316149803 0.09872439700000001 0  1.046745316149803 0.0982417161 0  1.044748781236216 0.0999 0  1.044748781236216 0.09977000000000001 0  1.044748781236216 0.09960100000000001 0  1.044748781236216 0.09938130000000001 0  1.044748781236216 0.09909569 0  1.044748781236216 0.09872439700000001 0  1.044748781236216 0.0982417161 0  1.042752246322629 0.0999 0  1.042752246322629 0.09977000000000001 0  1.042752246322629 0.09960100000000001 0  1.042752246322629 0.09938130000000001 0  1.042752246322629 0.09909569 0  1.042752246322629 0.09872439700000001 0  1.042752246322629 0.0982417161 0  1.040755711409042 0.0999 0  1.040755711409042 0.09977000000000001 0  1.040755711409042 0.09960100000000001 0  1.040755711409042 0.09938130000000001 0  1.040755711409042 0.09909569 0  1.040755711409042 0.09872439700000001 0  1.040755711409042 0.0982417161 0  1.03875917649546 0.0999 0  1.03875917649546 0.09977000000000001 0  1.03875917649546 0.09960100000000001 0  1.03875917649546 0.09938130000000001 0  1.03875917649546 0.09909569 0  1.03875917649546 0.09872439700000001 0  1.03875917649546 0.0982417161 0  1.03676264158188 0.0999 0  1.03676264158188 0.09977000000000001 0  1.03676264158188 0.09960100000000001 0  1.03676264158188 0.09938130000000001 0  1.03676264158188 0.09909569 0  1.03676264158188 0.09872439700000001 0  1.03676264158188 0.0982417161 0  1.034766106668298 0.0999 0  1.034766106668298 0.09977000000000001 0  1.034766106668298 0.09960100000000001 0  1.034766106668298 0.09938130000000001 0  1.034766106668298 0.09909569 0  1.034766106668298 0.09872439700000001 0  1.034766106668298 0.0982417161 0  1.032769571754718 0.0999 0  1.032769571754718 0.09977000000000001 0  1.032769571754718 0.09960100000000001 0  1.032769571754718 0.09938130000000001 0  1.032769571754718 0.09909569 0  1.032769571754718 0.09872439700000001 0  1.032769571754718 0.0982417161 0  1.030773036841137 0.0999 0  1.030773036841137 0.09977000000000001 0  1.030773036841137 0.09960100000000001 0  1.030773036841137 0.09938130000000001 0  1.030773036841137 0.09909569 0  1.030773036841137 0.09872439700000001 0  1.030773036841137 0.0982417161 0  1.028776501927556 0.0999 0  1.028776501927556 0.09977000000000001 0  1.028776501927556 0.09960100000000001 0  1.028776501927556 0.09938130000000001 0  1.028776501927556 0.09909569 0  1.028776501927556 0.09872439700000001 0  1.028776501927556 0.0982417161 0  1.026779967013975 0.0999 0  1.026779967013975 0.09977000000000001 0  1.026779967013975 0.09960100000000001 0  1.026779967013975 0.09938130000000001 0  1.026779967013975 0.09909569 0  1.026779967013975 0.09872439700000001 0  1.026779967013975 0.0982417161 0  1.024783432100394 0.0999 0  1.024783432100394 0.09977000000000001 0  1.024783432100394 0.09960100000000001 0  1.024783432100394 0.09938130000000001 0  1.024783432100394 0.09909569 0  1.024783432100394 0.09872439700000001 0  1.024783432100394 0.0982417161 0  1.022786897186813 0.0999 0  1.022786897186813 0.09977000000000001 0  1.022786897186813 0.09960100000000001 0  1.022786897186813 0.09938130000000001 0  1.022786897186813 0.09909569 0  1.022786897186813 0.09872439700000001 0  1.022786897186813 0.0982417161 0  0.6019462259982902 0.003462065146575433 0  0.6159511501888426 0.003281820726160356 0  0.6297309939390615 0.003479870917135076 0  0.6434187892267849 0.003671430054769793 0  0.6574285421501828 0.003429612198906818 0  0.7134983289333714 0.003371109824844288 0  0.6713790754454869 0.003413694709206542 0  0.6993081048834058 0.003479870917135076 0  0.6853266921780321 0.003231503957851435 0  1.197874164211272 0.003301534975045316 0  1.183774603156547 0.003792088787216975 0  1.16966926308422 0.003476474889851448 0  1.155899260518755 0.003454404796750996 0  1.141850304967534 0.003519381338616205 0  1.127999653696189 0.003484124490281352 0  1.114074299017316 0.003380237449136062 0  1.10007477850874 0.003404785450122157 0  1.086150243462342 0.003484124490281256 0  1.072158329893579 0.003490193784569335 0  1.058493756162694 0.003215710507663574 0  1.044225441537337 0.003233493441404513 0  1.03035102981721 0.003484124490281255 0  1.016592024966602 0.003319653988762051 0  1.002289218330817 0.00340132030850447 0  0.9884195318230635 0.003691384898774581 0  0.9745518161721493 0.003484124490274621 0  0.9603808074242495 0.003321687611445708 0  0.9467442030534993 0.003484533862832963 0  0.9327875131866075 0.0035111209074948 0  0.9188016661581683 0.003473363438618049 0  0.9048027991157517 0.00344259920004789 0  0.8908560038054884 0.003618815225493976 0  0.6921025002824639 0.09656287348558283 0  0.6783843637992146 0.09651250398580555 0  0.706529881749834 0.09673119196731046 0  0.6644089737955771 0.09651265744937861 0  0.6503455896699946 0.0967591840499647 0  0.6362978738847399 0.09652496624139321 0  0.6224813997167528 0.09664391994069346 0  0.6085059315626191 0.09651221027412871 0  0.8983713313197543 0.09685003803534044 0  0.9119834633642971 0.09653853449136054 0  0.9259055307528579 0.09636378064246345 0  0.9399306982730004 0.09651266614529101 0  0.9538405222288926 0.09658170274809422 0  0.9678234171862827 0.09666920627642057 0  0.9818189914625141 0.09676702143014848 0  0.9958633795896434 0.09635349698007636 0  1.009809420248534 0.0965126661452939 0  1.024049618861697 0.09663321482697997 0  1.037820444126345 0.09662794421636463 0  1.05173665343377 0.09651266614529092 0  1.065666365939702 0.09637214822264674 0  1.079636388732963 0.09645837315327783 0  1.093600375787734 0.09654835534263531 0  1.10758208701528 0.09663489517164532 0  1.121580939079923 0.09673352153975541 0  1.135561197032232 0.09646193754676663 0  1.149566864199539 0.09651266614529101 0  1.163542596361224 0.09654306270337611 0  1.177518890152669 0.09651189955519886 0  1.191494516245721 0.09651242789476207 0  0.8460002778372874 0.02737740102276379 0  0.7538958947802268 0.02736297764295431 0  0.8840122250906616 0.09639858949385106 0  0.7205121273508506 0.09654063542679775 0  0.5938608297624193 0.09617182120205306 0  1.206170332177015 0.09609096653609932 0  0.872030395646515 0.09657740906501129 0  0.7322910672590131 0.09651266614528294 0  0.8397174726497834 0.03580080225890023 0  0.7602511295914067 0.03587721828125845 0  1.211888347109341 0.00420596800529026 0  0.5875805141114205 0.004273638474416442 0  0.8599875101140639 0.09671176663005256 0  0.8788960213519423 0.003484124490281352 0  0.744136684270039 0.09645051578801296 0  0.8332844388880318 0.04184127282343043 0  0.766301829342844 0.04173176435841968 0  0.8480596030140786 0.09661625990971431 0  0.7230998851551439 0.003447541954948617 0  0.754175886326809 0.0967460169195908 0  1.221428073665589 0.09502917548684896 0  0.5787588534089747 0.09507782502952081 0  0.8381074176797272 0.09651266614528303 0  0.77340056111628 0.04662720469356498 0  0.8265203284667819 0.04668370204060698 0  0.7641276722917426 0.09661515656292641 0  0.8281247431117457 0.09651266614528303 0  0.8498596521507228 0.01974641043013405 0  0.774218300444601 0.09651266614528044 0  0.7503315699465563 0.01975487931556093 0  0.8186984154581081 0.05014240227822703 0  0.7813593190883401 0.05002574932558003 0  0.8181222756099868 0.09648397916321964 0  0.7840727855485876 0.09633319694170668 0  1.229863882819479 0.005367981521484174 0  0.5693910763876688 0.005439413205689267 0  0.8080774535921621 0.0965721311276936 0  0.7940160177196732 0.09652294205903308 0  0.8105010887986801 0.05250594846895436 0  0.7894197384042441 0.05245445818811079 0  0.7998507689489389 0.053559237598167 0  1.238893943935928 0.0938686942342505 0  0.561834428266928 0.09397753190902242 0  0.8689029978139475 0.003393066090867938 0  0.7311147841722494 0.003479870917135124 0  1.250589255618431 0.006773922393497039 0  0.5485720308735562 0.006985193977074597 0  1.262860141584408 0.09252329711916443 0  0.5370009954907899 0.09250133771766544 0  0.7482476242444071 0.01368353936826244 0  0.8514332951888877 0.01401701014036453 0  1.269996017991954 0.008780874362977661 0  0.527975789005123 0.008180969444465868 0  1.287095384576562 0.09113078240713557 0  0.5122187031142329 0.08961956217270207 0  0.5955164871779763 0.003780412493944933 0  1.20406896389289 0.003924142451183641 0  0.6025162350033268 0.09654556380662428 0  0.6443922839850698 0.09667134320281223 0  0.6723949302298401 0.09651267873286309 0  0.6302560240811069 0.09644280351534507 0  0.6864958559433035 0.09626219219089284 0  0.6164920369677924 0.09652879900657704 0  0.6564228311983638 0.09651265908898761 0  0.7125181980000544 0.09664916999317359 0  0.7003373830340559 0.09651797139688345 0  1.057726269769399 0.0966317272104944 0  1.197439596027773 0.09648240099978114 0  0.8920623447026645 0.09634481441218581 0  1.043750555968508 0.09651267116048948 0  1.113591753965593 0.09661326210763102 0  1.003819815507779 0.0965126661452937 0  1.127586651995265 0.09667725507123928 0  1.171606522047486 0.09660293572308232 0  1.073651918088381 0.09643621457504754 0  1.155853384321506 0.09650485412163365 0  0.9177546054883758 0.09655707620396632 0  1.099596062579613 0.09654752681956916 0  1.018061284983952 0.09650581203599802 0  1.031682252384825 0.09648864526337116 0  0.9878221685374955 0.09669583428343433 0  0.9339229431457223 0.09649093004145927 0  0.9598386044386974 0.09657045146019583 0  0.9738320104683789 0.09663466048732097 0  0.9478464019912713 0.09658138160004799 0  1.087606624123632 0.09652812249460493 0  1.141707553461886 0.09624498887151546 0  0.9059918341765937 0.09655229335786826 0  1.18350795716219 0.09659081789806437 0  0.9941639658452956 0.003547640306283831 0  0.9826185775407962 0.003226203420294944 0  0.968725693958669 0.003631702183590694 0  1.080168237170886 0.003397343902718741 0  1.038231061352467 0.003438732427779419 0  1.16387057675378 0.003484124490281256 0  1.120038837086879 0.003441465351379234 0  1.052518288121286 0.003437974101523498 0  1.094121559697355 0.003484124490281255 0  1.191972184226521 0.003366482357722644 0  0.8968314828807299 0.00344567090687656 0  1.178024287902215 0.003456199826492453 0  0.9386830130266302 0.003455747380446797 0  0.9127896167341727 0.003553925211426333 0  1.106060427102981 0.003682753958766373 0  1.010493518477571 0.003510713564155226 0  1.148087515623775 0.003627351838385978 0  0.9526306965258649 0.003484124490281351 0  1.022379713582195 0.003484124490281351 0  1.063807395478242 0.003236139613270557 0  0.9268944888388386 0.003661085720573844 0  1.136045946655026 0.003462263068278418 0  0.7055436720909121 0.003481928056674945 0  0.6217816344225887 0.003331730652838867 0  0.6654167651886378 0.003410582840854498 0  0.6099666153360241 0.003360413776818359 0  0.6913071360565319 0.003293275138888345 0  0.6515980859501396 0.003479870917135123 0  0.6376295874389375 0.003572281990602067 0  0.6773703491418932 0.003380387980245655 0  0.8780257409634025 0.09648851075334958 0  0.8660037892263672 0.09664210556831383 0  0.7381261332243766 0.09655850503017113 0  0.7263014625182307 0.09651266614528563 0  0.8539732315475541 0.09678164062264601 0  0.8020842976657624 0.09667422686113765 0  0.8845102448265459 0.003347116588339067 0  0.7367225259554422 0.003171711223136813 0  0.8632215280844899 0.00353960556581217 0  0.4920950796426837 0.01071440393260476 0  1.306243165613046 0.01026329149755793 0  0.05466773002725257 0.01036621898560925 0  0.08358623386077327 0.009876095647126984 0  0.1134139175394228 0.009241038694470549 0  0.1433127121547744 0.009418671465484692 0  0.1736383375568997 0.009855764896613967 0  0.2032165845539451 0.01078502216051771 0  0.234525746454354 0.01029700226148578 0  0.2643517100533387 0.009663422876139171 0  0.2942292459922746 0.009053145253164982 0  0.3238126842830519 0.00899361119178933 0  0.3528159898432253 0.01156340399083428 0  0.3819649996228129 0.01046163315036589 0  0.4119632149017788 0.01025481780927688 0  0.4424270168878748 0.01040901620878688 0  1.746190205558086 0.009573990673614984 0  1.716278527875483 0.009965893227728607 0  1.686382551465668 0.01040155587932679 0  1.656337508476425 0.01060985952303153 0  1.623526734704102 0.01098635956647348 0  1.594915953955919 0.0109773620038416 0  1.565268122155143 0.009999039337248716 0  1.535198262771297 0.00965556603516152 0  1.505258247612652 0.009420609985987703 0  1.475359949996638 0.009857703780510367 0  1.445462073329461 0.01029561272788283 0  1.41616612881356 0.01059421105795181 0  1.386484625225017 0.01039153796599217 0  1.356588302191431 0.01038391825139464 0  0.464172417786425 0.08958939083910585 0  1.335805632590385 0.08959646632642929 0  0.4240231481922531 0.08966313117707347 0  0.3941128250491582 0.08971382725784316 0  0.3643694263940677 0.08959736637288152 0  0.3344233546277556 0.08959513693582902 0  0.304472511059981 0.08986010582958937 0  0.2745139460655708 0.08958374647561898 0  0.2445696176892469 0.08959267604656834 0  0.2146289510262746 0.08959785955758555 0  0.184677922475004 0.08959718700015887 0  0.1547330127834178 0.08959718703465165 0  0.1247871269779716 0.08959527050918217 0  1.37573633086214 0.08959646632647468 0  0.09476497197467058 0.08952034597329497 0  1.405682029984562 0.08971041668049365 0  1.435636850437926 0.0895922423720085 0  0.06429342893592215 0.08894740648061955 0  1.465579508699684 0.0895965011174228 0  1.495526578662808 0.08959515796824903 0  1.525475565772991 0.08959665625284335 0  1.555421491625043 0.08959588205390846 0  1.585163113664495 0.08991169527815779 0  1.615401630351508 0.08996656595190679 0  1.64526279099165 0.08960017739899034 0  1.674966216807684 0.08923273908006507 0  1.704249444857493 0.08947226230312363 0  1.735165184007574 0.08820996485596252 0  0.009471162987266288 0.05457455510943354 0  1.792372226205311 0.05494341314396443 0  0.747053493710654 0.007580643915301341 0  0.8529609964571604 0.007468076392594077 0  0.03492568108668981 0.08961892154949738 0  1.766506197183357 0.08865590395006469 0  0.806393859972762 0.05319577381672492 0  0.7575853169831526 0.03265795940317188 0  0.8423686443555012 0.03262212088675007 0  0.8479122248425863 0.02371596377569268 0  0.7698302292857984 0.04429376815968415 0  0.8226865856135568 0.04848961879522263 0  0.8366419133785836 0.03886879649731088 0  0.8300123782939771 0.04414102543518709 0  0.7773335917085402 0.04840727694816277 0  0.7957427310975353 0.05329733413877535 0  0.8146645780520002 0.05150037656789649 0  0.7636953379724877 0.03905697008897608 0  0.7520977723190075 0.02382334975401604 0  0.7852793198786221 0.05146624629283504 0  0.5500494833973744 0.09316200761038347 0  0.5704556282970756 0.09479710566813417 0  1.250126718456473 0.09310948953379311 0  1.229623629792828 0.09458811277307495 0  1.239332295816994 0.006058687735312107 0  1.218277907172741 0.004882362719579163 0  1.287524015675905 0.01061339340242213 0  0.581126673548128 0.00462559450144245 0  0.5596616668253335 0.006163132061310266 0  0.5118874418812563 0.009760079963303823 0  0.5884101989194738 0.09583910356814551 0  1.211530371969359 0.09583752115242146 0  0.4942798663476562 0.09000696253541166 0  1.306257352686692 0.08968114679186297 0  1.326935467329519 0.01052514994309446 0  0.472227684444924 0.0103461205951251 0  1.201542581974409 0.09640962913061697 0  0.5986077964038807 0.09655937861203651 0  0.4442371732632311 0.08959734552974963 0  1.356071906549079 0.08931202154208262 0  0.6604159031825022 0.09651265788598891 0  0.6266337742261384 0.09656715597591527 0  0.6684020035987631 0.09651269536326984 0  0.6963534336766311 0.09651271647847071 0  0.6404504612335252 0.09651266614528044 0  0.6823773512511059 0.09651219620515597 0  0.6124994001402646 0.09651245541341391 0  1.02777823447078 0.0965126661452964 0  0.999826745680607 0.0965126661452937 0  1.167730732932155 0.09635741518880614 0  1.103583114143416 0.09655900765348413 0  1.117559843061289 0.09661258861204372 0  0.9917698109856836 0.09668199164229464 0  0.9298983700485968 0.09640689244300284 0  0.9777943587048912 0.09663017069980614 0  1.061656243716588 0.09633806314166943 0  0.9438535539133004 0.09654142967201143 0  1.187501018663206 0.09651268646932412 0  0.9019987581211866 0.0965699918460271 0  1.145573794372373 0.09651266614529121 0  1.159623228105632 0.09657490705462915 0  0.9638189067644314 0.09657752495519825 0  1.047743584276027 0.09660564615692985 0  1.069672139641224 0.09642374916114985 0  0.92194438190312 0.09645587772661354 0  1.01406773532004 0.09653269961644609 0  1.131555638354587 0.09662266393575339 0  1.083681212051209 0.09651266614529611 0  1.159884918636266 0.003437889198395255 0  0.9643729932702314 0.003393106792737482 0  1.132024129356848 0.003565478345349236 0  0.9227382606445503 0.003484124490281351 0  0.9982987955249889 0.003359525752112649 0  0.9783206288348745 0.003657146513103418 0  0.9426665512320964 0.003444866141146872 0  1.151981260795193 0.003459313032886496 0  0.9008171409982504 0.003448082855842711 0  1.187784525458821 0.003484124490281351 0  1.068174991095886 0.003598115418694958 0  1.026290045850097 0.003673995128693679 0  1.034224329807146 0.003455475031067713 0  1.090135901579849 0.003484124490281351 0  1.173657281370099 0.003397608101021004 0  1.048273803952245 0.003511285654352176 0  0.9567177575673511 0.003548839628755881 0  1.110064192167397 0.003484124490281352 0  1.076186098168572 0.003484124490281351 0  0.9087884611571481 0.003426744896163032 0  1.124013995578671 0.003431415275607661 0  1.006396274979199 0.00385222760514769 0  0.6813258751289271 0.00337389332702948 0  0.7171993619833833 0.003479870917135076 0  0.6059783362219489 0.003413671745116476 0  0.6257551590279593 0.003479870917135172 0  0.6337068288501634 0.003479870917135172 0  0.7095207199349225 0.003426779123490945 0  0.6614316378094407 0.003412691425251181 0  0.6953322699723004 0.003479870917135172 0  0.6476222510390383 0.003479870917135124 0  1.765422841096302 0.009947672300376176 0  0.03478855547188352 0.01036621898560414 0  0.8880118023662159 0.0964348053516581 0  0.7165135910392737 0.09659665470994551 0  0.7482296715937901 0.09661934237807528 0  0.7582428902981713 0.09662462640998309 0  0.8440362231561349 0.09648551816705438 0  0.7681298483535658 0.0965332574851443 0  0.8341143478525392 0.09651266614528303 0  0.8241128006265103 0.09645753951179303 0  0.8140706025748501 0.0964702658150213 0  0.7781028153405073 0.0964679964013426 0  0.7881940448397988 0.09651266614528274 0  0.7984403432332823 0.0967951866827462 0  0.8752181469287708 0.00342553302339542 0  0.7270096896107636 0.00350356545928739 0  0.8589312063057579 0.003527946351214051 0  0.7412122059513739 0.003441335188082242 0  0.008355710332976466 0.03552748517008755 0  1.792194935932916 0.03427086447480261 0  0.007731092563833778 0.07443592507148368 0  1.790445106581308 0.07459083737725077 0  0.8529892435881488 0.002734109808949623 0  0.7470181238166848 0.002737279505255785 0  1.784650534677246 0.01013542974680939 0  0.01457722190037559 0.01017250611237263 0  0.01482016390315136 0.08862790038702346 0  1.784191330205255 0.09008212907724847 0  0.8546971717259026 0.003481441218591244 0  0.7450302063611214 0.003479870917135172 0  0.8567719290063329 0.003603198883541947 0  0.8578920460001018 0.005283708869026371 0  0.8599905436804288 0.00522191082805133 0  0.8590313674509399 0.00698967319310121 0  0.860987221108844 0.006957352483130033 0  0.8600925142960311 0.008693156247056896 0  0.8620401957629907 0.008658679724092993 0  0.8611490513115538 0.01039198031074445 0  0.8631750164880854 0.01030832775914288 0  0.8622191897508416 0.01208181053506836 0  0.8642474191612145 0.01199666567282863 0  0.8632811882790771 0.01377659576289049 0  0.8651978642524127 0.01376091479913489 0  0.8643215067623626 0.01548486025261857 0  0.8662345693844082 0.01547142585860998 0  0.8653725885633474 0.01718641496371797 0  0.8673704222661567 0.01712018028922181 0  0.8664419888868402 0.0188765586130332 0  0.8684207347563536 0.01879660815755845 0  0.8675001855654909 0.0205694126583864 0  0.8694795611898511 0.02056453579596568 0  0.8685579339605416 0.02227796839809972 0  0.8705593757913436 0.02228752242212069 0  0.8696191056696603 0.02398165091816395 0  0.8716186210238177 0.02391577087853961 0  0.8706776527592015 0.02566464057796772 0  0.8726764976205179 0.02559940269033204 0  0.8717350681936874 0.02736159391102057 0  0.8737029550182378 0.02731390210705141 0  0.8727872915420865 0.02906192816173701 0  0.8747543130189547 0.02901479984404272 0  0.8738427996433058 0.030760558952106 0  0.875826611565946 0.03070302984815729 0  0.8749023452943604 0.03245679454360676 0  0.876880148153204 0.0324030280884892 0  0.8759594368771109 0.03415459230800155 0  0.8779515902214374 0.03409189332440422 0  0.8770191036953117 0.03585079493381089 0  0.8790358389139816 0.03577278670570057 0  0.8780813341567991 0.03754540306074897 0  0.8800984966493509 0.03746712908282863 0  0.8791403933993074 0.03924198693717763 0  0.8811169556619594 0.03918900073674601 0  0.8801915576515232 0.04094348831798977 0  0.8821668040824592 0.04089132170162084 0  0.8812466376400079 0.04264255083469533 0  0.8832451377073901 0.04257590079450911 0  0.8792513144262883 0.04270722218226644 0  0.8803088931017162 0.04440472841214136 0  0.8783109117606972 0.04447105536278079 0  0.8793681923073919 0.04616874728301754 0  0.8773694467017001 0.04623555025356153 0  0.8784268217381614 0.04793318332118003 0  0.8764279748890208 0.04800004935089332 0  0.8841917985160891 0.04080816975073968 0  0.8852483075942676 0.04250634217719466 0  0.8862168072752457 0.04075538876329411 0  0.8872522581719819 0.0424413606242706 0  0.8881947714285161 0.04068175394978696 0  0.8892484980971851 0.0423736662777331 0  0.8901897262449689 0.0406136074709824 0  0.8912462846908347 0.04230643452137835 0  0.8921876166461211 0.04054185151652068 0  0.8932448183266782 0.04223867828410908 0  0.8941862403820087 0.04047387304649019 0  0.895243598692012 0.04217146421408907 0  0.8943020828840709 0.04393598199408864 0  0.8963009470462739 0.04386903881943838 0  0.8953594295790471 0.04563355383906065 0  0.897358307430846 0.04556665535357824 0  0.8982998207233579 0.04380212608384904 0  0.8993571868223686 0.04549976186459802 0  0.9002987005806107 0.04373523413060214 0  0.9013560675005398 0.04543287267209477 0  0.902297581803238 0.04366834676121168 0  0.9033549486207129 0.04536598495964553 0  0.9042964630587323 0.04360146113785718 0  0.9053534690822764 0.04528831740455665 0  0.9062952841482816 0.04353277732265024 0  0.9073525051278977 0.04522605738317752 0  0.9082941840854658 0.04346635425451215 0  0.9093511909639371 0.04515331558873986 0  0.9102930333814575 0.04339830668460305 0  0.9113504416178768 0.04509598950994774 0  0.9122919684733102 0.04333284411091867 0  0.9133493678683309 0.04503087874815401 0  0.9142912322502299 0.04327999969542713 0  0.9153480731078557 0.04496661269922041 0  0.9162898654346395 0.04321606566200112 0  0.91734649885713 0.04490048278526221 0  0.9182876423209503 0.04313685358318259 0  0.9193444521796033 0.04483150609168866 0  0.9202853452270365 0.04306769313916438 0  0.9213420412235189 0.04476389163483321 0  0.9222828634635284 0.04300044123275309 0  0.9233394168772709 0.04469670954780863 0  0.9242800589616731 0.04293356904445722 0  0.9253364771835042 0.04462967722552883 0  0.9262768884872752 0.04286653235493737 0  0.9273332654430868 0.04456282854239605 0  0.9282737547286111 0.04280029698682734 0  0.9293297632463693 0.04449598366944342 0  0.9301781727668026 0.04279091425003137 0  0.9313107224067374 0.04443863753018615 0  0.9321474151050367 0.04242566315303276 0  0.9332997735162858 0.04432357526406058 0  0.9342623440059754 0.04260027956528115 0  0.9353143066573493 0.04428891311930273 0  0.9362581324343784 0.04253360497521518 0  0.9373131060511506 0.04422746458304977 0  0.9363727237177881 0.04597969368533379 0  0.9383687996543585 0.04591212290057859 0  0.9393090864950593 0.04415973891295542 0  0.9403644445119437 0.04584511139149636 0  0.9413065044458937 0.04414885874498266 0  0.9423602795655613 0.04578971676978594 0  0.9433022009908671 0.04409335024879419 0  0.9443555157280032 0.04572453994682738 0  0.9452955478938136 0.04397277478353022 0  0.9463503014705342 0.0456491286974555 0  0.9472902656095649 0.04389562767188683 0  0.9483451552350131 0.04557913396002575 0  0.9492850954749047 0.04382663821104785 0  0.9503399669821669 0.04551152209517337 0  0.9512798147026348 0.04375942187011211 0  0.9523348925693632 0.04545037653546278 0  0.9532745589798927 0.04369356091475451 0  0.9543293524554772 0.04537882992086301 0  0.9552691243229525 0.04362619024427137 0  0.9563238593123662 0.0453112353008208 0  0.9572635525076303 0.0435592154323004 0  0.9583182912290146 0.04524426545979714 0  0.9592579477641096 0.04349242031051516 0  0.9603126564492404 0.04517753265196811 0  0.9611958917452587 0.04346081504039296 0  0.962297261475215 0.04510800439179661 0  0.9631885292793166 0.04346977569704236 0  0.9642898874290307 0.04506203237467193 0  0.965238580196436 0.04338402309755105 0  0.9662930903440899 0.0449956440625175 0  0.9672341321000035 0.04324390483331978 0  0.9682889302968249 0.04491670261399659 0  0.9692287163531066 0.04316291486861269 0  0.9702833477492759 0.04484561536798993 0  0.9712228777998885 0.04309309421163036 0  0.9722776404075764 0.04478289299430606 0  0.9732169143197097 0.04302653029547207 0  0.974271421511912 0.04471159249636197 0  0.9752108145706209 0.04295907791149088 0  0.9762652856962031 0.04464403810143378 0  0.9772046780298874 0.04289210176085843 0  0.9782591266627888 0.04457710522923145 0  0.9791985029234446 0.04282530792743325 0  0.9802356719271034 0.04450924820668829 0  0.9811894242026759 0.04275839477216593 0  0.9821915331389866 0.04445379383674806 0  0.983176355125372 0.04269348301358553 0  0.9841953485660306 0.044398583768415 0  0.9851706160587456 0.04262898608381893 0  0.9862298376191925 0.04432152853352137 0  0.9871395523565942 0.04258067016202131 0  0.9882217149903836 0.04425721111294526 0  0.9890737297780685 0.04237922692268876 0  0.9902210281137243 0.04406711057095872 0  0.9892815753630877 0.04592748531523223 0  0.9912761267414527 0.04585690988582281 0  0.9922154764826959 0.04412014144328085 0  0.993270069684175 0.04580946281327833 0  0.994213072430834 0.04417076968953426 0  0.9952644177648887 0.04576547112278725 0  0.9962035294534051 0.04400936090933333 0  0.9972576283461492 0.04568670647637239 0  0.9981965347191408 0.04392482947256699 0  0.9992510610539546 0.04561497252476258 0  1.000189998582314 0.04385428437232578 0  1.0012445939989 0.04554672450534759 0  1.002185787716141 0.0438533849429492 0  1.003238518370515 0.04549064132769266 0  1.004179436532881 0.04378925435023093 0  1.005232142634824 0.04542612621972453 0  1.006173006686576 0.04372344088565961 0  1.007225691410084 0.0453598722998021 0  1.008165874844992 0.04363709763072746 0  1.009219101290344 0.04528992559955373 0  1.010159268481195 0.04356654987482077 0  1.011212565527739 0.04522197554035441 0  1.012151502886923 0.04346206851419002 0  1.013205834566127 0.04514863495649367 0  1.014144727265113 0.04338792840475101 0  1.015199233498585 0.0450796245081564 0  1.016138152286781 0.04331957004093281 0  1.017192676277628 0.04501219772160574 0  1.018131599625923 0.04325243778638935 0  1.019186123364704 0.04494526036029746 0  1.02009338710499 0.04320529565887994 0  1.021174286723844 0.04488171317527848 0  1.02219720579885 0.04281519413729431 0  1.023185230755496 0.04476145261449932 0  1.024111896278878 0.04305206163220449 0  1.025168453205691 0.04473651134165339 0  1.026063457927354 0.04301017375076036 0  1.027153189464014 0.04468084162576665 0  1.028088126816093 0.04297854179546853 0  1.029150357699375 0.0446217826701563 0  1.030125319890104 0.04291664472622129 0  1.031151679125455 0.04455708972071312 0  1.03206586449634 0.04281412413577398 0  1.033137573740551 0.04448451301041434 0  1.034078900012054 0.042718291552265 0  1.035132987247695 0.04441212738251991 0  1.036107510946692 0.04267828084978963 0  1.037132578690647 0.04434908199129126 0  1.038065600355454 0.04258827243112968 0  1.03912014388323 0.04427771302165579 0  1.040086821601977 0.04252304983760356 0  1.041118158374525 0.0442117940580365 0  1.040175412815242 0.0459708158814888 0  1.042168954322143 0.04590407266676139 0  1.043108203576862 0.04415500335181252 0  1.044161832194435 0.04583895274664283 0  1.045100966334868 0.04409015443627548 0  1.046155045366423 0.04577276387235379 0  1.047093867080386 0.04401313609526231 0  1.048148109162171 0.04569767134379496 0  1.049087134207161 0.0439434164908826 0  1.050141430036243 0.04562900890270977 0  1.051080478113072 0.04387565776648485 0  1.052134805753923 0.04556182152160922 0  1.05307383394003 0.04380862859265638 0  1.054128340990202 0.04549930565491172 0  1.05506726238901 0.04374253268452944 0  1.056121604565246 0.04542899753601604 0  1.057060657324246 0.04367529175630645 0  1.058114970459267 0.04536164062435109 0  1.059057522599613 0.04371241097824905 0  1.060108925697414 0.04531207479058237 0  1.06105157474876 0.0436658141236024 0  1.062102509994808 0.04525159758989298 0  1.063041606562243 0.04349937140644777 0  1.064095357288591 0.04516922503637685 0  1.065034320210643 0.04341338017869605 0  1.066088526796921 0.0450966989479603 0  1.067027563585721 0.04334274155228269 0  1.068081837925174 0.04502840766048258 0  1.06902087163712 0.04327476111012725 0  1.070075177693289 0.04496117018209485 0  1.071014215036686 0.04320770257214127 0  1.072068528177446 0.04489433787793182 0  1.073007775587548 0.04314085768972047 0  1.074062026123038 0.04483165942796506 0  1.075001281940319 0.04307479680646059 0  1.076055309491545 0.0447615870851908 0  1.076994439194069 0.04300759306951239 0  1.078048612719811 0.04469426844924031 0  1.078987642414686 0.04294060218848792 0  1.080041921751509 0.0446273585651942 0  1.080980942148154 0.04287376375034245 0  1.082035249933305 0.04456067222884984 0  1.082974268154238 0.04280698768822755 0  1.084028713551305 0.04449786978599565 0  1.084967606710761 0.04274085205915613 0  1.086021931934787 0.04442792312700133 0  1.086960892470906 0.04267363487041166 0  1.088015234295226 0.04436061252458261 0  1.08895422679818 0.0426067087911973 0  1.090008554129184 0.04429371525599844 0  1.090947553010147 0.04253989284190571 0  1.092002079173847 0.04423275270780233 0  1.091031778876661 0.04598633110196638 0  1.093051218186512 0.04591980339958163 0  1.093995502432331 0.04416738588913935 0  1.095048953305961 0.04585334502906378 0  1.095988704848895 0.04409942279010754 0  1.09704327674758 0.04579014754454595 0  1.097982217266927 0.04403301390697151 0  1.099036581613535 0.04572027928708899 0  1.099975610378001 0.04396575912047401 0  1.101029948224324 0.04565300469452713 0  1.101968964656331 0.04389880129507265 0  1.103023312527064 0.04558608765598049 0  1.103963278539004 0.04386060355647593 0  1.10501683676527 0.04552409308064503 0  1.105957464085583 0.04381839269711611 0  1.107010269057076 0.04545939323534115 0  1.10795001258121 0.04372737422026979 0  1.109003598050405 0.04539170840986682 0  1.109942584247916 0.04363735059574839 0  1.110996823248741 0.04532103618793439 0  1.111935796767467 0.04356605691485069 0  1.112990130806433 0.04525283060438815 0  1.11392910465774 0.04349823487473149 0  1.114983468121432 0.04518567461207063 0  1.115922453752629 0.0434311970198468 0  1.116976930738581 0.04512223839915204 0  1.117915828429805 0.0433649088148924 0  1.118970182530726 0.04505261567459793 0  1.119909142009359 0.04329771496355847 0  1.120963512722687 0.04498553004564218 0  1.12190247566908 0.04323079313534368 0  1.122956848736623 0.04491865121339878 0  1.123898720550818 0.04325045176435103 0  1.124950669010035 0.04486623407611377 0  1.125891370294844 0.04316312022459782 0  1.12694380033046 0.04479336380217913 0  1.127885440138974 0.043118315703295 0  1.128937388073351 0.04473420759617581 0  1.129878309779693 0.04303777856780151 0  1.130930695124013 0.04466675959485684 0  1.131871204633413 0.04295806362791387 0  1.132923790966463 0.04459308943556415 0  1.133864444955007 0.04288875347491146 0  1.134917217641828 0.0445293719990359 0  1.135855603737685 0.04277517217489302 0  1.136910197111348 0.04445535126161519 0  1.137848524179961 0.04269992339686474 0  1.138903674987675 0.04439034058898986 0  1.139842383946748 0.04263164743682069 0  1.14089682516685 0.04431921734275538 0  1.141835741955674 0.04256331356436924 0  1.142890149502944 0.04425239047355551 0  1.143829062347515 0.04249624547624957 0  1.144883462667901 0.04418553109008513 0  1.14582235653601 0.0424293874612238 0  1.146876898622235 0.04412222055617577 0  1.145918821666925 0.04587927934723491 0  1.147928163309702 0.04581214747045323 0  1.148870285338714 0.04405622924479171 0  1.149924222351893 0.04574606625499031 0  1.150863645835544 0.04398893585960795 0  1.151918035609769 0.04567927300774639 0  1.152856974682829 0.04392197797095716 0  1.153911485950002 0.04561297232818944 0  1.154850345102766 0.04385520623533704 0  1.155904897053293 0.04554714316651894 0  1.156843723515481 0.04378854365117136 0  1.157898241625632 0.04547987643564209 0  1.158837173138726 0.04372406361986082 0  1.159891660414281 0.04541488514394992 0  1.160830732565643 0.04365767507034785 0  1.161885573356118 0.04534913721494678 0  1.162825440996464 0.04358725533142083 0  1.163881323140919 0.04528326621803094 0  1.164822126091435 0.04351912896484061 0  1.165878869422033 0.04521688619888459 0  1.166820039032008 0.04345240045837818 0  1.167877173666341 0.04515005633980305 0  1.168818662662377 0.04338557996425031 0  1.169875902484405 0.04508325411880964 0  1.170817482031167 0.04331875812456946 0  1.171874786669727 0.04501646002587098 0  1.172816783250437 0.04326459460462215 0  1.173873739982097 0.04495172718955331 0  1.174815845041949 0.04320313483387293 0  1.175872664799947 0.0448861480833368 0  1.176814342214874 0.0431247641990796 0  1.177871490765604 0.04481760944823195 0  1.178813054645421 0.04305282899701105 0  1.179870336127032 0.04474965013307768 0  1.13597156191982 0.04621685690857649 0  0.9792216025843583 0.04627408926690511 0  1.081032894994703 0.04633029317551053 0  1.030207753178065 0.04630449109793971 0  0.9263928368898953 0.04632546509489158 0  1.124011592860886 0.04661776358547167 0  1.020240891484479 0.04663884146350567 0  0.9692717106328343 0.04660974814745651 0  1.178928757917292 0.04651400215601216 0  1.180927634221708 0.04644696816315769 0  1.181869206491314 0.04468243848563619 0  1.182926514295203 0.04638004688080281 0  1.183868087192988 0.04461553598837117 0  1.184925396719776 0.04631319590857769 0  1.071065248231004 0.04666352267193109 0  0.9144067242089937 0.04672909717344216 0  1.168934284336962 0.04684776117182794 0  1.114044877078016 0.04695185540158095 0  1.010273317931459 0.04697221799437511 0  0.9593005511299093 0.04694152508774458 0  1.061163144141067 0.04699574558895496 0  0.9043934030877712 0.04704117936712952 0  1.158944931611345 0.04717795599638105 0  0.9493274039890527 0.04727487793484732 0  1.104078091242345 0.0472859501476897 0  1.00030579684632 0.04730636748988788 0  1.051129798102877 0.04733017316609139 0  1.148986064089519 0.0475088712642435 0  1.094047896457943 0.04762321691960104 0  1.041229446503489 0.04766373451843318 0  0.990337175244871 0.04763300393212495 0  0.9393514780075882 0.04760786885745564 0  1.183983823184249 0.04807768772884972 0  1.185982706444878 0.04801086175938222 0  1.186924279873852 0.0462463667524348 0  1.187981589809379 0.04794403889615322 0  0.8774853384141622 0.04969768958831569 0  0.8754864623868533 0.0497645737915733 0  1.187040016341969 0.0497085327536972 0  1.189038899770604 0.04964171180861002 0  1.188923163255671 0.04617954440689073 0  1.188097326307472 0.05140620579428362 0  1.190096209747509 0.0513393851902356 0  0.8765438295161252 0.05146221178417113 0  0.8745449496232442 0.0515290983950891 0  1.189154636286983 0.0531038792541023 0  1.191153519729359 0.05303705871993757 0  0.8756023163121816 0.05322673666195162 0  0.8736034353048765 0.05329362396697888 0  1.190211946269664 0.05480155280847572 0  1.192210829712567 0.05473473229006492 0  0.8746608021314511 0.05499126214811854 0  0.8726619209765045 0.05505814954510328 0  1.191272865563896 0.05660719609714291 0  1.193272350558723 0.05655837053443508 0  1.19421041496594 0.05468890588347409 0  1.195270507374291 0.05646981352722939 0  1.196209295272167 0.05462195976609608 0  1.197269269189972 0.05639934933082878 0  1.198208118114879 0.05455332026318353 0  1.199266851527532 0.05633686713172124 0  1.200215251640355 0.05448101926039835 0  1.201296883395204 0.05630705152109002 0  1.202285355006193 0.05436852262243769 0  0.8737192877862525 0.05675578773672246 0  0.8717204065887416 0.05682267516021818 0  0.950224752845108 0.04206714608417916 0  1.103034591737681 0.04220180885755014 0  1.050025937050436 0.04218381314991373 0  1.001059301983996 0.04222091573179913 0  1.155789196840457 0.04209697361329071 0  1.061926637775364 0.04181385312213799 0  1.198382146853827 0.05825886131887735 0  1.11287456587091 0.04180622907440726 0  1.013090943394365 0.04171734261249389 0  0.9072368511364699 0.04176985476089052 0  1.167761314451726 0.04168792733267421 0  0.9600552634549528 0.04154344404313041 0  1.122841237705099 0.0416223481294174 0  0.9721279703674004 0.04138961836487015 0  0.9171990216975436 0.04146307706272043 0  1.189270974361818 0.05658404185037014 0  0.8757181689905185 0.0566889003090195 0  0.8747766546074167 0.05845342592122788 0  0.8767755358135818 0.05838653849234447 0  1.071953803757585 0.04144895795407317 0  1.025030632789059 0.04104949369397498 0  1.083913080687277 0.04104844438622217 0  1.177807684212937 0.04138567616807609 0  1.134709501466821 0.04118546084340038 0  0.9291064724957125 0.04110404733013347 0  0.9859716188941434 0.04081629640701902 0  1.037053413719961 0.04099551813084477 0  1.144767888719588 0.04073741354584948 0  0.8706630397754536 0.05512503697080249 0  0.8697215253856085 0.05688956258721992 0  0.8758340214244857 0.06015106410828828 0  0.8778329026299676 0.0600841766798294 0  0.8964167919686701 0.04733117736133272 0  1.190388738403384 0.05848299105308175 0  1.188331273304328 0.05836602084564194 0  1.189453442083328 0.06016097973157481 0  1.187391058101808 0.06011901152302316 0  1.203387451042923 0.05615871557380051 0  1.204444530294763 0.0542304582385702 0  0.8931750056987086 0.03880092807769937 0  0.8686641585713828 0.05519192439839124 0  0.8677226441810385 0.0569564500151217 0  1.188489815534315 0.06191407668796382 0  1.186453837743463 0.06188375326318837 0  0.876891388239764 0.06184870229646665 0  0.8788902694449374 0.06178181486819312 0  1.205704534303786 0.05613842221788375 0  1.206858330979186 0.05397137838187337 0  0.8666652773665704 0.05525881182644325 0  0.8657237629761023 0.05702333744325309 0  0.8779487550545022 0.06354634048497709 0  0.8799476362595861 0.06347945305676087 0  1.187518282981697 0.06369353378236257 0  1.185507996618711 0.0636507824673752 0  0.8767920894130068 0.0290602944071928 0  0.871850212247506 0.03082348239527907 0  1.208098843860806 0.0560985755429789 0  1.209394840218805 0.05387568448504039 0  1.207982658515706 0.05165166527193567 0  1.210655968049201 0.05151827856716826 0  1.2091572104008 0.04922511942133383 0  0.864666396161571 0.05532569925461107 0  0.863724881771071 0.05709022487144021 0  0.879006121869094 0.06524397867357863 0  0.8810050030741629 0.06517709124537786 0  1.210809557518853 0.05615644720160288 0  1.186537586229706 0.06536569981586768 0  1.184559191333001 0.06540031107208553 0  0.8626675149565237 0.05539258668280808 0  0.8617260005660167 0.05715711229964139 0  0.8627833673805689 0.05885475048827061 0  0.8607844861755034 0.0589216379164764 0  0.8618418529900608 0.06061927610509843 0  0.8598429717849962 0.06068616353331363 0  0.8609003385995555 0.06238380172193695 0  0.8589014573944926 0.06245068915014641 0  0.8599588242090457 0.06414832733877138 0  0.8579599430039816 0.06421521476697382 0  0.8569025761894308 0.06251757657835177 0  0.8559610617989207 0.06428210219518128 0  0.854903694984369 0.0625844640065592 0  0.8539621805938618 0.06434898962338995 0  0.8570184286134748 0.06597974038380588 0  1.211935718919538 0.04906237339119932 0  1.206674704598147 0.05807855058364753 0  0.8800634886836509 0.06694161686220221 0  0.8820623698887144 0.06687472943400366 0  0.8529048137793065 0.06265135143476395 0  0.8519632993887982 0.06441587705159521 0  1.210427987815807 0.0467078504990805 0  1.185615296012295 0.06709549040743926 0  1.183619626442893 0.06715652700322143 0  1.187584045744248 0.06715880548661421 0  0.8509059325742434 0.06271823886297194 0  0.8499644181837365 0.0644827644798035 0  1.21327460416304 0.0465199402366573 0  0.8811208554981969 0.06863925505083542 0  0.8831197367032584 0.06857236762263873 0  1.184677271188125 0.06885282089297745 0  1.182678979184266 0.06891844747109366 0  0.8489070513691811 0.06278512629118113 0  0.8479655369786736 0.06454965190801516 0  0.8490229037932308 0.06624729009664244 0  0.8470240225881687 0.06631417752485175 0  0.8498485657596908 0.06102060067434713 0  0.8480813894027233 0.06801181571347938 0  0.8460825081976596 0.06807870314168979 0  0.8450251413831085 0.06638106495306084 0  0.8440836269925973 0.06814559056989818 0  0.8430262601780503 0.06644795238127023 0  0.842084745787536 0.06821247799811542 0  1.181622048610565 0.06721983199564227 0  1.180680411916184 0.06898448307515595 0  1.179623154628326 0.06728667867275678 0  1.178681579412414 0.06905117713100391 0  1.177624421691819 0.06735778333368841 0  1.176682729543653 0.06911869059277259 0  1.175625568928893 0.06742543336311009 0  1.174683856809658 0.06918576485026021 0  1.173626691060937 0.06749239484069591 0  1.172684976080622 0.0692526511484127 0  1.171627714535762 0.06755642226164357 0  1.170686077576198 0.06931901711057863 0  1.169628906870858 0.06762550926184308 0  1.16868720425259 0.06938613961327361 0  1.167630036420955 0.06769271827485664 0  1.166688324661631 0.06945307520817443 0  1.16563115578543 0.06775962271847748 0  1.164689442328509 0.06951992889023133 0  1.163632271672165 0.06782642316876318 0  1.162690558958731 0.06958675158793542 0  1.161633295508095 0.06789047000116505 0  1.160691660074376 0.06965311018539973 0  1.159634485997945 0.06795950215996491 0  1.158692786379915 0.06972022232041944 0  1.157635615178692 0.06802670030521056 0  1.15669390666558 0.06978715437596655 0  1.155636734461049 0.06809360234764901 0  1.1546950242982 0.06985400706794002 0  1.153637850328406 0.06816040223310087 0  1.152696140919483 0.06992082950648301 0  1.151638966781133 0.06822721962940466 0  1.150697257469776 0.06998764982125602 0  1.149640081996509 0.06829400001107991 0  1.148698373802008 0.07005446361296849 0  1.147641198292396 0.06836081271561459 0  1.146699490277978 0.07012128170464685 0  1.14564231346925 0.0684275919449244 0  1.144700606591402 0.07018809493378075 0  1.143643341047875 0.06849175074209443 0  1.142701708278027 0.07025447061380335 0  1.141644528342858 0.06856068732933697 0  1.140702834146259 0.07032156966731168 0  1.139645525714446 0.06862394250648345 0  1.138703932390856 0.07038784238139459 0  1.137646619355095 0.06869007749733026 0  1.136705042076345 0.07045445734120594 0  1.135647780568296 0.06875823386811621 0  1.134706164930745 0.07052146623861462 0  1.133648874338702 0.06882437274061735 0  1.132707278739487 0.07058820454256656 0  1.131650017611933 0.06889199245154243 0  1.130708399291097 0.07065514455402727 0  1.12965113866502 0.06895894746384433 0  1.12870951726317 0.07072200740029752 0  1.127652256207168 0.06902579744924689 0  1.126710634220165 0.07078883988121272 0  1.125653324303163 0.06909116829161106 0  1.124711742766952 0.07085542077740187 0  1.123653343216108 0.06915838523917535 0  1.122712627504946 0.07092215380618619 0  1.121654333222566 0.06922538504174902 0  1.120714124485239 0.07098884644156449 0  1.119656261598111 0.06929218664551225 0  1.118715853696188 0.07105552714277386 0  1.117658319608617 0.06935917969916797 0  1.116718077581285 0.07112215344320159 0  1.115661520317858 0.06942551445174439 0  1.114720759061665 0.07118868053545993 0  1.113664236090057 0.06949266892191629 0  1.112723853638926 0.07125531733836551 0  1.111667406059748 0.06955966545282923 0  1.11075245159803 0.07130624488026235 0  1.109675307572291 0.06962381518158474 0  1.108730798470128 0.07138860070484583 0  1.107675585922016 0.06969284375548826 0  1.106717635028201 0.07144597569926264 0  1.105676219235368 0.06975845091854375 0  1.104735540239603 0.07152008475016738 0  1.103683103509144 0.06982686407802871 0  1.102742582311524 0.07158825745864889 0  1.101687445808603 0.0698931858794153 0  1.100773256934272 0.07159492047478298 0  1.099696360105737 0.06995036755006176 0  1.098734688889285 0.07162422189272726 0  1.097694571242235 0.07000931977327995 0  1.096705373407137 0.07174353118755007 0  1.095692610294807 0.07008356145500025 0  1.094751690650384 0.07184599019208945 0  1.093705612767333 0.07015995917405186 0  1.092764895528342 0.07192024211119991 0  1.091711009453389 0.07022716021094211 0  1.090603498569431 0.07237449863204932 0  1.089688371069883 0.07035724324277484 0  1.088530961848297 0.07214541080299369 0  1.087675931218086 0.07038525213806347 0  1.086664735721113 0.07210440778241346 0  1.085699740451703 0.07043140563038892 0  1.084787190119115 0.07218869808299778 0  1.083732039262258 0.07049453313438453 0  1.082791469996344 0.07222603417255082 0  1.081737731075388 0.07055182820884552 0  1.08079652527375 0.07228169970788934 0  1.079742393154009 0.07061613308392393 0  1.078801014068363 0.072325375793277 0  1.077747492849888 0.07067861406755616 0  1.076806194757058 0.07238752849689059 0  1.075752925287906 0.07074743324850849 0  1.074810858335803 0.07243274549415833 0  1.07375821566657 0.07081091982767068 0  1.072816131644865 0.07249532413099644 0  1.071763597486771 0.07087641032567185 0  1.070820817622074 0.07253970094186526 0  1.069768785836569 0.07093536880430268 0  1.068826100150858 0.07260138706939218 0  1.067774162783442 0.07099995303195372 0  1.066837973554287 0.07285981849187192 0  1.065780818593714 0.07110209133254804 0  1.064844713935726 0.07296437815661494 0  1.063786707021175 0.07118101429464418 0  1.062849462719156 0.07300908207674411 0  1.061792141379065 0.07124609168107918 0  1.060854823833292 0.07307184466431316 0  1.05979747632664 0.07130781530675624 0  1.058866888527171 0.07311531695587888 0  1.057804036459905 0.07136981909234721 0  1.056886828735402 0.07319953345049779 0  1.055812265412105 0.07144271361507769 0  1.054868563903115 0.07318915540876594 0  1.05381426749872 0.0714976027932518 0  1.052874195818593 0.07325625647003832 0  1.051819216183626 0.07156240407326431 0  1.050879636264025 0.07332270772412708 0  1.049824487576873 0.07162449293732266 0  1.048885099347979 0.07338859908723522 0  1.047829945406283 0.07169029116150508 0  1.046890597431099 0.07345501552084377 0  1.045835596090438 0.07176105085609939 0  1.044905998463997 0.07347972734186373 0  1.043842799191554 0.07182142508408462 0  1.042872552003964 0.07351655335492252 0  1.041842092890233 0.07188209223606265 0  1.04086067105062 0.07361989513020492 0  1.039845351522274 0.07194831237725194 0  1.038903799473227 0.07371444335939953 0  1.03786040981942 0.07201702391551627 0  1.03691717013718 0.07378612275014407 0  1.035867121815518 0.07209047696060474 0  1.034929974787391 0.07376341301804619 0  1.033870382780221 0.07214595200573876 0  1.032888560981593 0.07412271283416783 0  1.031867691723159 0.07225954794605401 0  1.030934709044487 0.07398958851468361 0  1.029878599734526 0.072300759695499 0  1.028940006068062 0.07405662627702424 0  1.027884962636011 0.07236326777756388 0  1.026945609976115 0.07412268773491053 0  1.025890677038515 0.07242905336730319 0  1.024950467179538 0.07416860064577295 0  1.023896034035753 0.07249224537589824 0  1.022955702492468 0.07422755479790177 0  1.021900547153455 0.07256044967026778 0  1.020960753392922 0.07428658047610957 0  1.019900747945682 0.07262161726993151 0  1.018964573328589 0.07433010053459865 0  1.017909089809752 0.07268584946315843 0  1.016971797063316 0.07442346623275137 0  1.015917243225821 0.07275538656474709 0  1.014976087807215 0.07445353161677785 0  1.013922952721911 0.0728164530940601 0  1.012980660633926 0.07449144756056837 0  1.011924538586161 0.07287501039162042 0  1.010985315620283 0.07455199886410845 0  1.009927406910112 0.07294044256295337 0  1.008989446011788 0.07459514698827227 0  1.007935959832296 0.07300541040234884 0  1.006995177310009 0.07465763929395186 0  1.005943745730546 0.07307000433664369 0  1.005004531459497 0.0748276287383848 0  1.003950211130248 0.07315356717436633 0  1.003010773890062 0.0749143610065206 0  1.001952426743265 0.07322392934919915 0  1.001016301076982 0.07498929662311347 0  0.9999556413593114 0.073293647701325 0  0.9990209234652606 0.07505633147129055 0  0.9979668624919567 0.07336286152060506 0  0.9970279166246421 0.07514649336656518 0  0.9959723435188819 0.07343338388656909 0  0.9950335729055881 0.07521774915502066 0  0.9939781185824761 0.07350165287195012 0  0.9930380458861319 0.07525551306898251 0  0.9919833834811027 0.07356378689665408 0  0.9910432289157571 0.07531663928960873 0  0.9899883286892845 0.0736286184321048 0  0.9890478237784098 0.07536289612720927 0  0.9879934624711557 0.07369159666443892 0  0.9870220610236395 0.07540907691120331 0  0.9859934146893536 0.07374988073662678 0  1.211710527846865 0.04407775606260723 0  0.9850221635691973 0.07549717123241963 0  0.983996945912566 0.07381874079208794 0  0.9830572084417986 0.07558430567163338 0  0.982009481819817 0.07389645877772411 0  0.9810686432628806 0.07565626048925997 0  0.9800145261427864 0.07396298487987549 0  0.8471398750122134 0.06977634133031692 0  0.9790748803556252 0.07572382059731597 0  0.9780199357660709 0.07402982940436721 0  0.9770802972433075 0.07579070248700648 0  0.9760251503622929 0.0740965341422548 0  0.8410273789729863 0.06651483980947556 0  0.8400858645824743 0.06827936542632392 0  0.9750855249033356 0.07585745080018677 0  0.9740303658039871 0.07416325018141608 0  0.9749699877085622 0.0724023523939421 0  0.9729752025652882 0.07246904825915955 0  0.9720355643808847 0.07422994655511359 0  0.9709803931338563 0.07253572677476625 0  0.9700416939651322 0.07418152786550228 0  0.9689857141739162 0.07258321354895783 0  0.9680313190708931 0.07439849817762353 0  0.9669882854771533 0.0726717334032578 0  0.9659703292221744 0.07439481310793601 0  0.9649819427190508 0.07273031681452281 0  0.964039544722421 0.07446650445715944 0  0.9629957945725428 0.07279647279948348 0  0.9620567521939792 0.07453395020089618 0  0.9610043220770617 0.0728631830034748 0  0.9600636871269608 0.07458003529135837 0  0.9590102245284251 0.07292642131812117 0  0.9580691375244755 0.07464273235450899 0  0.9570154147957077 0.07299184822717432 0  0.9560734883885331 0.07468753858816826 0  0.9550202663345939 0.07305466137343423 0  0.9540796161881104 0.07478960499160864 0  0.9530253311804509 0.07312657987707401 0  0.9520830028080153 0.07481280190373314 0  0.9510299408819294 0.07318687042829211 0  0.9500900522709335 0.07494706817424693 0  0.9490350495897641 0.07326373206886881 0  0.9480952256148308 0.07502674605859239 0  0.9470398938941089 0.07333425318086165 0  0.9461000062144681 0.07509626578397319 0  0.9450446136006891 0.07340244187564754 0  0.9441048966555218 0.07517119990978839 0  0.9430495364677676 0.07347066109949152 0  0.9421095490905298 0.0752395509413997 0  0.9410538158183923 0.07353767431652869 0  0.9401137579234622 0.07529923137497352 0  0.9390581550277989 0.0736024337227601 0  0.9381180975825896 0.07536446991785171 0  0.937062498894174 0.07366915695067315 0  0.9361223951472779 0.07543088605928606 0  0.9350667600769157 0.07373577344944589 0  0.9341266076909666 0.07549757851354652 0  0.933070921162616 0.07380240985371607 0  0.9321307423523302 0.07556424955421229 0  0.9310749796814524 0.07386904622197081 0  0.9301347247483744 0.07563099937242942 0  0.9290789254350968 0.07393569592021002 0  0.9320157757191386 0.07210793993661224 0  0.9281386155908515 0.07569775000101435 0  0.9270827943415452 0.07400236907771283 0  0.9261423885251012 0.07576454135100066 0  0.9250865438429594 0.07406895320206408 0  0.9241460289295862 0.07583130300262833 0  0.9230900909392658 0.07413553724696229 0  0.9221495567882313 0.07589799982496141 0  0.9210934147781686 0.07420226562308839 0  0.922034063742837 0.07243964825450973 0  0.9200371985038505 0.0725063438498057 0  0.9190965365704058 0.07426905298218234 0  0.9180402397113623 0.07257300804482154 0  0.9170995035592788 0.07433729482983611 0  0.9160434227062808 0.07264006800377101 0  0.9151023369012465 0.07440441727026799 0  0.9140467461605892 0.07270591397470927 0  0.9131049644351059 0.07447051868053531 0  0.9120488997564525 0.07277198097715788 0  0.9111072107418048 0.07453759419005479 0  0.9100501758223191 0.07283910799729067 0  0.9091087736745904 0.07460358574570682 0  0.9080515754557459 0.07290565823032559 0  0.9071100628539635 0.0746701891199593 0  0.8791219742931344 0.06870614247902916 0  0.8801793411076781 0.07040378066766537 0  0.8781804599026168 0.07047066809585985 0  0.9829487963147738 0.07213156758673273 0  1.214678632902963 0.04386106449824902 0  1.216355805486694 0.04645695369012966 0  1.179738889103368 0.07074885144196968 0  0.8636090293470371 0.0536280610659718 0  0.8390284977679248 0.06658172723768116 0  0.8380869833774149 0.06834625285451391 0  0.8391443501919644 0.07004389104316457 0  0.8371454689869031 0.07011077847134876 0  0.8360881021723545 0.06841314028271547 0  0.835146587781839 0.07017766589954688 0  0.8340892209672939 0.06848002771092095 0  0.8331477065767772 0.07024455332774635 0  0.9209783405694285 0.07074390145731704 0  1.171743374388809 0.07101629646518343 0  1.163747834147231 0.07128338429855453 0  0.8840612510937769 0.06680784200580844 0  1.151754533488802 0.071684307379318 0  0.9969111673949801 0.07166595079646397 0  1.00688272897391 0.07132353757690865 0  1.016855157159678 0.07099556347585854 0  1.026830000283614 0.07066392231454058 0  0.9659328785487884 0.0709743783614982 0  0.955960736039158 0.07130646044891867 0  0.9459848119672293 0.07164108543022263 0  0.9109929423679857 0.07107296248201297 0  0.8320903397622326 0.06854691513912028 0  0.8311488253717185 0.07031144075594881 0  0.9739148533772044 0.07070818249284677 0  0.836203954596387 0.07187530408818521 0  1.034811091331067 0.070393869739434 0  1.212977981233435 0.04137724722525424 0  1.143759008376668 0.07195184849407156 0  0.8792378267171592 0.07216830628449163 0  0.8772389455120966 0.0722351937126867 0  1.217864898715938 0.04360109607983194 0  1.219700130170019 0.04645404265226269 0  1.133764583793047 0.07228573064529975 0  0.8300914585571723 0.06861380256732247 0  0.8291499441666571 0.07037832818414902 0  0.8725765585289942 0.02235279043414094 0  1.123798851284126 0.07273238529847552 0  1.115777110165498 0.07288501475067627 0  0.8280925773520925 0.06868068999551667 0  0.8271510629615931 0.07044521561234661 0  0.8282084297761372 0.0721428538009779 0  0.8262095485710744 0.07220974122917077 0  0.8251521817565314 0.07051210304054503 0  0.8242106673660099 0.0722766286573666 0  0.8231533005514687 0.07057899046874183 0  0.8222117861609481 0.07234351608557049 0  0.8211544193464083 0.07064587789695011 0  0.8202129049559203 0.07241040351414534 0  0.819155538141352 0.07071276532521781 0  0.8182140237509068 0.07247729094275965 0  1.086660927138853 0.06866809774648731 0  1.0766900843964 0.06898352775582932 0  1.066717771881065 0.06931814442740947 0  1.056746971722523 0.069661216467864 0  1.046769169361287 0.06999498287047655 0  0.8616101481419763 0.05369494849417661 0  0.8625516625324857 0.05193042287734521 0  0.8605527813274241 0.05199731030555305 0  0.861494295717929 0.05023278468871407 0  0.8594954145128706 0.05029967211692585 0  0.8604369289033733 0.04853514650008865 0  1.105798023599863 0.07313327454563176 0  0.8171566569362969 0.07077965275348885 0  0.8162151425458253 0.07254417837066784 0  0.8151577757312365 0.07084654018164632 0  0.8142162613407198 0.07261106579847076 0  0.8131588945261641 0.07091342760974387 0  0.8122173801356466 0.07267795322658299 0  0.9060528278654736 0.07297250862954544 0  0.9051111929107856 0.07473706376413858 0  1.095779256853988 0.07334976554341868 0  0.8111600133211049 0.07098031503793226 0  0.8102184989305866 0.07274484065501688 0  0.8091611321160401 0.07104720246616959 0  0.8082196177255243 0.07281172808325789 0  0.8071622509109693 0.07111408989438009 0  0.8062207365204546 0.07287861551120411 0  0.8051633697059072 0.07118097732252619 0  0.8042218553153937 0.07294550293935115 0  0.8031644885008358 0.07124786475070731 0  0.8022229741103515 0.0730123903677643 0  0.8011656072957676 0.07131475217894326 0  0.8002240929053224 0.0730792777962066 0  0.7991667260907238 0.0713816396071963 0  0.7982252117002498 0.07314616522423291 0  0.7971678448856695 0.07144852703537115 0  0.796226330495168 0.07321305265237177 0  0.7951689636806059 0.07151541446355705 0  0.7942274492901215 0.0732799400807219 0  0.7931700824755454 0.07158230189178177 0  0.7922285680850526 0.07334682750878174 0  0.791171201270481 0.07164918931996608 0  0.7902296868799811 0.07341371493679044 0  0.7891727417527912 0.0717286785626844 0  0.7882308759561687 0.07348270266750384 0  0.7871736779737595 0.07179010990310453 0  0.7862319760356443 0.07354903079817117 0  0.7851750209977368 0.07186369824974279 0  0.7842331290828244 0.07361694182973849 0  0.7831761785293079 0.07193174329370602 0  0.7822342600425746 0.07368419279446346 0  0.7811770332983687 0.07199074050429047 0  0.7802353368606744 0.0737498257758139 0  0.7791783669924939 0.07206405003528349 0  0.7782364844760172 0.07381757448007278 0  0.7771791224648492 0.07212007983739199 0  0.7762375475205846 0.07388279584994104 0  0.775180171414296 0.07218487998485831 0  0.7742386453828664 0.07394905772156531 0  0.7731812750795451 0.07225131527350842 0  0.7722397581674172 0.07401576553375014 0  0.7711823903511359 0.07231809740912057 0  0.7702408753734026 0.07408260547719538 0  0.769183508294021 0.07238495937443981 0  0.7682419937615067 0.07414948074746265 0  0.7671846268791459 0.07245184053251104 0  0.7662431124536704 0.07421636510432393 0  0.7651857456219857 0.07251872640380402 0  0.7642442312227972 0.07428325176115802 0  0.763186864403938 0.07258561344396716 0  0.7622453500112691 0.07435013899613571 0  0.761187983195634 0.07265250077530649 0  0.7621294975859555 0.07088797515309261 0  0.7601306163800822 0.07095486255697737 0  0.7591891019896873 0.07271938817705634 0  0.7581317351749823 0.0710217499840223 0  0.7571902207844696 0.07278627560066232 0  0.7561328539698766 0.07108863741095056 0  0.7570743683603866 0.0693241117942536 0  0.7550754871553159 0.06939099922228123 0  0.7541339727648101 0.07115552483907776 0  0.7530766059502521 0.0694578866504493 0  0.7521350915597518 0.07122241226728057 0  0.7510777247451925 0.06952477407865312 0  0.7520192391357 0.06776024846180441 0  0.7500203579306379 0.0678271358900201 0  0.7490788435401308 0.06959166150686318 0  0.7480214767255772 0.06789402331822984 0  0.7489629911160806 0.06612949770139406 0  0.7469641099110198 0.06619638512960757 0  0.7460225955205156 0.06796091074644212 0  0.744965228705958 0.06626327255782236 0  0.7440237143154589 0.0680277981746539 0  0.7429663475009001 0.06633015998602966 0  0.7439078618913988 0.06456563436919516 0  0.7419089806863366 0.0646325217974084 0  0.7409674662958325 0.06639704741423616 0  0.7399100994812795 0.06469940922561879 0  0.7408516138717715 0.06293488360877723 0  0.7388527326667147 0.06300177103699822 0  0.7379112182761765 0.06476629665385297 0  0.7368538514616234 0.06306865846523535 0  0.737795365852158 0.06130413284838154 0  0.7357968223466994 0.06138111217901091 0  0.7348550265397932 0.06313722787718903 0  0.7337976691058359 0.0614398700191673 0  0.7347553694042356 0.05970663486248647 0  0.7327432901400225 0.05975611924193425 0  0.7317992420996966 0.06150776380636275 0  0.7307419509849629 0.05981029334424798 0  0.7316973697853215 0.05806794125464352 0  0.7296845540227264 0.05811547467574739 0  0.7287426677135943 0.05987555975925055 0  0.7276852338879847 0.05817765140175888 0  0.7286184626379901 0.05641823447690116 0  0.72662640180989 0.05648003451661774 0  0.727561348025441 0.05471945130500501 0  0.7255690338378289 0.05478231630783132 0  0.7246288593831831 0.05654565542357452 0  0.7235718125079008 0.05484660132494895 0  0.7226300315013316 0.05661230686678548 0  0.7215730158164796 0.05491290842733981 0  0.7206311732690784 0.05667905824319229 0  0.7195737484657073 0.05497955000558123 0  0.7186322291464542 0.05674581063511758 0  0.7175747924167687 0.0550463739527484 0  0.7166332522843657 0.05681262618372949 0  0.7155758958161195 0.05511319316622346 0  0.7146344011136032 0.0568794727940448 0  0.7135771603768821 0.05518020445109073 0  0.7126358968881756 0.05694624499335336 0  0.7115789698210997 0.05524663559939218 0  0.7106378671930647 0.05701403945647674 0  0.7095813663917077 0.05531152529886743 0  0.7086399814751515 0.05708017352883409 0  0.7075836044032564 0.05538218336223637 0  0.7066429213840555 0.057148551806723 0  0.7055863524844337 0.05545075097973644 0  0.7046460553064532 0.05721577444311832 0  0.7035898172334358 0.05551817074203419 0  0.7026490556450846 0.05728256793773295 0  0.7015934112052404 0.05558533025043439 0  0.700652578812917 0.05734916080210193 0  0.6995972554967992 0.05565236437461675 0  0.6986573902124358 0.05741355539829125 0  0.6976016533762133 0.05571888001633814 0  0.6966618564688138 0.05748032678557971 0  0.6956064071087843 0.05578566131590693 0  0.6965460089792264 0.05402436570096179 0  0.6945510264020088 0.05409117085877542 0  0.6936113534388147 0.0558522130802396 0  0.6925561939752735 0.05415803293339251 0  0.6916166215719635 0.05591881849977545 0  0.6905615795093845 0.05422482458228806 0  0.6896215222857836 0.05596781377950883 0  0.6885670882735782 0.05428864502213783 0  0.6876270862292437 0.0560310109167232 0  0.6865728146196135 0.05435440508033436 0  0.6856316979896888 0.05606030182758857 0  0.6845785370467812 0.0544146644160438 0  0.6836396396276648 0.05618537445160392 0  0.6825849405035408 0.0544900920188725 0  0.6816439080984318 0.05619312365753984 0  0.6805909398364013 0.0545486600975849 0  0.6796496284900774 0.05624072257677879 0  0.6785972153345317 0.05461087711802124 0  0.6776586936195501 0.05638527500695863 0  0.6766041822375952 0.05468985398448446 0  0.6756629381472989 0.05637991427545586 0  0.6746105683794751 0.0547466184074372 0  0.6736690031517872 0.05642590953233512 0  0.6726172099984178 0.05480824706144201 0  0.6716789280318173 0.05658517475183633 0  0.6706244529626839 0.05488917750097464 0  0.6696830399991295 0.05656650728210717 0  0.668630996537854 0.05494406866110654 0  0.6676923773214478 0.0567016988330922 0  0.6666385310094405 0.05502062951328215 0  0.6656999741025518 0.05678140215130259 0  0.6646459405829188 0.0550911222324145 0  0.6637039924721806 0.05675155128816142 0  0.6626527106233691 0.05514238009913357 0  0.6615699960506778 0.05712989630050129 0  0.6606363944244988 0.05525846269753257 0  0.65972200399813 0.05698497914040593 0  0.658663742292072 0.05529824937127722 0  0.6577287465524941 0.05705255048481054 0  0.6566744200280554 0.05536060813225051 0  0.6557366627554417 0.05711860812794091 0  0.6546827970298982 0.05542700434284792 0  0.6537444266219128 0.05718510280313828 0  0.6526905706548223 0.05549334549242288 0  0.6517591668453186 0.0572472653345722 0  0.6506994068922944 0.05555964408979266 0  0.6497601624606979 0.05731588168645094 0  0.6487061913172263 0.05562720768958105 0  0.6477607039822105 0.05738094038691464 0  0.6467130593947097 0.05569326395534445 0  0.6457739466213908 0.05745087100063457 0  0.6447213254602447 0.05575941201313883 0  0.6456544920780443 0.05400496552805122 0  0.643666891954817 0.05406802888613554 0  0.6427291344058752 0.05582600002689368 0  0.6416754846117403 0.05413572107871888 0  0.6407371849574997 0.05589275393514734 0  0.6396835843996442 0.05420252779770566 0  0.6387452074228199 0.05595910483035276 0  0.6376916443988083 0.05427002024262226 0  0.6367544589807923 0.05602722283990225 0  0.6356996867273039 0.05433542955779407 0  0.6347612641040749 0.0560922415978988 0  0.6337077426234932 0.05440333654031093 0  0.6327691233134304 0.05615944072487415 0  0.6317157067391408 0.05446703769664145 0  0.6307749157554223 0.05622725795194562 0  0.6297192636576041 0.05453074161797195 0  0.6287776731561948 0.05629455921950215 0  0.6277220297668711 0.05459679029414966 0  0.6267793172675206 0.05636056584036671 0  0.6257231183343608 0.05466231954910365 0  0.6247804562218743 0.05642623456821976 0  0.6237242011072297 0.05472790508236938 0  0.6227815330629579 0.05649181975692874 0  0.6217252725663731 0.05479349317887029 0  0.6208202174162805 0.05648700900269338 0  0.619731104182323 0.05480128048782686 0  0.6556169243014502 0.05366767924121865 0  0.7065280781813683 0.05367962297704823 0  0.6655840330224608 0.05333247814198623 0  0.7165172001323145 0.05334508228940337 0  0.675549811933011 0.05299701712326206 0  0.6206698039281278 0.05308553402405317 0  0.6186710115486524 0.05314951379075348 0  0.7265105595208456 0.05301778348269014 0  0.6326479987205385 0.05271334437168559 0  0.685518122332315 0.05266249484612279 0  0.6177268583844665 0.05486709239128255 0  0.6166712222814752 0.05321486919887171 0  0.6426029272625253 0.05237308386446532 0  0.6157284143961838 0.05497874277134297 0  0.6146722338346164 0.05328809362681115 0  0.69549058247007 0.05233012990168719 0  0.6196128963657566 0.05139506574156437 0  0.6137295594194531 0.05505327870249883 0  0.6126733103598135 0.05335644381651278 0  0.6117306467733276 0.05512081651913217 0  0.6106743881021192 0.05342281528071004 0  0.609728681539828 0.05509410732457076 0  0.6086749572827201 0.05347314912211078 0  0.6096180437437377 0.05172213199745727 0  0.6076191054315347 0.05178732442420112 0  0.6085618599098723 0.05002619421931669 0  0.6065629257354194 0.05009147956123501 0  0.6077309724818355 0.05519685121145362 0  0.6075056029566195 0.04832798132647519 0  0.6055066792119209 0.04839358548497699 0  0.6064493462774241 0.04662977588734146 0  0.6044504215962019 0.0466953511154539 0  0.6053930858307993 0.04493145462960092 0  0.6033941615038745 0.04499704072728469 0  0.6024514977753705 0.04676095274794857 0  0.601395237241712 0.045062628812137 0  0.6004495962055547 0.04682839288326612 0  0.6043368253638428 0.04323313274259648 0  0.6108577762708149 0.05664365422915758 0  0.6338267146349635 0.05785767184923291 0  0.6866033440799353 0.05761054624521487 0  0.6745296417066053 0.05790166758259725 0  0.6238372339838754 0.05817289784084438 0  0.5993805728968004 0.04510178695034635 0  0.5984076627558049 0.04693221239686641 0  0.6645887692077886 0.05860969372120712 0  0.7136927812787861 0.05864388119693655 0  0.6527972357106471 0.05888712083286712 0  0.703705181149933 0.05898231885074989 0  0.5972722309998288 0.04511661380980585 0  0.5962808013211873 0.04721048532863287 0  0.5950398091129024 0.04514122131610747 0  0.5940079500991735 0.04746778993203336 0  0.5926521909013805 0.04530757040901243 0  0.5914910447495416 0.04754374344917747 0  0.590014139894938 0.04514262170469531 0  0.5887239958213921 0.04746967609943928 0  0.5938519027178563 0.04298505322265347 0  0.5902872722909894 0.04993900265308118 0  0.5874244461061577 0.05005502103942486 0  0.5890432962025982 0.05242846297788688 0  0.5857957961800482 0.04748467400158565 0  0.6063357497031034 0.0431675470245052 0  0.6052794891033494 0.0414692210599118 0  0.6072784134606726 0.04140363589642607 0  0.6062221528434739 0.03970530939619222 0  0.6082210771992204 0.03963972418434326 0  0.6071648165771744 0.0379413975352545 0  0.6091637409335284 0.03787581234205956 0  0.6081074803108419 0.03617748567327483 0  0.6101064046671251 0.03611190047790187 0  0.6090501440442558 0.03441357380346716 0  0.6110490684005616 0.03434798860879491 0  0.5843958998279977 0.05027832199921561 0  0.6099928640273258 0.03265137632677993 0  0.6119917977585771 0.03258607686429589 0  0.6079938927963038 0.03271553286050399 0  0.5826387892661563 0.04749121954002482 0  0.581111940174784 0.05057624436423357 0  0.6089426629918308 0.0309531845479812 0  0.6069386436671274 0.03101727628991834 0  0.6078875246327912 0.02925317764621389 0  0.6058813621755581 0.02931859377749446 0  0.579229301696405 0.04754204787036123 0  0.5775800702048184 0.05087583601464211 0  0.7701250224053071 0.07062042541335067 0  0.6068311040574772 0.02755105816677962 0  0.6048268394599799 0.02761931750612458 0  0.5756158188137412 0.04749326615578592 0  0.5737888266359519 0.05114789205527699 0  0.6130480036943085 0.03428273676852954 0  0.6139908589838836 0.03252466320218786 0  0.6150467617227224 0.03421208218465092 0  0.6159897784303734 0.03245892836470335 0  0.6170456575394103 0.03414562715126922 0  0.6179885074785108 0.03238739051165501 0  0.6190447355500519 0.03408472507737211 0  0.6199874248925099 0.03232159372734084 0  0.6189311685377831 0.03062339713859471 0  0.6209300924484001 0.03055779836004456 0  0.6219863529970217 0.03225612277151353 0  0.6229290173551256 0.03049222994115991 0  0.6239850730295619 0.03218431013846654 0  0.6249279422672436 0.03042666168663553 0  0.6259839634245423 0.03211768986071553 0  0.6269268610559628 0.03036090680143377 0  0.6279828754833262 0.0320517298585842 0  0.6289257819803891 0.03029521700888613 0  0.6299817972180645 0.03198606476298209 0  0.6309247053277873 0.03022960106437236 0  0.6319807152597914 0.0319202871107426 0  0.6329236280091498 0.03016396482026687 0  0.6339797748235648 0.03185882280793466 0  0.6349225746208763 0.03009905793262584 0  0.6359785860298347 0.03178978899398258 0  0.6369214833737178 0.03003299717105936 0  0.6379774832175328 0.03172337574667807 0  0.6389204006013449 0.02996719470642523 0  0.6399764018576248 0.03165761633153248 0  0.6409193223624758 0.02990153041517267 0  0.6419753191188806 0.03159181489182956 0  0.6429182612119615 0.02983638694774261 0  0.6439742447082085 0.03152626727748323 0  0.6449171718539014 0.02977038376267292 0  0.6459731612743443 0.03146044465168503 0  0.6469160921717593 0.02970467548291834 0  0.6479722335767865 0.03139936860168536 0  0.6489150405126795 0.02963982129813385 0  0.649971033815623 0.0313300005191374 0  0.6509139477258141 0.02957371360897629 0  0.6519699289183468 0.03126352372539472 0  0.6529128643493273 0.02950789273200019 0  0.6539688471102569 0.03119775065044871 0  0.6549117859350314 0.02944222309409704 0  0.6559677642671259 0.03113194602924135 0  0.6569107086296639 0.02937658725441961 0  0.6579666871465791 0.0310663158226016 0  0.6589096319973882 0.02931097192938299 0  0.6599656053815821 0.03100054406097477 0  0.6609085804187089 0.02924612019509839 0  0.6619646932913272 0.03093994369483356 0  0.6629075103997608 0.02918070643304036 0  0.6639634824259267 0.03087023717422896 0  0.6649069707510362 0.02911385526532935 0  0.665962457466688 0.03080369415052138 0  0.6669059079681215 0.0290480992293765 0  0.6679611276921241 0.03073769096827105 0  0.6689036938917556 0.02898244659383212 0  0.6699590296808877 0.03067188606150903 0  0.670901076531633 0.02891708816941978 0  0.6719564290200375 0.03061119018688416 0  0.6728978027480302 0.02885272604830919 0  0.6739524387092135 0.03054119134592933 0  0.6748937554503441 0.02878705593316632 0  0.6759479489040314 0.03047479134223077 0  0.6768888767552054 0.02871914361552934 0  0.6779428567825013 0.03040852003707563 0  0.6788835457296456 0.02865333033476319 0  0.6799372919233955 0.03034274369797798 0  0.6808778467139498 0.02859036432626843 0  0.6819315711627092 0.03028251388571871 0  0.6828717363112238 0.02852635052941141 0  0.6839250207992392 0.03021301471475914 0  0.6848652012468144 0.02846061769582552 0  0.6859183084692175 0.03014675151219394 0  0.686858386326846 0.02839510315803536 0  0.6879113635055742 0.03008107631600651 0  0.6888515083890941 0.02833144136191529 0  0.6899042500979145 0.0300158127117669 0  0.6908509592111264 0.02824851197013983 0  0.691897423104831 0.0299541796200849 0  0.6928402312198887 0.02818831400803018 0  0.6938901946293129 0.02988347963070523 0  0.6948299269534687 0.0281267767095752 0  0.6958823888434333 0.02982822708458751 0  0.6968219023992189 0.02806371858632611 0  0.6978748652820538 0.02976180861121296 0  0.6988143150133503 0.02799826426553905 0  0.6998673636065724 0.02969624569334151 0  0.7008068372089336 0.02793280171012972 0  0.7018599301817519 0.02963084409864621 0  0.7028014891139456 0.02786822410829779 0  0.7038526574411494 0.02955696518401853 0  0.7047954013722015 0.02779430048425173 0  0.7058456948494164 0.02948882092901285 0  0.7067866872417988 0.02773115102835633 0  0.7078385291294672 0.02942347777561941 0  0.7087786253331855 0.02766776121215381 0  0.709831675137831 0.02935856141032443 0  0.71077194248979 0.02760259073573742 0  0.711825351179483 0.02929300471300951 0  0.7127658620361178 0.02753704271584595 0  0.7138195279219116 0.02922775102315262 0  0.7147602970387072 0.02747136782506694 0  0.7158142517791004 0.02916220531173861 0  0.7167553920525911 0.02740585334758518 0  0.7178096962201246 0.02909706367694236 0  0.7187512489840017 0.02734001430099613 0  0.7198062629174888 0.02904315499580805 0  0.7207482670557247 0.02727658635019646 0  0.7218040389989313 0.02897880895370146 0  0.7227463776794908 0.02721122647886511 0  0.7238025590584526 0.02891367418599858 0  0.7247451062021175 0.02714988177123202 0  0.7258013227621637 0.0288492888712914 0  0.619873832462576 0.02885949110175188 0  0.7267439865422555 0.02708519875921813 0  0.7278002411974895 0.02878368952728643 0  0.627869530094917 0.0285971566354406 0  0.635865227520143 0.02833481585650679 0  0.645859849301662 0.02800688988283337 0  0.6538555467268823 0.02774454910387974 0  0.6638501685084115 0.02741662313018557 0  0.6738429562112027 0.02708482472816988 0  0.6838147838248517 0.02676476849233498 0  0.7108474872236334 0.03103866962579684 0  0.7208296286615987 0.03074148577412169 0  0.7287429192336853 0.02701977727407135 0  0.7297991716691119 0.02871814682458218 0  0.6937822339726163 0.02642621551734398 0  1.221312670361682 0.04326839470987313 0  1.223318793774746 0.04649068322573162 0  0.7017558107347053 0.0261541976588708 0  0.5716546686088728 0.04753027117263438 0  0.7029013247194207 0.0313087218132816 0  0.7288564928387742 0.03048205046964201 0  0.7308554205506385 0.03041648007935448 0  1.085547819443939 0.07386925620495383 0  0.8584380476983188 0.04860203392829825 0  0.8593795620888233 0.04683750831146469 0  0.8676204318427525 0.02403680549290349 0  0.821270271770455 0.07410804170261304 0  1.075883694444727 0.07419044004608021 0  0.7117160995200102 0.02583177954539757 0  0.8782963123266393 0.0739328319013194 0  0.876297431121578 0.07399971932951646 0  0.8399700121584329 0.06481720162084902 0  0.6057751064270607 0.02585194109135307 0  0.603770352872766 0.02592104877531174 0  0.7196960977960426 0.02556898166654302 0  0.8112758657451784 0.07444247884427363 0  1.130592652550112 0.06719267124792931 0  1.068228868173793 0.07428616864511452 0  1.225041432994865 0.04296297114786624 0  1.227208206090458 0.04644477599050421 0  1.059917485450073 0.07493069805556182 0  0.8032803409249319 0.07471002855687667 0  0.727686653490156 0.02532143565607826 0  0.729685593333199 0.02525589404534017 0  0.5696651244199904 0.05134881081588828 0  0.5673344262319491 0.04779988422482635 0  0.5774312768479998 0.04444292567355353 0  0.7912870536945753 0.0751113531258758 0  1.100631921045087 0.06819904912823377 0  1.110611449070033 0.06786396787033686 0  0.6889234173965743 0.03176759888146673 0  0.6789551850663345 0.03209648757066635 0  1.049939235518646 0.07505668980721905 0  1.120594356767582 0.06752675590455198 0  0.6689757199659836 0.03242605114991261 0  0.6589822356757536 0.03275573419758387 0  1.140584382330737 0.06686048663017509 0  0.7298980126668597 0.03217856938655847 0  0.7319103054608465 0.03211383299669139 0  0.6509866055006566 0.03302011940865322 0  1.039953200213598 0.07537474523924978 0  0.7812926660012349 0.07544633810497164 0  0.9040539491457444 0.07303927526117431 0  0.9031307381445304 0.07479225784017612 0  0.5761018495895187 0.05495479410146163 0  0.8310329729476723 0.06684927695049142 0  0.7712982420900929 0.07578024074108887 0  0.8798317838354658 0.06001728925134914 0  1.029914790022898 0.075487880245977 0  0.8573806808837664 0.04690439573966999 0  0.8583221952742752 0.04513987012283049 0  0.8773547979361209 0.0756973575181438 0  0.8793536791411827 0.07563047008994911 0  0.8753559167310605 0.07576424494634115 0  0.6047291052190196 0.02415349910559954 0  0.6027157657233332 0.02422271023415215 0  1.02001506962384 0.07611323987781671 0  0.7781376356667593 0.07038217641387967 0  0.9141611435261703 0.07616935125703132 0  0.7633027168254631 0.07604777717398056 0  0.9649997069411951 0.07643599156727841 0  0.9571055379985781 0.07648450331300868 0  1.006290238809195 0.07666530776643581 0  0.9232234586323314 0.04123708647851289 0  0.90816711975791 0.07636832754563169 0  0.7196895825825504 0.05844395589682893 0  0.9049956102585158 0.07127481757153237 0  0.920401255165949 0.04652722365472671 0  0.9440059243347481 0.04213677905439153 0  0.9661378443454498 0.04173391685383141 0  1.092648464262194 0.06846133914600244 0  0.9801371646581221 0.04106664687905678 0  0.9948816873741015 0.04230091017263221 0  1.00710959841592 0.04189306744621753 0  1.01902362952697 0.04118596185085029 0  0.9352459413100266 0.04086187109259108 0  1.031033496011819 0.04131581144701543 0  1.055980922488063 0.04200517242951494 0  1.077933336565903 0.04124899919314041 0  1.128634130804699 0.04156039322740101 0  1.089893122363148 0.0408483698025872 0  1.040790867080353 0.07018769282862197 0  0.6269996925649864 0.03381259201239646 0  0.9909295085547792 0.07186451018426117 0  0.7328541183023394 0.03035074478684364 0  0.7339103299295608 0.03204905121425826 0  0.7329687387810369 0.0338122741540314 0  0.7349668448551406 0.03374757560229101 0  0.7340243059846585 0.03551133569398147 0  0.7360231170616809 0.03544588495339535 0  0.7350804455293615 0.03720978658599412 0  0.7370793519965573 0.03714423407075326 0  0.8799623312579087 0.03401761699621249 0  1.174546882627957 0.06573433935001607 0  0.797283697309754 0.07491069084136576 0  0.6067318687280917 0.02409079331751084 0  1.157751186505011 0.07148392621789949 0  0.8272669153856154 0.07390737941780356 0  1.164552449339684 0.0660679533962219 0  0.680518855004195 0.05776285278551918 0  0.9399989167335693 0.07184183864259326 0  1.014006772485175 0.07621048226371431 0  1.129991589521356 0.04641730978721548 0  0.6586818733974161 0.05846932026967459 0  0.6977171753003387 0.0591749296720191 0  0.6398052616644275 0.05765245819946997 0  0.6468208948738798 0.05913920641357762 0  0.6949221615552923 0.03156727635910014 0  1.154558014362245 0.06640152427820539 0  1.16177141720658 0.04189690984313305 0  0.6369942416352037 0.03348245646728328 0  0.7361366742523048 0.03890814233106011 0  0.7381355955825328 0.03884257395798975 0  0.9511460033007724 0.0766582313859997 0  0.7286293469618776 0.0235575740863311 0  0.7306282711284832 0.02349199920326023 0  0.7330814942098233 0.03727538695555359 0  0.9029967127266376 0.07134154894389728 0  0.9039383827689229 0.06957709994285971 0  0.6017707415926068 0.02598855019735085 0  0.6007131582545934 0.02428859593822317 0  0.5997617310773244 0.02606105449578206 0  0.5986811908523604 0.0243179535244146 0  0.5976899434985856 0.02617297793569594 0  0.5965479194609362 0.02434726337378583 0  0.5954724993847157 0.02633211395547643 0  0.9980386125885602 0.07693735936967253 0  0.9451601430313801 0.07685853243452573 0  1.210155181581358 0.04164784777781198 0  1.211325252846028 0.03903804983684631 0  1.20855907934591 0.03922733163315489 0  1.209959649497966 0.03635232341113926 0  1.207038930387606 0.03685185833834728 0  1.208091651826128 0.03446617745758397 0  1.20554918949445 0.03469403647543937 0  1.206619452065616 0.03238599639937721 0  1.204172028569384 0.03257741731591596 0  1.208979364133637 0.03210152656284371 0  1.205198952185934 0.03040346390009784 0  1.202844007624338 0.0305938397618515 0  1.203831809497596 0.02850860508550987 0  1.201603309139967 0.02869251769086279 0  1.202552006841077 0.02666453569715541 0  1.200401874181167 0.02687902733261938 0  1.199478519444705 0.02882395036201975 0  1.19833651938835 0.02707063623907315 0  1.199197054660521 0.02511516894712176 0  1.197188392043203 0.02538029348470959 0  1.196327213635218 0.02716436254327049 0  1.195188831573047 0.02556375790421457 0  1.194338621014905 0.02731877727801596 0  1.193196084701323 0.02573734678028622 0  1.19603391215288 0.02374916170469213 0  1.192352165610973 0.02755018809911522 0  1.191204764467495 0.0259220057481787 0  0.937177993044697 0.07712614612136989 0  0.984104344817646 0.07724024169112707 0  0.9900728848428368 0.07702467135189733 0  0.5652227793682533 0.05176068191960766 0  0.5627582811836636 0.04798625649851794 0  1.146562466564768 0.06666838650520963 0  0.6449898729680283 0.03321810654219468 0  0.931189897931388 0.07730720622289079 0  0.8220959337369076 0.06888135228011187 0  0.7371929192801289 0.04060648067995402 0  0.739191843327845 0.04054090940751723 0  0.8784121647506575 0.0773949957067713 0  0.8804110459557244 0.07732810827857801 0  0.9761407145183477 0.07755166568320532 0  0.8603210764793386 0.04507298269463435 0  0.8592637096647926 0.04337534450599503 0  0.603692346155205 0.02245547445470866 0  0.9232055975539547 0.07759366321255581 0  0.8563233140692122 0.04520675755103457 0  0.594276704250016 0.02437956671605813 0  1.229040742611178 0.04271012780398142 0  1.231361505226211 0.04623036518346867 0  1.229265432257617 0.04998471949463744 0  1.233717913050869 0.04992753636762187 0  1.235857144240858 0.04595213597802667 0  1.238464342113791 0.04989511432409788 0  0.9019394772443161 0.06964382894347246 0  0.9028811267044859 0.06787937500898819 0  1.190361031773878 0.02773672673768835 0  1.189212849518858 0.0261010674265774 0  1.19005676912569 0.02428812226843987 0  1.188064572708559 0.02446450992751123 0  1.188908476740043 0.02265141516399431 0  1.186916230600071 0.02282733213515353 0  1.186072344390438 0.02464059637838441 0  1.184923978710446 0.0230031947456355 0  1.184080091544072 0.02481644994707475 0  1.182931721774451 0.02317900948218803 0  1.182095596199448 0.02508658817391586 0  1.18094075691429 0.02337053034948276 0  1.180110786061116 0.02528919562647622 0  1.178949954934485 0.02355341377618957 0  1.178112248829529 0.02537630802633373 0  1.176954944959281 0.02370639660673806 0  1.176103697851723 0.02555777687836536 0  1.174961459280301 0.02388854577451067 0  1.174103354148366 0.02573317155262238 0  1.172967648236472 0.0240653317888764 0  1.172120679807498 0.02587487696053132 0  1.170976727859034 0.02423560906675982 0  1.170133062645255 0.02604793339386929 0  1.168985465455739 0.02441002672472765 0  1.168141743237609 0.02622304111582011 0  1.166993529007117 0.02458547632734036 0  1.166149713321457 0.02639864637364357 0  1.1650013617996 0.02476118084415499 0  1.167837443467092 0.02277221366702566 0  1.164157498029746 0.0265744014874083 0  1.163009125236342 0.02493695282264701 0  1.162165240658291 0.02675019293460391 0  1.161016870100501 0.02511274210031575 0  1.161860758506038 0.02329949842995255 0  1.15986849997503 0.02347529085331393 0  1.159024611735874 0.02528853437161062 0  1.157876241011243 0.0236510836766014 0  1.157032352717454 0.02546432724559843 0  1.155883981867674 0.02382687666505765 0  1.155040093538316 0.02564012026776729 0  1.153891722668291 0.02400266970609585 0  1.154735611020941 0.02218942608494447 0  1.152743351805048 0.02236521914034606 0  1.151899463452338 0.02417846276235959 0  1.150751092586367 0.02254101219917592 0  1.14990720423224 0.02435425582281698 0  1.148758833366449 0.0227168052579743 0  1.147941698521329 0.02443488211747637 0  1.146771033064646 0.02287673719148093 0  1.145950030456586 0.02488792907966205 0  1.144779782153461 0.02309617326244797 0  1.143930426571983 0.0248816350026533 0  1.142783375259259 0.02324799419635013 0  1.141938248896069 0.02505799860728264 0  1.140789796486014 0.02341997749724467 0  1.139945830988131 0.02523309261988491 0  1.138797750553955 0.02359582836479873 0  1.137951642147239 0.02537995585575866 0  1.136806020001098 0.02376717669796736 0  1.135960708077372 0.02555775438897785 0  1.134815242071181 0.02394139552762256 0  1.133969058368339 0.02571575464272936 0  1.132825153802652 0.02411414377005131 0  1.131982638831371 0.02592589582400254 0  1.13083656397199 0.02429679787463502 0  1.13167955242079 0.02247796986654257 0  1.129690380846479 0.02266286947889051 0  1.128848013875218 0.02447538096972266 0  1.127702259868871 0.02284272250289833 0  1.126859985527189 0.0246511665750108 0  1.125711046379954 0.02302145034758095 0  1.124871626929221 0.02482762833439211 0  1.123722391521993 0.02319580840283491 0  1.122883797123189 0.02500297539874991 0  1.121738692543986 0.02336799986171724 0  1.120896995786988 0.02517696720085469 0  1.119753393386552 0.02354013703409347 0  1.118910141311412 0.02535188439661154 0  1.117766064808264 0.02371586681012367 0  1.116923694424245 0.02552754608109599 0  1.115778025417515 0.02389404280467771 0  1.114937622097992 0.0257046256545661 0  1.113790587770772 0.02406297101996985 0  1.112949985121841 0.02587841176067356 0  1.11180366879875 0.02423707664673943 0  1.110962841732742 0.02605199635966295 0  1.10981754311272 0.02441927121376197 0  1.108976322653461 0.02622840497102821 0  1.107831122601567 0.02459600840777788 0  1.106989900132467 0.02640409457075542 0  1.10584484749311 0.02477172694050812 0  1.105003543806181 0.02657957153535545 0  1.103858524731833 0.02494710365634017 0  1.104699776504884 0.02313925806577668 0  1.102713208046906 0.02331098060480672 0  1.101872216073428 0.02512183352792333 0  1.100726924494468 0.02348562788639565 0  1.099885980992549 0.02529694109482241 0  1.098741037895354 0.02366448896842351 0  1.110656850102109 0.02260352416235409 0  1.097899861329294 0.02547309618019365 0  1.09675494871779 0.02384053384051555 0  1.09759544986275 0.02202447268726428 0  1.095609226002775 0.02219853268647841 0  1.094768712470054 0.02401431577019819 0  1.093623850538374 0.02238173053116459 0  1.092782770665738 0.02419110678471196 0  1.091637976446394 0.02255912911818016 0  1.090872550252836 0.02431339060128595 0  1.089664590342201 0.02272594597054515 0  1.088950460940706 0.02483214204736814 0  1.087691285836917 0.02295654255582884 0  1.086823466072885 0.02473239662837828 0  1.085683902345975 0.02309520836203041 0  1.084769374954963 0.02534804354258204 0  1.083682965036885 0.0233377916256582 0  1.082706439854935 0.02522722457148203 0  1.081681637286199 0.02347495885257762 0  1.080795983180159 0.02525669646959392 0  1.079705694374466 0.02361958921795234 0  1.078865924279974 0.025419839390149 0  1.077730663949316 0.02378774375896925 0  1.076890016561027 0.02558008346735469 0  1.075748133084622 0.02395934371922472 0  1.074906457584567 0.02575448781194495 0  1.073763100498631 0.02413387231359826 0  1.072922394714327 0.02594109645934384 0  1.071777554824811 0.02431092266300985 0  1.070937477497025 0.02611829037938632 0  1.06979177931887 0.02448650061994781 0  1.070632863090843 0.02267953106740976 0  1.068646926476906 0.02285475840455822 0  1.06780565075691 0.02466205459137939 0  1.066660910220567 0.02303007549221442 0  1.065819657392526 0.0248373272097819 0  1.064674919451446 0.0232053447549132 0  1.063833672910272 0.02501263554770008 0  1.062688920960069 0.02338061125694606 0  1.061847695573798 0.02518807129198523 0  1.060702930527897 0.02355592413884531 0  1.059861688297417 0.02536322309752651 0  1.058716942206355 0.02373115241850973 0  1.057875688933426 0.0255385026317844 0  1.056730921842308 0.02390640506288995 0  1.055889689375571 0.02571389641417782 0  1.054744871456922 0.02408168541560445 0  1.05390365788755 0.02588907524575671 0  1.052758857311206 0.02425695040995391 0  1.051917786591051 0.02606441399589705 0  1.05077286116294 0.02443222205946746 0  1.049932068431029 0.02623956482236993 0  1.048786905725341 0.02460730898822614 0  1.049628064766041 0.02279992140411979 0  1.047642082987373 0.02297515604988136 0  1.046800838516453 0.02478257153976737 0  1.045656088167071 0.02315039101952547 0  1.04481484342736 0.02495781019702922 0  1.043677781891803 0.02328294985041268 0  1.042830132851542 0.02512598498781922 0  1.041711529014476 0.02342320949050169 0  1.040846267240257 0.02529823291081616 0  1.039721488866691 0.02363478053774254 0  1.038861308823717 0.02547502148367233 0  1.037716733882832 0.02384300518859415 0  1.036872345028261 0.02565606082570064 0  1.035727079213665 0.02402470594713517 0  1.034885220482507 0.02583334370036587 0  1.033740247729878 0.02420135413001361 0  1.055586139927127 0.02227415996825331 0  1.032898856957397 0.02600915873121994 0  1.031754052705029 0.02437689960154352 0  1.032595281822261 0.0225693922508397 0  1.030609265607409 0.02274465820082554 0  1.029768002605846 0.02455218237625501 0  1.028623262554386 0.02291988048859644 0  1.027781996626279 0.02472739974280958 0  1.026637312613042 0.02309509972051032 0  1.025795987728051 0.02490249683401827 0  1.024651309773121 0.02327028132180064 0  1.023809972204547 0.02507772096167927 0  1.022665237599645 0.02344546454313561 0  1.021823940672295 0.02525290003406339 0  1.020679292432641 0.02362068888204327 0  1.019837921582204 0.02542814501151512 0  1.01869326754056 0.02379589765553008 0  1.017851872453073 0.02560336106229459 0  1.016707127823031 0.02397106144785254 0  1.015865808745521 0.02577857562987014 0  1.014721050823839 0.02414625752197002 0  1.013879740990328 0.02595384274807396 0  1.012734963263067 0.02432147219164551 0  1.011893659091475 0.02612906237458736 0  1.010748862217674 0.02449667602805218 0  1.009907566424896 0.02630427114971686 0  1.00876279604962 0.02467186143842882 0  1.009604088984135 0.02286429585532998 0  1.007618068300688 0.02303949015968309 0  1.006776733319997 0.02484702599377073 0  1.00563201284173 0.02321466027546592 0  1.004790677317305 0.02502220160846641 0  1.003645931183555 0.0233898173113547 0  1.002804597555814 0.02519733333695163 0  1.00165986637745 0.0235649762518137 0  1.000818511437374 0.02537249938735276 0  0.9996737563250765 0.02374014425106738 0  0.9988324167210342 0.02554774156282077 0  0.9976876310359024 0.02391532068624597 0  0.9968462955844843 0.02572292651467183 0  0.9957015367283694 0.02409047575171275 0  1.015562766554041 0.02233854981938835 0  0.9965428719330265 0.02228290224167041 0  0.9945567966571023 0.0224580543486883 0  0.9937154418141575 0.02426561291342072 0  0.9925707142539013 0.02263318907271933 0  0.9917293493401149 0.0244407590962625 0  0.990584679228055 0.02280834206981575 0  0.9897432243230831 0.02461560269991512 0  0.9885985249042704 0.02298343468507913 0  0.9877570867394737 0.02479069551830174 0  0.9866123626885926 0.02315851912579339 0  0.9857709266859698 0.02496578018333845 0  0.9846262048334542 0.02333370361336431 0  0.9837847532552115 0.02514093206857865 0  0.9826401209644091 0.023508827174391 0  0.9817985696019897 0.02531603497930385 0  0.9806538175361874 0.0236839044752779 0  0.9798123358117576 0.02549117608415849 0  0.9786675776137229 0.02385903422716394 0  0.9778261234628017 0.02566674369735181 0  0.9766813139443323 0.02403425861928952 0  0.9758398627933207 0.02584199634185087 0  0.9746950020621974 0.02420941383313503 0  0.9738535523899267 0.02601717334867619 0  0.9727087231204727 0.02438454834080112 0  0.9735501694825563 0.02257682844207159 0  0.9715639430741452 0.02275196468801336 0  0.9707224448755835 0.02455965515978048 0  0.9695777339233911 0.02292707433194663 0  0.968736157156816 0.02473477590589322 0  0.9675914152768798 0.02310216082742133 0  0.9667498298982726 0.02490981481471918 0  0.9656048169520642 0.0232751257377092 0  0.9647634130623418 0.02508443347733018 0  0.9636183806479854 0.02344978625049524 0  0.9627770033589307 0.02525953579322828 0  0.9616247818236611 0.02362149713278955 0  0.9607893626092399 0.02543415888150996 0  0.9596364557285946 0.02379238759696743 0  0.9588023586503961 0.02560852161327096 0  0.9576531848871778 0.02396802616781734 0  0.9568162750633833 0.02578367113977683 0  0.9556641919449829 0.0241454537560069 0  0.9548293548762251 0.02595922095003939 0  0.9536767342826096 0.02431758918086789 0  0.9528425158999948 0.02613399751825617 0  0.9516933728098855 0.02449343201006997 0  0.9508563270424091 0.02630923476364892 0  0.9497113598401652 0.0246762643591126 0  0.9488708541744472 0.0264863479962873 0  0.9477257401316423 0.02485330488494407 0  0.9505458845009798 0.02285868438755545 0  0.95648599498602 0.02231820013757532 0  0.9468839931462305 0.02666157077620233 0  0.9457388028042525 0.02502845396073755 0  1.116626283139169 0.02207184308494422 0  1.204797182957732 0.02644142541183814 0  1.173813647415493 0.02224702329843307 0  0.7841470312508227 0.07020192241111278 0  1.139643004661124 0.02177871171195171 0  1.076590072245294 0.0221536265304978 0  1.061544151758652 0.02174840084154445 0  1.038594324528321 0.02198259288851923 0  0.9795094543952181 0.02205128394706756 0  0.7348532707132628 0.03028533631039233 0  1.021520633150529 0.02181312431290096 0  1.19349659741311 0.02926283182874538 0  0.962450156852024 0.02179986878653561 0  1.103555801153547 0.02149536038642997 0  0.729572021655073 0.02179366775753912 0  0.731570946406588 0.02172809503544337 0  1.181783567198409 0.02154418551455278 0  1.231537570029008 0.05381094537490776 0  1.00250644087759 0.02175580948308148 0  0.9854681997878276 0.02152605611564912 0  1.08254288805789 0.02164739238125152 0  1.199147987074022 0.05277261637503878 0  1.122576186302745 0.02156501216761869 0  1.14561876906461 0.02125572782588498 0  0.5604761048358482 0.0522724393041359 0  0.5575448065623754 0.04758767994425907 0  1.160712388451456 0.02166204711608293 0  0.9008822372364915 0.06794610872463115 0  0.8999405865243729 0.06971056184190315 0  0.9018238859526972 0.06618165483688429 0  1.044520626128328 0.02147125084192113 0  0.7382491677186502 0.04230481538986509 0  0.7402480923348245 0.04223924351093765 0  0.7411907675922333 0.04047533790392138 0  0.7422470170063684 0.04217367157293375 0  0.7413043416753105 0.04393757725852632 0  0.7433032664418133 0.04387200521920751 0  0.944897027857927 0.0268367989637584 0  0.9437518783213346 0.02520359723492978 0  0.9445936537876448 0.0233953067694884 0  0.9426067957157542 0.02357042233122406 0  0.9417649458900741 0.02537868064041272 0  0.9406198512786379 0.02374549490414171 0  0.9397779512026762 0.02555383063204519 0  0.938632774877588 0.0239205675094428 0  0.9377908391433785 0.02572900591415461 0  0.9366456826565941 0.02409564159561802 0  0.9374875955427059 0.02228729245186412 0  0.9354999226243237 0.02245531745191846 0  0.9346584768961694 0.0242695003525046 0  0.9335126859707694 0.02262894540456864 0  0.9326712786235702 0.02444415708411219 0  0.9315260565454384 0.02281062537114323 0  0.9306841692474146 0.02462082557864027 0  0.9295385630570598 0.02298415954275546 0  0.9286967241388903 0.02479502997673886 0  0.9275510381466225 0.02315876935468239 0  0.9267090850414276 0.02497004259409012 0  0.9255633779467499 0.02333373046049592 0  0.924721334607963 0.02514483061768286 0  0.9235755739494884 0.02350869056056151 0  0.9227335743219029 0.02532077489960587 0  0.921587996954244 0.02368735622770203 0  0.9207455099111279 0.0254956578545407 0  0.9195943487854256 0.02385266693376171 0  0.9187564554725857 0.02567006545023619 0  0.9176084098579262 0.02403033180593227 0  0.9167683017481006 0.02584562004675936 0  0.9156220898041445 0.02420842272247135 0  0.9147800888611243 0.02602145494922898 0  0.9136337778859739 0.02438412048513566 0  0.9127913910795129 0.02619695541300277 0  0.9116448942539678 0.0245593419174135 0  0.9107973944134834 0.02631604724431552 0  0.9096548493320965 0.02472509488431954 0  0.9088653405712811 0.02636743873872844 0  0.9076687077954513 0.02480835469753065 0  0.9085082047185 0.02307957938883683 0  0.9065202755774597 0.0232563284826467 0  0.9164608398132057 0.02239372978217452 0  0.90545078225325 0.02505589442014656 0  0.9044851435489148 0.02335546147551476 0  0.9224194645340018 0.02186181650573182 0  0.9434486060433943 0.02176224858726138 0  0.9053700090182647 0.02163203570421318 0  0.9033761692266469 0.0217990772322619 0  0.90253428524844 0.02357381475142916 0  0.9013920865867432 0.02197971116620089 0  0.900540651219887 0.02369310422407231 0  0.8994021450497814 0.02214611217141919 0  0.8985582763449977 0.02395600387321178 0  0.8974128905332039 0.02233408664123566 0  0.8965688117052878 0.02414810845881056 0  0.8954218635475268 0.02251369909516299 0  0.9303727885002565 0.02116595984679912 0  0.9724054045588951 0.02094430169286069 0  0.8553817996787073 0.0469712831678757 0  1.185388342448104 0.06016185560509153 0  1.067502105813628 0.02122264248942494 0  0.7380220191068246 0.03538033715618067 0  1.008459370762586 0.02123196917608846 0  1.02747872902015 0.02128759537060259 0  0.9914262198545967 0.02100079353536726 0  1.088506201189773 0.02110037505428562 0  0.9363331765156122 0.02063921163535246 0  0.8998249990362623 0.06624838934752184 0  0.900766648054107 0.06448393560009226 0  0.9027655343333097 0.06441720087764363 0  0.8987677616131551 0.06455067026637182 0  0.5976233044597309 0.0225040689379695 0  0.8160992901217354 0.06908201456476526 0  1.128537611573323 0.02102913450253229 0  1.187760123746622 0.02101413397146597 0  0.879469531565198 0.0790926338954083 0  0.8814684127702673 0.07902574646721286 0  0.8945773989684012 0.02432707274033075 0  0.893429863598308 0.0226898174638042 0  0.894274982842858 0.0208774681023285 0  0.8922826992457211 0.02105203262781442 0  0.8742985499165157 0.07406660675771531 0  0.8733570355260009 0.07583113237454729 0  0.7901383000172171 0.06997743605697293 0  1.226756347686059 0.03926542048870622 0  0.8543244328641516 0.04527364497924843 0  0.8533829184736446 0.04703817059608365 0  1.151594980939264 0.02072776857712745 0  0.8750217271342748 0.03591674502743844 0  0.8693284220032821 0.01718412662516014 0  0.5552235417581011 0.05268394114643708 0  0.5522065255662501 0.04787917693341529 0  1.240811754011935 0.0456397056108551 0  1.243555148779285 0.04993007953523032 0  1.094454094498141 0.0205492585035924 0  1.043974341760288 0.02676408417080588 0  0.9002483095120668 0.02035351671380596 0  0.7423605911143099 0.04563591090100658 0  0.7443595158972265 0.04557033884417314 0  0.5930976563336198 0.02650645073920355 0  0.5917816769792175 0.02437504953692958 0  0.8101026465065423 0.06928267684930198 0  0.7453021912184282 0.04380643316910172 0  0.7463584406819257 0.04550476678544151 0  0.7454157653590948 0.04726867246224649 0  0.7474146901458241 0.04720310040135182 0  0.8794842190709968 0.04963080250157534 0  0.8041060028913167 0.06948333913387286 0  0.8999808061002028 0.02574413341241973 0  0.5974842662500461 0.04888061306351956 0  0.5497112238028639 0.05315522785690591 0  0.730514696532014 0.02002976210036721 0  0.7325136212955001 0.01996418942539588 0  0.7285157717622111 0.02009533475600262 0  0.5465058459651626 0.0481832735688797 0  0.9908872128473162 0.02624785045306045 0  0.7981220869319243 0.06970305968080355 0  0.8644452878503168 0.01894208815913397 0  1.202732321941003 0.03478455489386334 0  0.8914375512587343 0.02286495689458321 0  0.8902901131311968 0.02122685427425015 0  0.8753706034147434 0.04630241406457423 0  0.9017082970111078 0.06271948183682349 0  0.903707183356004 0.06265274713789433 0  0.8805268983415042 0.0807902709411777 0  0.8825257795378008 0.08072338325107838 0  0.8834672939674963 0.07895885880489065 0  0.8845246607783375 0.08065649688308021 0  0.885466175177162 0.07889197151437735 0  0.8865235383688259 0.08058963163982921 0  0.8619577054141093 0.06408143991056542 0  1.149131823927538 0.02622848013464339 0  0.7464720148230568 0.0489670060780872 0  0.7484709396101401 0.04890143401681753 0  0.7494136149327736 0.04713752834022196 0  0.7504698643972625 0.04883586195550566 0  1.064979972743943 0.02664450601544691 0  0.8911353427822539 0.01941403432627374 0  0.8891426279576802 0.01958878928564528 0  0.8851186179083218 0.06850548019443288 0  0.8523255516590936 0.04534053240745887 0  0.8513840372685816 0.04710505802429077 0  0.8532670660495991 0.04357600679062301 0  1.246092539493931 0.04508007341626297 0  1.249044591857123 0.04996993321819061 0  1.099044775907338 0.02710540692935498 0  0.5649659360572289 0.04379436230323346 0  0.62666589938252 0.05289845709041867 0  0.618081809398986 0.03584255755647103 0  0.8612625908698536 0.04330845707780279 0  0.8602052240553133 0.04161081888917068 0  0.8944179105849962 0.04739806418801967 0  0.8954752762040036 0.04909569840929939 0  0.8934763951981952 0.04916258649872247 0  0.9012402149740526 0.04197070852358362 0  0.8785280171683054 0.0808571593217622 0  1.18323002630844 0.02669015936728045 0  1.096972570567341 0.04237235653372116 0  0.7495293136068817 0.05058720555854176 0  0.7515289538483414 0.05053055583029845 0  0.9539896848245389 0.02776871026061268 0  1.003949151690453 0.02682972135902418 0  0.8874650557805632 0.07882508780662265 0  0.8885224104546806 0.08052275740242437 0  1.118069474236487 0.02716059583853585 0  1.138934070186743 0.02731969766069416 0  0.9678943648572882 0.02654237336646061 0  0.5905576834328763 0.02665887675935013 0  0.5891233477935711 0.02435553576270425 0  0.5641033171392221 0.05575472377895621 0  1.091998416134428 0.02595900874530188 0  0.9979910746726947 0.02735542332997287 0  1.026940858129083 0.02653465901852776 0  1.126018036072508 0.02646160543034985 0  0.9318293594715783 0.02625385682869924 0  0.6051683612620823 0.03800823799621 0  1.171276305920752 0.02768282704050088 0  0.7294584465775801 0.01833142886952029 0  0.7274594062999011 0.0183970733339155 0  0.9619359710340727 0.02706747614418378 0  1.059021691979682 0.02717046270285006 0  1.086371888582632 0.02674114067602432 0  1.108136412745634 0.02803673108636315 0  0.9120017375447012 0.02792186115630636 0  1.15618846439738 0.02727757083956973 0  1.020983237878376 0.02706038588343324 0  0.6092580320353522 0.04134965048566348 0  0.8722996687114498 0.07413349418592101 0  0.8713581543209401 0.07589801980275225 0  0.7362502428837292 0.04237038750218492 0  0.7524692625155192 0.04876968327074383 0  0.753525590868537 0.05046791578210155 0  0.7525744774096419 0.0522255240425305 0  0.7545827347911783 0.05216401173195102 0  0.9258656997469165 0.02677752476685105 0  0.9389359838780762 0.02736233786678268 0  0.8945337618466931 0.05086022413633707 0  0.8925348806471689 0.0509271115828991 0  1.079829545718268 0.02711534811167972 0  1.053063559900751 0.02769648179473952 0  1.251735954786578 0.04467078785518123 0  1.254896873143341 0.04995011714480106 0  0.8503266704540359 0.04540741983566496 0  0.8493851560635193 0.04717194545249819 0  1.015024710226712 0.02758612225647607 0  0.974998416103759 0.02764984046565482 0  0.9199024630637971 0.02730288940364826 0  0.8899876472589813 0.01777604541327098 0  0.8879951711079991 0.01795070928614039 0  0.9829417880516738 0.02694792364908291 0  1.073898064110292 0.02756527381260934 0  0.885582026503705 0.08235419037417013 0  0.5437600635501476 0.05365330859039309 0  0.540359818278553 0.04834350206679609 0  1.17723643261839 0.02732797923923665 0  0.9460423310480723 0.02847001371090106 0  0.8795853839892296 0.08255479770087602 0  0.8775865027831068 0.08262168509733189 0  0.9026499462166313 0.06095502815999507 0  0.9046488325271232 0.0608882934492265 0  0.8894451781999899 0.02303965096238181 0  0.8622041052603679 0.0415439314609751 0  0.8611467384458316 0.03984629327234319 0  0.5877664687692309 0.02689505462504985 0  0.5862190439631854 0.02435608417996261 0  0.7555242965856528 0.05040244259470958 0  0.7565802129006016 0.05210138506331015 0  0.7556404476514784 0.05386313992689548 0  0.7576369473773661 0.05379936020973367 0  0.5966857545017887 0.02804238210892381 0  1.257757397563847 0.04437008474894791 0  1.261129193438223 0.04987295733080838 0  0.8894639353654841 0.07875820319697475 0  0.8905212934934942 0.08045585072858817 0  0.8703007875063871 0.07420038161412734 0  0.86935927311588 0.07596490723095917 0  0.8748925070347561 0.0619155897246345 0  0.7285080878071351 0.0529570403134847 0  0.7274527456725499 0.05125350184221886 0  1.03801559917421 0.02729123616556067 0  1.163313612153533 0.02838764291447295 0  0.756697211499997 0.05556142827814185 0  0.7586933634079203 0.05549762653618236 0  0.7596354838011381 0.05373407993128036 0  0.7606917613213158 0.05543239815853635 0  0.8935922474290809 0.05262474966326411 0  0.8915933662253808 0.05269163709596435 0  1.246081654417964 0.05470974290679305 0  0.8860601322988393 0.06674095457760983 0  0.8871174991133839 0.06843859276623433 0  1.133389490484839 0.02776676002089831 0  0.8683019063013219 0.0742672690423308 0  0.867360391910816 0.07603179465916678 0  0.8684177587253727 0.07772943284779371 0  0.8664188775203076 0.077796320276002 0  0.8674762443348532 0.07949395846462713 0  0.865477363129791 0.07956084589283045 0  0.8644199963152456 0.07786320770419893 0  0.8634784819247281 0.07962773332102906 0  0.8624211151101876 0.0779300951323971 0  0.8614796007196658 0.07969462074922314 0  0.8604222339051282 0.07799698256059107 0  0.859480719514604 0.07976150817741545 0  0.8625369675341814 0.08139225893785351 0  0.8584233527000668 0.07806386998878226 0  0.8574818383095433 0.07982839560560741 0  0.8692434206918378 0.07250274342549995 0  1.242973157217605 0.04099905963527976 0  0.8483277892489729 0.04547430726386948 0  0.8473862748584562 0.04723883288070683 0  0.7284021773529368 0.01663310753791127 0  0.7264031338701065 0.01669875400893765 0  0.5847641282949565 0.02710332261351254 0  0.5830936996177685 0.02431816808036286 0  0.8888400800938513 0.01613806327664589 0  0.8868477028980681 0.0163127910522923 0  0.8908323962013528 0.01596324845170086 0  0.8860027933370604 0.01812542021719604 0  0.8848553475573043 0.01648752792410601 0  0.8926317454907502 0.05437914390638851 0  0.5374597573702045 0.05415837974571748 0  0.533818824954664 0.04848047415124252 0  0.7616343307620195 0.0536685619061926 0  0.7626905853251429 0.05536689238384032 0  0.7617479108522394 0.05713079753753521 0  0.7637468189838171 0.05706523643678772 0  0.5816419346413495 0.02715467407659983 0  0.5798129377116816 0.02436475129261739 0  0.8631456196508864 0.03977940584414703 0  0.8620882528363497 0.03808176765551578 0  0.8600893716312903 0.03814865508370968 0  0.8610308860218111 0.03638412946688425 0  0.8590320048167526 0.03645101689507558 0  0.8599735192072776 0.03468649127824753 0  0.8579746380022165 0.0347533787064374 0  0.8589161523927429 0.03298885308961061 0  0.8632614720749109 0.04324156964960915 0  0.8524414040831328 0.04880269621291831 0  0.8564244714950019 0.07813075741696497 0  0.8554829571044795 0.0798952830337956 0  0.856540323919024 0.08159292122243358 0  0.8545414427139588 0.0816598086506209 0  0.8555988095285014 0.0833574468392598 0  0.8535999283234399 0.08342433426745402 0  0.8525425615088944 0.08172669607881602 0  0.851601047118378 0.08349122169564857 0  0.8505436803038335 0.08179358350701682 0  0.8496021659132995 0.08355810912388013 0  0.8485447990987712 0.08186047093521945 0  0.8476032847082273 0.08362499655213088 0  0.8465459178937095 0.08192735836342623 0  0.8456044035031827 0.08369188398030927 0  0.8445470366886486 0.08199424579162798 0  0.8436055222981365 0.08375877140847524 0  0.8425481554835865 0.08206113321982997 0  0.841606641093078 0.08382565883667406 0  0.8405492742785237 0.08212802064803251 0  0.8396077598880038 0.08389254626490031 0  0.8385503930734801 0.08219490807624645 0  0.8376088786829392 0.08395943369314904 0  0.8365515118684238 0.08226179550447335 0  0.8356099974778918 0.08402632112133776 0  0.590499000450609 0.02217587280261324 0  0.7646894915305475 0.05530133258693008 0  0.7657457378980929 0.05699966824626552 0  0.7648030620592708 0.05876357426357422 0  0.7668019857816044 0.0586980029041272 0  0.7677446609267912 0.05693409734448816 0  0.7688009100982219 0.0586324311530116 0  0.8914628166061471 0.07869131303093532 0  0.892520183426616 0.08038895076326642 0  0.8915786607294126 0.08215348852674903 0  0.893577550312364 0.08208658881077915 0  0.8926360360425472 0.08385111775356531 0  0.8946349185551991 0.08378422548225373 0  0.8840104334511167 0.01830011759034865 0  0.8828629736209225 0.01666203038284862 0  0.5491119386797803 0.04315460730109034 0  1.264110415778422 0.04408383910720346 0  1.267830428105714 0.05018811884052717 0  0.856917271187681 0.03305574051779765 0  0.857858785578208 0.03129121490097143 0  0.8786438715398057 0.08431932210330907 0  0.8766449887169963 0.0843862105382224 0  0.9035929424213238 0.05919129334811997 0  0.905590757596174 0.05912549835114279 0  0.9066477648102793 0.06082183516667725 0  0.907590838545104 0.05905969506687287 0  0.9086468578886256 0.0607553017648134 0  0.9095899070493241 0.05899161037387716 0  0.9106458090253891 0.06068837560827614 0  0.9115875165630346 0.05892393434771826 0  0.9126443777582631 0.06062135460248259 0  0.9135860062696991 0.05885696629884449 0  0.9146430577285081 0.06055447625277088 0  0.9155845082195589 0.05879046475555103 0  0.9166414131296523 0.06048766260609545 0  0.9175827021587264 0.05872392757952547 0  0.9186393539704955 0.06042095023815525 0  0.9195805516809648 0.05865786592233214 0  0.9206370661629851 0.06035420743504492 0  0.9215790995138764 0.05859193356414195 0  0.922634688993092 0.06028745928176511 0  0.9235765925391211 0.05852499278947399 0  0.9246320097644302 0.06022356516403308 0  0.9255727729902901 0.05845834945146031 0  0.9266288400037963 0.06015725009137116 0  0.9275694493677481 0.05839185709269449 0  0.928625431512192 0.06008769726931794 0  0.9295660350674433 0.05832454253741173 0  0.9306219303450527 0.06002038547082233 0  0.9315624648802548 0.05825804831833914 0  0.9326182684768638 0.05995359122189223 0  0.9335587007029358 0.05819166217744615 0  0.9346144311874462 0.05988691189807517 0  0.9355553809315125 0.05812546907487232 0  0.9366105468894024 0.05982029545006937 0  0.937551424260294 0.05805883244226565 0  0.9386064260117231 0.0597536360328038 0  0.9395465304914959 0.05799182701409716 0  0.9406020301759594 0.05968688231928485 0  0.9415426399908022 0.05792565795984198 0  0.9425976722340083 0.05962027605843834 0  0.9435382484882822 0.05785910479444865 0  0.9445931578581482 0.05955364224619933 0  0.9455331870379606 0.05779229112466938 0  0.946588496784228 0.05948875223811141 0  0.947528409925342 0.057725995728343 0  0.9485837311219335 0.05942245755257321 0  0.9495236058553133 0.05765956541850326 0  0.9505788284140207 0.0593541256202051 0  0.9515190293951412 0.05759293419507833 0  0.9525741075511945 0.05929266777050738 0  0.9535141383587954 0.05752724016401631 0  0.954569134248749 0.05922705081521487 0  0.9555090498781557 0.05746098016101039 0  0.9565639827568821 0.05915900807104356 0  0.95750390168655 0.0573942492315762 0  0.9585587993208184 0.05909213840064322 0  0.9594984177098131 0.05732748958070726 0  0.9605533885732884 0.05902166528172862 0  0.9614930599731986 0.05725991220484541 0  0.9625482190312972 0.0589597778371555 0  0.963487946990759 0.05719445289474888 0  0.9645429115553027 0.05889415040543192 0  0.9654825581900062 0.05712823454170891 0  0.9665374465911613 0.0588261907792908 0  0.9674771039721258 0.05706152320295297 0  0.968531963459899 0.05875935447845877 0  0.9694714421497223 0.05699483217414986 0  0.9705260210004586 0.05868801182585662 0  0.9714659046840428 0.05692753067437607 0  0.9725188112976714 0.05862573471172343 0  0.9734601021740015 0.05686133568044471 0  0.9745135545610391 0.05856028977785331 0  0.9754544036959969 0.05679527743829372 0  0.976509125779055 0.05848918716102913 0  0.9774489338215433 0.05672794791321072 0  0.9785036752899061 0.05842173541481639 0  0.9794432443697069 0.05666111617222527 0  0.9804979959150391 0.05835496356615137 0  0.9814375390954015 0.05659462366250688 0  0.9824922589233819 0.05828838314105936 0  0.9795574282967141 0.06012016298470464 0  0.7335698712677534 0.021662522721914 0  0.7345125460779709 0.01989861682079962 0  0.7355687960533823 0.02159695012905208 0  0.7365114708510202 0.01983304418137372 0  0.7375677208248566 0.02153137748383088 0  0.7354552208790618 0.01813471088589315 0  1.190582366484381 0.06213196328905556 0  0.8871348447148451 0.03890523183403315 0  0.8478496845546275 0.06108748810255569 0  0.8906486872383429 0.05445447413320709 0  0.8916983085945984 0.05614797950138366 0  0.530674930644512 0.05473310891752001 0  0.5267448965763083 0.04864429538446634 0  0.9325049441013423 0.05649664854116881 0  0.8506595327278139 0.08525574731257143 0  0.9105329845859695 0.05722933432437083 0  0.9834317426696971 0.05652806527867985 0  0.9844864752936821 0.05822182564022271 0  0.7374541456472199 0.01806913822838695 0  0.7363978956748451 0.01637080493135919 0  0.9596111442611807 0.06079576628598572 0  0.9496361230435582 0.06112264986440163 0  0.9695836788567567 0.06046240119228435 0  0.9356702348499772 0.0615820844414586 0  0.9276815470171585 0.06186023056501296 0  0.8463289080439031 0.04554119469207586 0  0.8453873936533898 0.04730572030890663 0  0.8472704224344125 0.04377666907522644 0  0.8464447604679405 0.04900335849753719 0  0.8444458792628794 0.04907024592573865 0  0.8609150335978139 0.03292196566141992 0  0.8613637482956589 0.0762324569437543 0  0.8491387562172755 0.06970945390210714 0  0.8345526306633465 0.08232868293268336 0  0.8336111162728367 0.0840932085495136 0  0.8434896698741113 0.08029660760299767 0  0.7294522323763927 0.05120174121660845 0  0.728394798900954 0.04949054851304187 0  0.7263967889578891 0.04955464055568921 0  0.7273363514707687 0.04779125990507239 0  0.7253394655719477 0.04785651731913672 0  0.7262788117917062 0.04609326580524251 0  0.7242813021110296 0.04615916400719718 0  0.7252156337393757 0.04439913463994594 0  0.7232227381694492 0.04446227519350285 0  0.7241570988640218 0.04270220585103024 0  0.7221649771569251 0.04276488013398018 0  0.5471282095700065 0.05831756926094973 0  0.7697435853424659 0.05686852552809525 0  0.770799834745053 0.05856685918418156 0  0.883707866578713 0.01484921180113479 0  0.8817155105661114 0.01502390354302952 0  0.8965326430185436 0.05079333659793557 0  0.7658593101954427 0.06046190875452104 0  0.8406651267025531 0.08559018445355994 0  0.7273459204285597 0.01493477856245052 0  0.7253468619937884 0.01500043436457658 0  0.8880590135038968 0.06667406714940652 0  0.8891163803184421 0.06837170533803077 0  0.52369205217795 0.05502836124623732 0  0.5193959471399081 0.04890969402158978 0  0.8433885124483276 0.04737260773710853 0  0.8424469980578154 0.04913713335394328 0  0.8435043648723691 0.05083477154257046 0  0.8415054836673046 0.05090165897077706 0  1.2711264908278 0.04387951435668115 0  1.274994910017822 0.0502262434097773 0  0.8936934016146745 0.08554866752728266 0  0.8956921241768586 0.0854817369846621 0  0.8966336853521925 0.08371731359336435 0  0.8976908197808908 0.08541476742374268 0  0.985425939585543 0.0564615272143827 0  0.9864806718472945 0.05815527802391094 0  0.985541205376277 0.05991559568668123 0  0.9875354255659141 0.0598490242060508 0  0.9884748826886566 0.05808869633481924 0  0.9895296327271561 0.05978243193435568 0  0.9904690745330147 0.05802214411707611 0  0.991523822029464 0.05971586229376341 0  0.992463515706938 0.05796359309345059 0  0.9935180236982016 0.05965059467553929 0  0.9944577193269902 0.05789858434212054 0  0.995512180585836 0.05958449302560166 0  0.9964518611239922 0.05783229422080567 0  0.9975063069648435 0.05951801825309253 0  0.9984459779251538 0.0577657942064152 0  0.9995004133997518 0.05945146850003042 0  1.000439810780714 0.05769130459298284 0  1.001494457323887 0.05938355164949195 0  1.00243410198226 0.05763103846400552 0  1.003488554738884 0.05931771845561937 0  1.004428206695199 0.05756564934778063 0  1.00548262560633 0.05925153638016568 0  1.006422264526376 0.05749928193880335 0  1.007476671998852 0.05918503031413795 0  1.008416304045002 0.05743276365984705 0  1.009470699773481 0.05911835167291729 0  1.010410069583681 0.05735841701613124 0  1.011464678637049 0.05905057872096588 0  1.012404289183806 0.05729803409049514 0  1.013458712438815 0.0589848048019349 0  1.014398329970226 0.05723263526139975 0  1.015452713981492 0.05891839309581497 0  1.016392326655448 0.0571662296314764 0  1.017446707128312 0.05885203244182344 0  1.018386310336432 0.057099729177727 0  1.019440684122444 0.05878547428711604 0  1.020380028860339 0.05702556824838002 0  1.021434609280466 0.05871764071984804 0  1.022374193611673 0.05696504570161386 0  1.023428593398819 0.05865183859393201 0  1.02436818608264 0.0568996189367407 0  1.025422554232717 0.05858558763459398 0  1.026362138644473 0.05683323665021796 0  1.02741649843036 0.05851907080050985 0  1.02835607896384 0.05676671409505192 0  1.029410434163912 0.0584525189000296 0  1.030349762506299 0.05669270977227241 0  1.031404314664327 0.05838448151184925 0  1.032343884333347 0.05663202167701822 0  1.033398267238709 0.05831884927564039 0  1.034337841615815 0.05656659555944217 0  1.03539219384465 0.05825259467050598 0  1.022489787584659 0.06041080690142919 0  1.012519868015214 0.06074377669350509 0  1.000555200000588 0.06114331228150229 0  0.9865959915670419 0.06160937859603383 0  1.030466898384384 0.06014439971322261 0  1.036331508311302 0.0564929178874975 0  1.03738606519927 0.05818489534460995 0  0.8896851081408201 0.01432548997002912 0  0.8916768725110202 0.01415066373571064 0  0.7244040619760637 0.01676427948696956 0  0.723347911712187 0.01506614925808705 0  0.7224053759508858 0.01682948606421679 0  0.7213496400074708 0.01513211411987502 0  0.7204076093696152 0.0168921187710721 0  0.7193521123504689 0.01519793499512884 0  0.7184110042290603 0.01695727167494489 0  0.7173564689297813 0.0152641690126525 0  0.7164160013855089 0.0170224439054271 0  0.7153623311070401 0.01532984900253165 0  0.7144220832078554 0.01708779133334892 0  0.7133685704995302 0.01539616942371951 0  0.7124288931938352 0.01715337136716942 0  0.7113759079520278 0.01546197398876752 0  0.7104365529841326 0.01721862597735215 0  0.7093840406623273 0.01552744014647816 0  0.7084447432455394 0.01728417397758568 0  0.7073922263786734 0.01559333400447328 0  0.7064532814733588 0.01734953707615813 0  0.7054010053805672 0.01565893663890758 0  0.7044622181464765 0.01741515127937401 0  0.7034102800080847 0.01572436613407755 0  0.7024714724845218 0.01748049978172973 0  0.7014194871377987 0.01578996176984734 0  0.7004809023015822 0.01754609010764951 0  0.699428989971096 0.0158554950287858 0  0.7023581147044735 0.01403352042467003 0  0.6984904941401586 0.01761149300121272 0  0.6974391219283486 0.01592112971869987 0  0.6965002901782946 0.01767709416575472 0  0.6954489691851142 0.01598663157749114 0  0.6945100117683952 0.01774266213145408 0  0.6934593629875252 0.01605241186952511 0  0.692520005480693 0.0178081930127687 0  0.6914691563749373 0.01611794084446506 0  0.6905298202069194 0.01787366129901755 0  0.6894779212034534 0.01618285290593765 0  0.6885393459589295 0.01793902040249216 0  0.6874876948897579 0.01624804002056239 0  0.6884259617020374 0.01449206026449762 0  0.6864362178320605 0.01455736151691946 0  0.6854976484230034 0.01631320211325209 0  0.6844462652983722 0.01462255011895763 0  0.6835076238557476 0.01637843653756705 0  0.6824563806553022 0.01468781325882955 0  0.6815174233839747 0.01644355139825023 0  0.6804661074920056 0.01475296455842909 0  0.67952703470696 0.0165088473444136 0  0.6784758637578756 0.01481825991374562 0  0.6775364781786719 0.01657388269807195 0  0.6764851977760105 0.01488339471554245 0  0.6755456678952166 0.01663923402630197 0  0.6744945342662334 0.01494871390608419 0  0.673554574191654 0.01670428839261848 0  0.6725032423999459 0.01501382508813756 0  0.6715629916646391 0.01677010256139699 0  0.670510563634148 0.01507854328431608 0  0.6695709324454514 0.01683496672375463 0  0.6685197514177706 0.01514435945813664 0  0.6675787427025475 0.01690006562912243 0  0.666527360085406 0.01520956394726625 0  0.6655859339950024 0.01696568168770835 0  0.6645325071227391 0.01527401225104938 0  0.6635921106255647 0.0170306361887795 0  0.6625407868349452 0.01534011720427504 0  0.6615979717078594 0.01709754680094155 0  0.6605463888332049 0.01540565089273796 0  0.6596029990521619 0.01716205922041296 0  0.6585526293442778 0.01547163890819424 0  0.6576074327974339 0.01723095708163849 0  0.6565564937467052 0.01553747729964521 0  0.6556105968814344 0.01729759695656094 0  0.6545549063762008 0.0156041091616463 0  0.6536117880914936 0.0173598040511727 0  0.6525556409567648 0.01566958581820089 0  0.6516128849143987 0.01742706469677386 0  0.6505564795129 0.01573199933154396 0  0.649613890474277 0.01749060764353358 0  0.6485574903896523 0.01579643170948622 0  0.6476150938522176 0.01756024812400521 0  0.6465585832017222 0.0158627120805733 0  0.6456162005394472 0.01762683677327125 0  0.6445596724531506 0.01592875874762399 0  0.6436172909061961 0.01769289172255396 0  0.6425607602834885 0.0159947270779517 0  0.6416183778787026 0.01775882606328965 0  0.6405618474043951 0.01606066312065062 0  0.6396194640075331 0.01782473024832325 0  0.638562933669636 0.0161265716063855 0  0.637620550142582 0.01789063454626532 0  0.6365640197932977 0.01619247551812207 0  0.6356214869750945 0.01795201018777745 0  0.634565081009606 0.01625762389145151 0  0.6336226368366785 0.01801984727765856 0  0.6325661735795406 0.01632372324977451 0  0.631623640984172 0.01808326466514616 0  0.6305672470894 0.01638924448853188 0  0.6296248614240408 0.01815324248221523 0  0.6285683534713078 0.01645576277895784 0  0.6276259732846241 0.01821992694791948 0  0.6265694472353427 0.0165218983527704 0  0.6256270649456807 0.01828599873562802 0  0.624570535529812 0.01658786802747779 0  0.6236281523285544 0.01835194076048471 0  0.6225716221996561 0.01665378842518727 0  0.6216290520252787 0.01841219001994601 0  0.6205726773177034 0.01671875181583556 0  0.6196301018846929 0.01847699390941935 0  0.6185737522042319 0.01678431481031155 0  0.6176313667683158 0.01854831976328373 0  0.6165748662228752 0.01685106473282234 0  0.6195161718872211 0.01502134861562521 0  0.6275118315207517 0.01475785850341932 0  0.6415041861486447 0.01429656052491156 0  0.6355074853089787 0.01449419109189956 0  0.8986323144580628 0.08365052597500151 0  0.899689454376166 0.08534781868816617 0  0.8559757567971593 0.03482026613463371 0  0.8425628504818587 0.05259929715940551 0  0.840563969276793 0.05266618458761266 0  0.8395066024622411 0.05096854639898815 0  0.83856508807173 0.0527330720158197 0  0.7212248847247942 0.04452851904603916 0  0.7201673938282598 0.04283095810870179 0  0.8863070911284954 0.04420394185315335 0  0.7192261177893029 0.0445953350618772 0  0.7181687479808574 0.04289769872593949 0  0.7172272215985185 0.04466217254536602 0  0.7161697401398249 0.04296465513560502 0  0.7152283724328607 0.04472899458389665 0  0.7141709985778834 0.04303175042826511 0  0.7132297867152622 0.04479580261165748 0  0.712173284205122 0.04309745640999703 0  0.7171113039668041 0.04119996918761021 0  0.7112318746859215 0.04486239581416997 0  0.7101764953362348 0.04316280428050948 0  0.7092349398824377 0.04492830509674479 0  0.7081784081084508 0.04323300977181792 0  0.7072381839619493 0.04499531979998962 0  0.7061821184214153 0.04330009141938877 0  0.7052421018758671 0.04506203791496472 0  0.7041863043356547 0.04336717230900032 0  0.7071245504726209 0.04153430860509041 0  0.8870016466893462 0.06497642896077675 0  0.8325537494582754 0.08239557036088505 0  0.8316122350677757 0.08416009597772171 0  0.8305548682532106 0.08246245778910015 0  0.8296133538627178 0.08422698340594394 0  0.8285559870481483 0.08252934521732321 0  0.8276144726576559 0.08429387083416287 0  0.8306707206772845 0.08592462159455874 0  0.8265571058430909 0.08259623264554004 0  0.8256155914525679 0.08436075826242252 0  0.8245582246380186 0.08266312007374625 0  0.8236167102474874 0.08442764569063639 0  0.8225593434329715 0.08273000750195725 0  0.8216178290424458 0.08449453311879787 0  0.8205604622279026 0.08279689493014181 0  0.8196189478373954 0.08456142054699901 0  0.8185615810228525 0.08286378235853296 0  0.8176200666323377 0.08462830797523586 0  0.8165626998177905 0.08293066978667778 0  0.8156211854272788 0.08469519540343731 0  0.8145638186127331 0.08299755721497784 0  0.8136223042222164 0.08476208283166328 0  0.8125649374077843 0.08306444464309956 0  0.8116234230171566 0.08482897025983319 0  0.8105660562027464 0.08313133207142337 0  0.8096245418120938 0.08489585768803774 0  0.8085671749975721 0.0831982194995861 0  0.8076256606070349 0.08496274511628218 0  0.8065682937925835 0.08326510692770205 0  0.8056267794019739 0.08502963254445682 0  0.80456941258754 0.08333199435599359 0  0.8036278981969325 0.08509651997269216 0  0.8025705313823882 0.08339888178417099 0  0.8016290169918593 0.08516340740089685 0  0.8005716501773814 0.08346576921230545 0  0.7996301357867897 0.08523029482907232 0  0.7985727689722384 0.08353265664043685 0  0.7976312545817218 0.08529718225726562 0  0.7965738877671014 0.08359954406867928 0  0.7956323733766426 0.08536406968557581 0  0.794575006562095 0.08366643149685485 0  0.7936334921715895 0.08543095711389742 0  0.7925761253570403 0.08373331892507575 0  0.7916346109665375 0.08549784454202111 0  0.7905772441519848 0.08380020635327685 0  0.789635729761483 0.08556473197011073 0  0.7885783629469294 0.08386709378144734 0  0.7876368485564172 0.08563161939828112 0  0.7865794817418682 0.08393398120964723 0  0.7856379673513565 0.08569850682648111 0  0.784580600536807 0.08400086863784763 0  0.7836390861462932 0.08576539425468141 0  0.7825817193317717 0.08406775606606634 0  0.7816402049412342 0.08583228168288612 0  0.7805828381266829 0.08413464349425342 0  0.779641323736171 0.08589916911108234 0  0.7785839569215912 0.08420153092247802 0  0.77764244253111 0.08596605653929444 0  0.7765850757165493 0.08426841835066952 0  0.7756435613260458 0.08603294396761096 0  0.7745861945114891 0.08433530577889504 0  0.7736446801209845 0.08609983139595569 0  0.7725873133064313 0.08440219320713872 0  0.7716457989159295 0.08616671882409074 0  0.770588432101375 0.08446908063534408 0  0.7696469177108712 0.08623360625217769 0  0.7685895508963129 0.08453596806352195 0  0.7676480365058094 0.08630049368036377 0  0.7665906696912504 0.08460285549173464 0  0.7656491553007525 0.08636738110865878 0  0.7645917884861878 0.08466974291995015 0  0.7636502740957014 0.08643426853695083 0  0.7625929072811299 0.0847366303481801 0  0.7616513928906338 0.08650115596507046 0  0.7605940260760693 0.08480351777638558 0  0.7596525116855639 0.08656804339323668 0  0.7585951448710075 0.08487040520459194 0  0.7576536304805004 0.08663493082144211 0  0.756596263665946 0.08493729263281419 0  0.7556547492754369 0.08670181824965707 0  0.7545973824608821 0.08500418006103252 0  0.7536558680703733 0.08676870567787028 0  0.7525985012558196 0.08507106748924627 0  0.7516569868653145 0.08683559310607747 0  0.7505996200507621 0.08513795491745264 0  0.7515411344412719 0.08337342930062394 0  0.7495422532362125 0.08344031672882558 0  0.7486007388457022 0.08520484234566157 0  0.7475433720311507 0.08350720415703262 0  0.7466018576406344 0.08527172977386184 0  0.7455444908260868 0.08357409158523851 0  0.7446029764355688 0.08533861720206612 0  0.7435456096210253 0.08364097901344533 0  0.7426040952305129 0.08540550463027828 0  0.7415467284159645 0.08370786644165169 0  0.7406052140254518 0.08547239205848252 0  0.7395478472109063 0.08377475386986075 0  0.7404893616014185 0.0820102282530252 0  0.7384904803963557 0.08207711568122331 0  0.7375489660058463 0.08384164129806439 0  0.7364915991912924 0.08214400310942623 0  0.7355500872290066 0.08390852721384606 0  0.7344927208191605 0.0822108887731485 0  0.735434232848895 0.0804463646267144 0  0.7334353517225241 0.08051325200590559 0  0.7324938367811697 0.08227777796583666 0  0.7314364700584225 0.08058013972002299 0  0.7304949511224847 0.08234466299998851 0  0.7294375880345854 0.08064702679687602 0  0.7284960735076141 0.08241155235514841 0  0.7274387074874957 0.08071391459563428 0  0.7283802218143407 0.07894938894236828 0  0.7263813407083353 0.07901627642626476 0  0.7254398007997447 0.08078078842734022 0  0.7243824552726683 0.0790831615976689 0  0.7234409183622871 0.08084764385506642 0  0.72238360755283 0.07915005634236169 0  0.721442172065207 0.0809145102134949 0  0.720384961969062 0.07921707173893128 0  0.7194436891888142 0.08098122732967684 0  0.7183866398319175 0.07928413085934921 0  0.7174454891654879 0.08104791941232296 0  0.7163886643569161 0.07935113382579448 0  0.7154477160788482 0.08111459492994155 0  0.7143910491586463 0.07941811103390158 0  0.713450204016893 0.08118128546018968 0  0.7123937537738361 0.07948509053168148 0  0.7114531089832635 0.08124796365050475 0  0.7103967751560663 0.07955202806983799 0  0.7094562343624315 0.08131467464557651 0  0.7084000550779901 0.07961887715195246 0  0.7093404653313061 0.07785628963021989 0  0.7073438563252286 0.07792318309887906 0  0.7064035884751272 0.07968575082268248 0  0.7053474908330337 0.07799017293083556 0  0.7044073052043741 0.07975251124039079 0  0.7033512344934364 0.07805563884911951 0  0.7024111830488646 0.07981896537262667 0  0.701355225890252 0.07812229404521726 0  0.7004154941706844 0.07989190364971263 0  0.6993579086007891 0.0781850519413502 0  0.698419548067728 0.07995903559752067 0  0.6973613535229479 0.07825173935273896 0  0.6964235037669406 0.08001780166821659 0  0.6953682980475246 0.0783249239908765 0  0.6944283997018236 0.08008431788594862 0  0.6933727374940741 0.07838527618622218 0  0.6924332812065046 0.08015466750078359 0  0.6913774918262315 0.07845168761775226 0  0.690438122826712 0.08022199072180297 0  0.6894609323402832 0.07856663728070326 0  0.6884578372341785 0.08029957328223257 0  0.6874291725454578 0.0785076808734957 0  0.6864517518996403 0.08035321543062776 0  0.685403939831547 0.07875708112001191 0  0.6844589291784656 0.08044127154812658 0  0.6834734228870569 0.07878494377912132 0  0.6824719927938505 0.08050417851583497 0  0.6814785203371989 0.07859527270668394 0  0.6804635381136086 0.08055419110847611 0  0.6794242124946762 0.07892591147783586 0  0.6784715374807473 0.08063185205674546 0  0.6774167982948974 0.07893982342616584 0  0.6764752548070607 0.08069165593215442 0  0.6754198226399279 0.07899670211713214 0  0.6744800400248863 0.08075575826137965 0  0.6734248057822418 0.07906145896889438 0  0.6724853602381519 0.08082177977076163 0  0.6714302319256025 0.07912784183718527 0  0.670490874554147 0.08088840148410871 0  0.6694358221696667 0.07919456892999445 0  0.670375094458966 0.07743401373769537 0  0.6683808044206709 0.0775008566753787 0  0.6674415293248255 0.07926133932523066 0  0.6663866196498019 0.0775676733276755 0  0.6654473011044191 0.07932810232311749 0  0.6643924051756502 0.07763448545256013 0  0.6634531141190206 0.07939488691924138 0  0.6623981977865643 0.07770130599332042 0  0.6614589552194934 0.07946167770508472 0  0.6604040606827398 0.07776796022657119 0  0.659464817531023 0.07952846119243885 0  0.6584099326449768 0.07783475057897409 0  0.6574707294637196 0.07959523260408082 0  0.6564571325423527 0.07792373665380582 0  0.6554837182845539 0.07967099689439866 0  0.6544726276393547 0.07804044225100851 0  0.653486186831341 0.07973567607273682 0  0.6524383091689583 0.0780931974618605 0  0.6514913845182481 0.0798061389710942 0  0.6504359693168326 0.07811357026618639 0  0.6494968334485828 0.07986752848897115 0  0.6484404925739644 0.07817173664585469 0  0.6475005747362925 0.07992921146781791 0  0.6464458615803437 0.07823624126744487 0  0.6455065678771941 0.07999609634729343 0  0.6444516336707132 0.07830243247912683 0  0.6435120961660202 0.08006312330926053 0  0.6424568382053101 0.07836889571972541 0  0.6415163885621045 0.08013073164627352 0  0.6404604078794168 0.07843492647421602 0  0.6395192621106598 0.08019803433717525 0  0.6384624683377371 0.07850082848867578 0  0.6375208831565207 0.08026500185902874 0  0.6364636791881241 0.07856721684288426 0  0.635522079159885 0.08033178860413914 0  0.6344648143674336 0.07863391379990343 0  0.633523196531991 0.08039856783982284 0  0.6324659177536015 0.07870034891153013 0  0.6315243081011406 0.08046528043728156 0  0.6304670299456628 0.07876704817805319 0  0.6295254217877786 0.08053202376389151 0  0.6284681324119413 0.07883345038112113 0  0.6275265318528755 0.0805986522746982 0  0.6264692442351515 0.07890013017529522 0  0.6255276452356787 0.08066537833419053 0  0.6244746584722016 0.0789699715897354 0  0.6294099539921357 0.07706787482425857 0  0.6235294770243525 0.08073267105921914 0  0.6224867651403283 0.07899332961101108 0  0.6215325431686047 0.08079228752557112 0  0.6204820090512342 0.07906425298475733 0  0.6195330045792494 0.08085855217422189 0  0.6184756354158587 0.07916076475288075 0  0.6194515182427602 0.07726524932975809 0  0.6174164758420202 0.07747047694086989 0  0.6164751672882863 0.07923370736190033 0  0.6154151585099106 0.0774626401134005 0  0.6144756127797901 0.0792890663341268 0  0.6134157562712615 0.07751506847949456 0  0.6124765297233834 0.07935153889914565 0  0.6114192364821491 0.07765311946386808 0  0.610478194548867 0.07943522951997012 0  0.6094208370563288 0.07773458440670235 0  0.6084792929519801 0.07950150143525787 0  0.6074220299539974 0.07780371522502302 0  0.6064804222305072 0.07956870747660166 0  0.605423160051484 0.0778709460436002 0  0.6063647848376887 0.07610647001907285 0  0.6043659019701724 0.07617330858558131 0  0.6034242772922032 0.07793778788474917 0  0.6023670174338247 0.076240096662158 0  0.6014333130223097 0.07799963495812845 0  0.6003660520967535 0.07630816141075153 0  0.6013304025693611 0.07452143924804361 0  0.5993113309613652 0.07455270110466436 0  0.5983227941694681 0.0764099494131486 0  0.5972128765443235 0.07462491536954441 0  0.598236560792858 0.07273238963498292 0  0.5960446723264581 0.07281796962504633 0  0.6163961272764855 0.07559077685530216 0  0.5961796719873367 0.07652942160892307 0  0.6784085803641874 0.07714373511698036 0  0.6843951380842598 0.07699140539953893 0  0.6903221838143199 0.07676446052860907 0  0.7173288865660146 0.07758615038966887 0  0.6374057851070036 0.0768028035529586 0  0.7233250968818001 0.07738552614548268 0  0.6433972608440373 0.0766217815808633 0  0.6693200111263529 0.07574037248413058 0  0.708284181267033 0.07616059851396802 0  0.6514103512471132 0.07645610627506746 0  0.6574535754086703 0.07624530568748766 0  0.6633375888716553 0.07594092278383688 0  0.7002976256963931 0.07642303679354076 0  0.5971253815617855 0.07083998419538395 0  0.5948222058987291 0.07092603729672622 0  0.6625187540694961 0.081163789271884 0  0.6135341897801628 0.08106124407300727 0  0.7034718341532529 0.08151806756543267 0  0.6525482703262784 0.08149660784917269 0  0.6075376810977349 0.0812663687120056 0  0.6465653264491198 0.08169709858634111 0  0.5959749916847901 0.06889430116974712 0  0.5936358550257331 0.06889801335214105 0  0.5923963946096888 0.07107558644574707 0  0.5982090397382828 0.06892013614686351 0  0.5971250624444561 0.06697004757916425 0  0.6895039912148414 0.0819914800834752 0  0.6974734009830998 0.08171552054178546 0  0.7343768657326852 0.078748726625969 0  0.638578416372474 0.08196275086445823 0  0.6325815924390247 0.08216306448106686 0  0.599277323477257 0.06699772457018241 0  0.5982338497381595 0.06511813444720088 0  0.675542295644522 0.0824542612722426 0  0.6835254928720115 0.0822029416780677 0  0.7224985979779223 0.08261133599371992 0  0.6245861238808257 0.08243007001748326 0  0.5910737568766611 0.06887593406929624 0  0.5897771649790299 0.07130643003785192 0  0.7145064707300858 0.08287753496876592 0  0.7295534339593128 0.08410918931495061 0  0.7464860052165982 0.08180956596840895 0  0.6003230076866838 0.06513072488109377 0  0.5993068582769806 0.0633005858703847 0  0.588381528142357 0.06887624884658522 0  0.586949674350472 0.07149642103772605 0  0.5972059431124013 0.06326092405134015 0  0.6013787304826745 0.06687235580746974 0  0.6023647657626727 0.06511911216442906 0  0.6033834996616571 0.066926713834986 0  0.5982850405224842 0.06141640980990683 0  0.5855038404026072 0.06889655898950459 0  0.583946716136398 0.07154235196673252 0  0.5856423082144839 0.07418264192446705 0  0.5824273698496484 0.07449050315408534 0  0.5805757478455826 0.07144121365152792 0  0.5789665695397943 0.07486090422701897 0  0.5842107373499417 0.07710775308018854 0  1.038325368975286 0.05642498230668003 0  1.039379955191673 0.05811787762935429 0  1.040319502335032 0.05636503993696622 0  1.041373879078519 0.05805195978086515 0  1.042313303079099 0.05629545479940622 0  1.043367775207324 0.05798536515072847 0  1.044307320601349 0.05623259341595591 0  1.045361686785962 0.05791936894701015 0  1.046300995601237 0.05615984937057392 0  1.04735554341568 0.05785187000035411 0  1.048294842310359 0.05609210252131068 0  1.049349416635843 0.05778492246591628 0  1.050288731727486 0.05602529685144364 0  1.051343298913925 0.05771825507696755 0  1.052282679199911 0.0559586326504561 0  1.05333718936577 0.05765161747645618 0  1.054276533137321 0.05589204036574029 0  1.055331066080617 0.05758503841756357 0  1.052400827688612 0.05941128060022433 0  1.056270388776818 0.05582550302201919 0  1.057324939282251 0.05751843848548205 0  1.058264262822155 0.05575893999323223 0  1.05931882535124 0.05745221123815944 0  1.060258199155902 0.05569239344473591 0  1.061312704985756 0.05738535415064272 0  1.062252117784872 0.05562575341600921 0  1.063306588697666 0.05731868352057225 0  1.064245936986818 0.05555920213102018 0  1.065300459581875 0.05725210820430872 0  1.062370686921711 0.05907818182423095 0  1.066239787571175 0.05549267235310702 0  1.067294334761828 0.0571855072923726 0  1.068233666522317 0.05542610927235237 0  1.069288230187279 0.05711935193642975 0  1.070227618211623 0.05535957102845786 0  1.071282122136515 0.05705243919479364 0  1.072221554803103 0.05529291890034981 0  1.073276023128385 0.0569857521398494 0  1.074215389114604 0.05522636411232274 0  1.075269915991389 0.05691917741391817 0  1.072340612083788 0.05874506392346542 0  1.076209263593151 0.05515983377956007 0  1.077263820083538 0.05685256510874778 0  1.078203175764259 0.05509326625327297 0  1.079257754184146 0.05678649543358742 0  1.08019711874859 0.05502677440652873 0  1.081251681288671 0.05671952102769355 0  1.082191074045586 0.05496015176796504 0  1.083245655830755 0.05665367350282156 0  1.084185012111332 0.0548937065774409 0  1.085239618233262 0.05658725059221553 0  1.082307408838539 0.05841218393898528 0  1.278520550170545 0.04323755551839197 0  1.282447832261125 0.04960824143730579 0  0.6043682763795376 0.06511761951373035 0  0.605383748172494 0.06692258539679574 0  0.6944084729231934 0.01429119889775462 0  0.5893695684775579 0.02917427695934586 0  1.086179279379548 0.05482705272303163 0  1.087233642698773 0.05652072235698292 0  0.820676314651926 0.08625905873569356 0  0.5781125499351464 0.02790412063613119 0  0.5761644467531075 0.02440308518603987 0  0.6494955213910079 0.01402899168373089 0  0.6555014479952127 0.01385137105951086 0  0.9245197666631757 0.05676300692108066 0  0.9185263438531099 0.05696243186759518 0  0.8890005278944086 0.06490954153257476 0  1.044424890939861 0.05967807671611423 0  1.03844292269816 0.0598776958458727 0  0.9925785651018447 0.06140958481245412 0  1.260705518831481 0.03877857446264395 0  0.9416569205727576 0.06138667954364919 0  0.7032464102404647 0.0451287513052514 0  0.7021907963083833 0.0434342114232138 0  1.264390960119579 0.05572374676805079 0  0.8612781905352455 0.01384605219197672 0  0.7202967981748734 0.01343192760578537 0  0.8640871340414094 0.03801488022732195 0  0.8416213360913453 0.05436382277624014 0  0.8487911989451382 0.05932296248572267 0  0.889593957582596 0.05275824307767556 0  0.8897079916641278 0.05621943664981488 0  0.8558599043731476 0.03135810232915918 0  0.8568014187636752 0.02959357671233277 0  0.7717425100443257 0.05680295352297627 0  0.7727987594946149 0.05850128714761507 0  0.7718560841695716 0.06026519282580003 0  0.7738550089500911 0.06019962076882866 0  0.7747976842716442 0.05843571509294002 0  0.775853933734462 0.06013404870931192 0  0.8663253092250107 0.01191851817388293 0  0.7231064258477695 0.04100039503865738 0  0.9006307453138425 0.08358382954263668 0  0.9016875980287418 0.08528098748833775 0  0.8106819086266364 0.08659349587665913 0  0.738396820442294 0.01630523227125049 0  0.7373405704694402 0.01460689897247269 0  0.7083335900061292 0.01382913929151445 0  0.8934616992718213 0.07862442305691367 0  0.6156324873089797 0.01861526750713178 0  0.6145759627063799 0.01691728279167371 0  0.8777023555856396 0.08608384869750862 0  0.8757034741199592 0.0861507362885562 0  0.6785862766921827 0.01826424564422603 0  0.5769971089056766 0.07157594407703714 0  0.5752322546189281 0.07501681456060451 0  1.006537661993119 0.0609437057148034 0  0.663491394656216 0.01358089654474724 0  1.035276863654245 0.05479774960242868 0  1.02537767699749 0.05513248989657364 0  0.6686265786963501 0.01858896733369739 0  1.015408289460671 0.05546589813305652 0  1.00543863538255 0.05579932664596193 0  0.9954686199665661 0.05613274701146363 0  0.9843712250863823 0.05476781514601893 0  0.9744001813737168 0.05510059551786572 0  0.9644286598063234 0.0554334722558297 0  0.9544555241484828 0.05576617629426232 0  0.9157000891196292 0.06225150836738737 0  0.9444799182661249 0.05609782462040303 0  0.7575377780564669 0.08317276701596263 0  0.8494863134893041 0.0800959453184108 0  0.6586531146824232 0.01892144664704899 0  0.6406625089691628 0.01952203799559547 0  0.8825607582005155 0.01321128715891464 0  0.8805681090739356 0.01338583534461617 0  0.9045369756436221 0.05743219994252633 0  0.6694660347802777 0.0133864210873556 0  0.8820180733885865 0.01847477376920826 0  0.6063663863311679 0.06506684751341804 0  0.6073826494694494 0.06688781108524944 0  0.6083658168670134 0.06504052734497207 0  0.6093823125267617 0.06686554894840452 0  0.6103657886364044 0.06504097571447914 0  0.6113820705945094 0.06683615712033372 0  0.6123656888539539 0.065024075529622 0  0.6133819589352855 0.06681636544226785 0  0.6143657435558423 0.06502185573820765 0  0.6153814129393602 0.06674742737135098 0  0.8046852650114432 0.08679415816148503 0  0.5163080957078171 0.05697228169457592 0  0.5114456239102956 0.04928680450323349 0  0.7767966090566609 0.05837014303300393 0  0.7778528585208033 0.06006847664850606 0  0.8831655322182492 0.02011285811232397 0  0.8585539001223621 0.05206419773377731 0  0.6049414897399787 0.03108088984262127 0  0.6094952310139354 0.04827343581217803 0  0.8916945617851944 0.08561555876113769 0  0.8951354195673289 0.0387133693418048 0  0.8941254433320414 0.03704100647589166 0  0.8960796986307809 0.03695028137950465 0  0.8950599136200601 0.03515626668432151 0  0.8970132862568161 0.03517646040230795 0  0.8931616697588811 0.0351532715042923 0  0.8687800109956085 0.05865408820373433 0  0.8672445394867712 0.07256963085369916 0  0.8681860538772963 0.07080510523686748 0  0.8634931769229911 0.05016589726051188 0  0.8797012387409529 0.08601696005532601 0  1.189752383765444 0.02083834848720149 0  1.18860401730944 0.01920093972264872 0  1.190596276099013 0.01902514258248801 0  1.189447905895635 0.0173876983045089 0  1.191440165154472 0.01721190561133886 0  1.19029179445521 0.0155744566338832 0  1.188299535212665 0.01575024948132071 0  1.192206503433955 0.01545305066186261 0  1.189143423596532 0.01393700614559891 0  1.187151164377895 0.01411279921949831 0  0.7143100738868893 0.01363159898201447 0  0.8375077212571855 0.05103543382719451 0  0.8365662068666718 0.05279995944402202 0  0.6163655860306706 0.06499564886709031 0  0.6173812409955084 0.06671949355164221 0  0.9015943312849375 0.0592596656484007 0  0.6754381914827482 0.01319263994240449 0  0.8947501450829966 0.08724647195070753 0  1.20568319564074 0.03941541397397553 0  0.5897569715151819 0.06644004640948381 0  0.7416625808400007 0.08717003024711276 0  0.7906930965760105 0.08726237015905586 0  0.726289533137813 0.01323653068151019 0  0.7282885898055858 0.01317087597927866 0  0.6833963490492462 0.01293196706656661 0  0.5961056489939229 0.06138004411133323 0  1.088173120806422 0.05476055856810082 0  1.089227707183079 0.05645417832085309 0  1.08828824885589 0.0582143840170215 0  1.090282305355961 0.05814781274828818 0  1.09122177494117 0.0563875864174887 0  1.092276450175681 0.05808123237745917 0  1.093215937694195 0.05632095130520882 0  1.094270630721142 0.05801458796028577 0  1.095210154750074 0.05625432978383221 0  1.09626483497139 0.05794799284003514 0  1.097204262837718 0.0561877150564473 0  1.098259047552575 0.05788132596091125 0  1.09919852414398 0.056121071373835 0  1.100253331221384 0.05781474045704935 0  1.101192845881208 0.05605443846392073 0  1.102247684897773 0.05774806824828842 0  1.103187334981185 0.05598778644250117 0  1.10424213111824 0.05768147999892197 0  1.105181672207643 0.05592120156317505 0  1.106236606597581 0.05761480362655156 0  1.107176267196728 0.05585453403419597 0  1.108231188420056 0.05754823033329874 0  1.109170878698921 0.05578785873006212 0  1.110225868930319 0.05748152767353164 0  1.111165633026433 0.05572117471583061 0  1.112220673395908 0.05741522827720388 0  1.113160701299844 0.0556545489011034 0  1.114215694352474 0.05734838277069566 0  1.115155528237746 0.05558796621610503 0  1.116210771664751 0.05728163831606446 0  1.117150821749989 0.05552120353126342 0  1.118206056582355 0.05721509626650332 0  1.11914617561914 0.05545444620160742 0  1.120201554920969 0.05714833545986314 0  1.121141831183842 0.05538768158316813 0  1.122197317795366 0.05708236860657633 0  1.123138187978628 0.05532104708377694 0  1.124193533201724 0.05701524915908788 0  1.125133953157421 0.05525449805102153 0  1.126189841145529 0.05695011129853384 0  1.127130778558166 0.05518782848999183 0  1.128186719592422 0.05688381003240806 0  1.129127955616108 0.05512080196044779 0  1.130183985043646 0.05681739278273872 0  1.131125593370084 0.05505390275838039 0  1.132181708550895 0.0567486510257602 0  1.13312334702927 0.05498694169532374 0  1.134179995254498 0.05668196939147334 0  1.135121648910429 0.05492056656223823 0  1.136178722075321 0.05661782686054505 0  1.137119632587482 0.05485407342458168 0  1.138177457622731 0.05655168143776587 0  1.139118624658064 0.05478740699780475 0  1.14017636265896 0.05648514409403838 0  1.141118145914433 0.05472076882424393 0  1.142175400603405 0.05641855614635452 0  1.105298058434578 0.05937466722264681 0  1.115272923950856 0.05904094055442427 0  1.125250277293541 0.05870862840259911 0  1.135242652569368 0.05837801845345714 0  0.7787955338433337 0.05830457097197417 0  0.7798517833077536 0.06000290458730106 0  0.7393394952369846 0.01454132631269864 0  0.7403957452099059 0.01623965961176704 0  0.7966897401911974 0.08706170787415382 0  1.143117166657606 0.05465417410327052 0  1.144174298630311 0.05635197044159723 0  0.9007449617518104 0.08704553200620881 0  0.9027441492801795 0.08697788278629312 0  0.903685365727283 0.0852143426999063 0  0.904741822566555 0.08691090190833575 0  0.9056831543920041 0.08515422640820461 0  0.9067392706963484 0.08684515944373813 0  0.9076804405364522 0.08508482183832902 0  0.9087365984952755 0.08677812257738411 0  0.9096775986903901 0.08502171129845783 0  0.9107322249079115 0.08671423799208369 0  0.9116742663210156 0.08495615252486571 0  0.912727202450127 0.08664814135806431 0  0.9136709477878571 0.08488523765927233 0  0.9147236262248413 0.08658016673608823 0  0.9156671605806133 0.08482234339521588 0  0.9170427404302268 0.08680573183554974 0  0.5742591462011276 0.02770344771969144 0  0.5722174993815292 0.02434884238208227 0  0.5972528785555091 0.05951370298758007 0  0.6486579985254817 0.01925329375083272 0  0.630667749483391 0.0198457911375087 0  0.6226668463192856 0.0201045037447839 0  1.097320053748126 0.05964147633492837 0  0.7806986905507142 0.08759680729982225 0  0.581640258137224 0.02137915712678872 0  0.7012510740153612 0.04519540988682538 0  0.7001957596312455 0.04350094992197698 0  0.7011352386863543 0.04173997451714873 0  0.6991405774587913 0.04180680235227461 0  0.6982010446606838 0.04356760841754407 0  0.6971460614396108 0.04187363943733147 0  0.6962067440807341 0.04363766999956124 0  0.6951517324760081 0.04194111788046102 0  0.69421253374833 0.04370499622021803 0  0.6931575997731214 0.04200813268688808 0  0.6922183455553257 0.04376839823018287 0  0.6911635306100695 0.04207413612840924 0  0.690224373073989 0.04383439826852566 0  0.6891696637470413 0.04214088479341891 0  0.6882289169499575 0.04390566706753819 0  0.687175552495298 0.04220836331593711 0  0.6862339016965586 0.04397278558403941 0  0.6851814834100991 0.04227526172858823 0  0.6842414249091291 0.04403487298664559 0  0.6831893288730555 0.04234201232051932 0  0.6822490910896735 0.04410500863643883 0  0.6811988574356971 0.04240670113912882 0  0.6802560363437103 0.04417196607456333 0  0.6792041676301204 0.04247220193990914 0  0.6782608397402816 0.04423791316653056 0  0.6772064223939007 0.04254085590185169 0  0.676265398456958 0.04430969952759553 0  0.6752118669893543 0.04260882280581921 0  0.6742718935226608 0.04437436988650529 0  0.6732186173561212 0.04267587335526431 0  0.6722782786542668 0.0444398498543002 0  0.6712243706769452 0.04274060408753246 0  0.6702837125259435 0.04450612778828426 0  0.6692304984630837 0.04280600882620129 0  0.6682887130634328 0.04457265867969903 0  0.6672328343105534 0.04287347165026479 0  0.6662926896925307 0.0446395960547797 0  0.6652368414564247 0.04294055553852347 0  0.6642964948416896 0.04470665484766637 0  0.6632404640597436 0.04300714909545562 0  0.6622998657675778 0.04477356062521802 0  0.6612435693180809 0.04307347397814646 0  0.6603025349343985 0.04483951711018419 0  0.6592458053646838 0.04313934646798313 0  0.6583044382711797 0.04490621988589786 0  0.6572473791692665 0.04320574842269624 0  0.6563058568108429 0.04497207295825864 0  0.6552486790630218 0.04327223767574997 0  0.6543070245283591 0.04503860695682599 0  0.6532498229834747 0.04333880922845666 0  0.6523080688053815 0.04510319721478917 0  0.6512509227132084 0.04340490562992996 0  0.6503091657135579 0.04516938479634134 0  0.6492520327038415 0.04347152925011397 0  0.684129985339138 0.04057969729491274 0  0.6741603391651734 0.04091168220962398 0  0.6641811420467842 0.04124359079528647 0  0.7000800002579136 0.04004593911283495 0  0.6561903639439659 0.04150745946033474 0  1.286202162077905 0.04271793777038923 0  1.290568569764929 0.04953146631193257 0  1.089342930838225 0.05990811416355527 0  0.8924043331861015 0.07692678370943651 0  0.8334952638488122 0.08063104474407148 0  0.5075935605884017 0.05649247076566427 0  0.5029909261240736 0.04939376325012559 0  0.499032668273022 0.05699558221277255 0  0.4942894107429431 0.04959218854888618 0  0.648310273095007 0.04523592632895454 0  0.6472531417937986 0.04353812607844775 0  0.7272269182451938 0.04433441352291839 0  0.7303937699123351 0.04942392313277151 0  0.7314516567186105 0.05113669726432821 0  1.143232521329284 0.05811635357450746 0  1.145231414341811 0.05804976798665537 0  1.146173195522215 0.056285384582409 0  1.147230307388517 0.05798318236955805 0  1.148172088035644 0.0562187989930913 0  1.149229198632473 0.05791659685460347 0  1.150170979518478 0.05615221346409253 0  1.151228089950784 0.05785001133518929 0  1.152169870841936 0.05608562794440665 0  1.153226981241236 0.05778342581738864 0  1.154168762134192 0.05601904242653083 0  1.155225872528141 0.05771684029982417 0  1.156167653420658 0.05595245690899611 0  1.157224763812989 0.05765025478264041 0  1.158166544705816 0.0558858713915924 0  1.159223655097915 0.0575836692655277 0  1.160165435990763 0.05581928587421847 0  1.161222546382827 0.0575170837479145 0  1.162164386534044 0.05575447928782868 0  1.163221447544135 0.05745079471869513 0  1.164163289341418 0.05568823967360785 0  1.165220342395518 0.05738431626650649 0  1.166162182133512 0.05562169940153666 0  1.167219234526262 0.05731775613476427 0  1.168161035082701 0.05555396304909692 0  1.169218119562989 0.05725098304325932 0  1.170159957165072 0.05548830206751545 0  1.171217014939224 0.05718452035218942 0  1.172158853711127 0.05542187449038782 0  1.173215907782747 0.05711798162837323 0  1.17415774613266 0.05535532309526018 0  1.175214799516857 0.05705140959691585 0  1.17616702274029 0.05528245591677156 0  0.7382832452640758 0.01284299301370109 0  0.7729123336259126 0.06196352644642878 0  0.9176998619707254 0.08480936895487187 0  0.9190099810181662 0.08630618059784968 0  0.6166890184300373 0.02031344993603545 0  0.692104093582519 0.04031269790266729 0  0.6481949015253659 0.04177373258304132 0  0.6461960109550491 0.04184034024833494 0  0.6452542512788173 0.04360473465410359 0  0.6441971204518042 0.04190694933526287 0  0.6432553731765688 0.04367171578793353 0  0.6421982320285285 0.04197362075216569 0  0.641256485099959 0.04373839759316421 0  0.6401993422895248 0.04204025266929604 0  0.6392576171571732 0.04380568359162518 0  0.6382004556868688 0.04210697870200062 0  0.6372587310772423 0.04387242531025941 0  0.6362015665840816 0.04217362970733068 0  0.6352578408184979 0.04393926782853169 0  0.6342023430348058 0.04224028500803801 0  0.6332609083659897 0.04400439174702046 0  0.6322037233788211 0.04230665459134066 0  0.6312611153631771 0.04407446892521364 0  0.6302047276133314 0.04237380209836467 0  0.6292628032464541 0.04413387040446318 0  0.6282059159772726 0.04243929997618238 0  0.6272641417970607 0.04420170791757091 0  0.6262070768073424 0.04250592892143946 0  0.6252651749079308 0.04426580181387636 0  0.6242081821418091 0.04257212244180359 0  0.7706862605759228 0.0551046199102899 0  0.5302902721488995 0.04238604279940821 0  0.8959533808984191 0.03348251757063055 0  0.8979566585198439 0.03353375414316515 0  0.8811731748993696 0.02028753687824437 0  0.8823206340924467 0.02192562454243995 0  0.894403214269691 0.0768598964743771 0  0.5731293920628897 0.07161262738732498 0  0.5712239481307059 0.07530893569837516 0  0.6103448566715433 0.06874254358307547 0  0.8548025375586132 0.02966046414052051 0  0.8557440519491385 0.02789593852369644 0  0.8577429331542015 0.02782905109550849 0  0.8566855663396661 0.02613141290687128 0  0.8586844475447293 0.02606452547868131 0  0.8576270807301944 0.02436688729004649 0  0.7707042845254174 0.08793124444111125 0  0.8355088400521288 0.0511023212553907 0  0.834567325661614 0.05286684687222102 0  0.8356246924761518 0.05456448506085558 0  0.8336258112710923 0.05463137248904634 0  0.834683178085625 0.05632901067768242 0  0.8326842968805639 0.05639589810586634 0  0.8316269300660295 0.05469825991723611 0  0.8306854156755029 0.05646278553405807 0  0.8296280488609612 0.05476514734542502 0  0.8286865344704425 0.05652967296225387 0  0.8337416636950949 0.05809353629450498 0  0.5282259363673563 0.06100239009198652 0  0.4902560077390375 0.05744308472828398 0  0.4852197665626437 0.04981187545466068 0  0.61836549583829 0.06497665206323938 0  0.619381142615834 0.0666995954517105 0  0.8905297194433325 0.01251327365421916 0  0.8925209245518639 0.0123387506168131 0  0.8936679083747516 0.01397538633422182 0  0.8945103683274291 0.01216175078962876 0  1.227246870191341 0.05390547039623015 0  1.229345393857499 0.05758275564491241 0  0.7607098785001292 0.08826568158204645 0  0.5702491911355544 0.02793143646725316 0  0.5678874275978117 0.02411872423029478 0  0.5657864185729358 0.02834448246058429 0  0.5632996367639509 0.02427628238453021 0  0.5993825130473491 0.05960471041959537 0  1.203481699086818 0.0245809333510391 0  1.205787040324483 0.02433761648665015 0  1.204405224357439 0.02235899107969119 0  1.206806857790391 0.02216114637813224 0  1.205379089619134 0.02011701739537444 0  1.20783707453238 0.01994088143247081 0  1.209359869920085 0.02201734617348215 0  1.210497342624189 0.01979695539564134 0  1.212111818155813 0.02189499303503673 0  1.206477456131433 0.01792982422848111 0  1.213380075957495 0.01941499360773491 0  1.215060879008179 0.02168187282195493 0  1.216365541059419 0.01894826421254697 0  1.218337738965357 0.02164080876060042 0  1.203979284249168 0.01812634720664244 0  1.205074444261838 0.01596678199999714 0  1.202553740873422 0.01623952228226926 0  1.203519085690485 0.014148840847773 0  1.201296565395355 0.01441056874215534 0  1.205778068717726 0.01359356803021443 0  1.219904213306349 0.01806008130123703 0  1.221744961839615 0.02129460979374399 0  0.6146901135172372 0.02037962564312501 0  1.187995052738681 0.01229955566504413 0  1.186002793517947 0.01247534871920584 0  1.294601773456288 0.04205890233598598 0  1.29890960914037 0.04930186598006476 0  1.303245644488903 0.04170699781685371 0  1.307716168447632 0.04905406322553525 0  1.220264026355177 0.02460330755195557 0  1.223756646367552 0.02425252470829931 0  1.22549615462 0.02090341131389969 0  1.227793506816439 0.02457113634999781 0  1.177222753203741 0.05697921456379185 0  1.178176914699762 0.05521154841267251 0  0.9384934825675182 0.05629746029277905 0  0.8787597224736344 0.08778148684181122 0  0.8807586037674661 0.08771460169202618 0  0.7055170454930304 0.01910488633070696 0  1.225117452699509 0.05763467458981911 0  1.227189053555292 0.06123908900897834 0  1.223156878365028 0.06121259253229869 0  1.225325989653786 0.06487293909596077 0  1.229897449954045 0.06484755749582945 0  1.221293548094327 0.06470514987334794 0  1.223155691828425 0.06805052604687492 0  1.219417896847441 0.0680284476971353 0  1.221192862060446 0.07117975210121016 0  1.217669998113185 0.07120779494413235 0  1.219406588005035 0.07430452067962508 0  1.215940923245284 0.07422225839850907 0  1.223026324069982 0.07414719719944363 0  1.214358852716193 0.07141644412810139 0  1.212762161128019 0.07426000052619722 0  1.214177957690617 0.0769645905625771 0  1.211154629046678 0.07686119954368233 0  1.209759077036051 0.07434748826902127 0  1.208321738217207 0.07677823643088091 0  1.206927103611727 0.07443047507615819 0  1.205669268778207 0.07665309646928173 0  1.204446079504487 0.07451875031163258 0  1.203240563135132 0.07655553648977792 0  1.202122252407337 0.07457039366441195 0  1.201022899752836 0.07645518733779316 0  1.20204577649634 0.07841838481672103 0  1.199915847919174 0.07830522530490441 0  1.200857455491306 0.08017869948938952 0  1.198825543595522 0.08011939577220203 0  1.197857212102513 0.07832419975883254 0  1.196807061149008 0.08008209062947581 0  1.195849089921316 0.07831829798650504 0  1.194807584981363 0.08003324589692531 0  1.195765474308073 0.08178991039012444 0  1.193766459802486 0.08174203362289517 0  1.192807996949002 0.07998699623782593 0  1.191767086024597 0.08169464022985841 0  1.190808552685412 0.07993972648771573 0  1.189767650216515 0.08164713913542609 0  1.194725017336343 0.08349757121710862 0  1.188814869467754 0.07989531299352597 0  1.187774917264729 0.08160361621161924 0  1.188727856361995 0.08335551825553625 0  1.186728609546774 0.08330806772895109 0  1.185794783997445 0.08149814575204253 0  1.184732423023741 0.08325088354667076 0  1.183778100954911 0.0814793933548258 0  1.182728438119134 0.08321215281962789 0  1.181771373248055 0.08145264519141042 0  1.180729246950432 0.08316389262782278 0  1.179772012925574 0.08135593109091886 0  1.178729865513358 0.08310801940887462 0  1.177772599777092 0.08129878903409425 0  1.176730443560541 0.08305747269265712 0  1.175771611714759 0.0813141100436654 0  1.174730752369468 0.08301989090462915 0  1.1737719200814 0.08127738859958823 0  1.17273123237685 0.08297579619569036 0  1.171772694535991 0.08122103077695178 0  1.170731818598626 0.08292734327018345 0  1.203160053335359 0.07260384952843932 0  1.200949765882413 0.07266350530446024 0  1.201931557338655 0.07081483555793273 0  1.169773298460166 0.0811718514820178 0  1.16873239410107 0.08287936039653271 0  1.199878319552385 0.0708231814629824 0  1.167808328273752 0.08115327168104297 0  1.166738705465192 0.08283655578052729 0  1.165850314470693 0.08121996745971227 0  1.164797300859059 0.08284792721253732 0  1.165703638611946 0.08455086781360058 0  1.163705178308069 0.08450439060471196 0  1.162766417045397 0.08280502085819691 0  1.161693184563947 0.08444426802036686 0  1.160709479274976 0.08271703812305138 0  1.159689553325618 0.08440138745043022 0  1.158730330277114 0.08264682438819511 0  1.15769377035126 0.08434947163260161 0  1.156734885426533 0.08259475862584433 0  1.155694663637451 0.08430077626436357 0  1.154736309347692 0.0825462327993412 0  1.153695408671645 0.084253631626727 0  1.15273690928124 0.08249859835291698 0  1.151696009963816 0.08420612486066215 0  1.150737486630309 0.0824510306472718 0  1.1496965835488 0.08415856827847297 0  1.148738055597434 0.08240346576239388 0  1.147697153178829 0.08411091727644796 0  1.146738203040436 0.08237351783031754 0  1.145697649835783 0.08406627328385782 0  1.144738687535212 0.08232937500596474 0  1.143698192581092 0.08401967741168345 0  1.142738746133286 0.08230312769984122 0  1.141698680802969 0.08397536983377302 0  1.140739214414725 0.08225965771559463 0  1.139699207523076 0.08392944310442009 0  1.138739262255282 0.08223386040631479 0  1.137699669574765 0.08388623447237184 0  1.136739724382104 0.08219064857918992 0  1.135700200749298 0.08384012022560279 0  1.134741671436291 0.0820850182172177 0  1.133700990932201 0.08378311862056594 0  1.132740344663089 0.08211700226956409 0  1.131701278645266 0.08374723819153569 0  1.13074054863118 0.08208464203653901 0  1.129701704081677 0.08370413340114607 0  1.173689790260892 0.08472966555253834 0  1.179688182955028 0.08487074851255939 0  1.209612458600025 0.07921953898326753 0  1.185687363549983 0.08501371194811713 0  1.128743190311574 0.08194957635091575 0  1.127702594034526 0.08364265930711896 0  1.126744174624427 0.08188515494068901 0  1.125703395131989 0.08358986735792401 0  1.12474499103358 0.08183382763327218 0  1.123704373633923 0.08354069300305492 0  1.124662559731821 0.0852954859131464 0  1.122663920015243 0.08524752940511746 0  1.121705761145111 0.08349293362361204 0  1.12066562688379 0.08519974337895317 0  1.119707729071847 0.08344566966708578 0  1.11866768035114 0.08515209669915694 0  1.117709974772699 0.08339831951171886 0  1.116670109233906 0.08510447250115212 0  1.115712516833472 0.08335095171652238 0  1.114672761780231 0.08505687673313234 0  1.113715306794823 0.08330357133242172 0  1.112675697540177 0.08500930165357479 0  1.111718328469189 0.0832561917649365 0  1.110678812368724 0.08496172610068627 0  1.109721545924385 0.08320880154634697 0  1.108682120556839 0.08491420884237084 0  1.107724936714101 0.08316141444682207 0  1.106685607152071 0.08486669291977812 0  1.105728478704334 0.08311399666801357 0  1.104689203714705 0.08481918521026387 0  1.103732145062725 0.08306606178196081 0  1.102692938624124 0.08477160240011317 0  1.101735919596508 0.08301857751715988 0  1.10069676634518 0.08472408950818555 0  1.099739795962968 0.08297168259878769 0  1.098700677443454 0.08467670732146518 0  1.097743754775996 0.0829243809855697 0  1.096704774907913 0.08462991047101365 0  1.095747803068346 0.08287710794158748 0  1.094709069460567 0.08458295590819351 0  1.093751977567325 0.08282866217373397 0  1.092713154874402 0.08453475511244499 0  1.18984881422169 0.07828592557797381 0  1.138658053900287 0.08563013679952969 0  1.091756137065544 0.08278096989815954 0  1.09071713119805 0.08448675579969991 0  1.152654536705713 0.08596178075340104 0  1.20086528199508 0.06899871157061636 0  1.202943763548652 0.06909571097344251 0  1.198823916661789 0.06907009292920196 0  1.130660536780828 0.08544073950346995 0  1.089760288015059 0.08273456804712677 0  1.088721298958391 0.08443945341889174 0  1.087764527965162 0.082687353556612 0  1.086725595940794 0.08439198754772428 0  1.08576882415289 0.08263998572089851 0  1.084729921218589 0.08434454720835027 0  1.083773161650241 0.08259257978407485 0  1.082734278447338 0.08429713092333652 0  1.081777535794518 0.08254516537485734 0  1.080738655050395 0.08424971001674095 0  1.144656799574388 0.08577151573197775 0  1.081695392899007 0.08600169432407023 0  1.079699754769521 0.08595425028095162 0  1.078743025898998 0.08420226322118694 0  1.07770412954194 0.08590679822558808 0  1.07674742790829 0.08415483690972032 0  1.075708535203572 0.08585904673295211 0  1.074751814549267 0.08410738600197941 0  1.073712948976122 0.08581154271924699 0  1.072756243081681 0.08405990321898618 0  1.071717381232818 0.08576410898513523 0  1.070760679018252 0.08401251323021033 0  1.069721822033738 0.08571684103048438 0  1.068765163443666 0.08396507265803123 0  1.067726292038532 0.0856692668382831 0  1.066769599465465 0.0839176385852279 0  1.065730759578297 0.08562183383602817 0  1.064774087484809 0.08387019717386054 0  1.063735236609291 0.08557452779795321 0  1.06277862012261 0.0838227798026643 0  1.061739740056955 0.08552698525137875 0  1.060783124605654 0.08377532887016678 0  1.059744241618752 0.0854795564639363 0  1.058787643970878 0.08372790061434565 0  1.057748735089083 0.08543222212320209 0  1.056792153316055 0.08368048220055427 0  1.055753259909785 0.08538470871724736 0  1.054796583020589 0.08363301051143097 0  1.05375776452231 0.08533728243383683 0  1.052801103027937 0.08358557219917868 0  1.051762284876282 0.08528984262814257 0  1.050805612117519 0.0835381246380458 0  1.04976680814918 0.08524243096890123 0  1.048810147167337 0.08349069226696594 0  1.047771339447596 0.08519499520756769 0  1.046814689581792 0.08344325632598611 0  1.045775874776897 0.08514758640963895 0  1.091675545017279 0.08624096942951735 0  1.09766213290604 0.08638234433456354 0  1.158652839554203 0.08610447951946772 0  1.164655166559977 0.08625118222081674 0  1.147779531755156 0.08064818246863441 0  1.105646763209458 0.08657312444657958 0  1.110760240108457 0.08150109578829412 0  1.111636646506729 0.08671538113526489 0  1.054715091244377 0.0870889281247782 0  1.044819225544115 0.08339581751831791 0  1.043780412767666 0.08510013336765099 0  1.139781794623852 0.08045791744719358 0  1.119626233563305 0.08690686912513025 0  1.182870344637196 0.07953788040719499 0  1.042823786042188 0.08334835742494934 0  1.041784956347865 0.0850527170602251 0  1.04082836551275 0.08330083416620541 0  1.039789494138824 0.08500533636967392 0  1.038832850849325 0.08325350092637418 0  1.037794039994086 0.08495788430386852 0  1.04074632444654 0.0867571185631961 0  1.036837406039344 0.08320606980796837 0  1.035798588287961 0.0849104583689549 0  1.159808993693328 0.08107885384133406 0  1.046732910175093 0.08689932020392295 0  1.118749510913408 0.08169067171069219 0  1.076665962880863 0.08761077532831031 0  1.201847114963497 0.06716785707872046 0  1.10077801141536 0.08126451368728232 0  1.176852564455114 0.07950145017995607 0  1.197849042033463 0.0708345507767453 0  1.196812571043333 0.06910999609757364 0  1.195876773305036 0.07083991192883667 0  1.153734963234344 0.08058306723763817 0  1.071799539345116 0.08230805674430736 0  1.034842035575216 0.08315838905136974 0  1.033803122455579 0.08486297189355563 0  1.034759776036684 0.08661488029923828 0  1.032764272111682 0.0865674339713301 0  1.031807614864344 0.0848155415000276 0  1.030768759983213 0.08651997112465776 0  1.029812117623745 0.08476791929448609 0  1.028773252376046 0.08647244897392228 0  1.027816610522298 0.08472041613242239 0  1.026777743873623 0.08642496506206961 0  1.025821107013738 0.08467310032369293 0  1.024782236912615 0.08637749479013632 0  1.023825600009172 0.08462565689154397 0  1.022786729552025 0.08633002948542551 0  1.021830123440137 0.08457781905708106 0  1.020791228101812 0.0862824753867342 0  1.019834698811149 0.08452962710821965 0  1.018795738021654 0.08623477891081717 0  1.017839169090054 0.08448237269677789 0  1.016800221566994 0.08618747193610474 0  1.015843587613098 0.08443531326426774 0  1.014804707653702 0.08613999044028253 0  1.013848066791404 0.08438790984320221 0  1.012809196556468 0.0860925302810331 0  1.011852591673366 0.0843389503657815 0  1.010813693535485 0.08604479039985814 0  1.009857089237236 0.08429118703292389 0  1.008818186214978 0.08599722713698113 0  1.007861608646694 0.08424248691739773 0  1.006822681632021 0.08594951347465415 0  1.005866103510774 0.0841947705179332 0  1.004827175723877 0.08590178634252955 0  1.003870530261427 0.08415018439199369 0  1.00283164872335 0.08585491923475526 0  1.129738870853361 0.08041226124172435 0  1.060701765748328 0.08723113556147288 0  1.007778395697932 0.08770176819715815 0  1.066688492889297 0.08737334581149088 0  1.168858665158366 0.0795196923242778 0  1.221164963163153 0.07749363913553159 0  1.224993203204747 0.07738305669583165 0  1.204045714661871 0.06718534661624291 0  1.063817401176644 0.08211834644946917 0  1.001874989059097 0.08410349578937175 0  1.000836120433932 0.08580792810222213 0  1.001792078801627 0.08755954938232624 0  0.9997968617935957 0.0875122020702479 0  0.9988404177434698 0.08576040771885921 0  0.9978015498899603 0.08746482235950122 0  0.9968449570862938 0.08571292691035151 0  0.9958060339937418 0.08741734949610797 0  0.9948493789820053 0.08566542720248684 0  0.9938104621239974 0.0873698746340788 0  0.9928537973014584 0.08561793195294716 0  0.9918148784857426 0.08732238316499655 0  0.9908582310308358 0.08557043964073925 0  0.9898192923084996 0.08727490543079204 0  0.9888626436695118 0.08552294444403136 0  0.9878236999368687 0.08722740526794377 0  0.9868669932127992 0.08547541091199704 0  0.9858280924080471 0.08717991703218747 0  0.9848713605929764 0.08542788959207084 0  0.9838324818588974 0.08713242288631393 0  0.9828757899069807 0.08538041322571982 0  0.9818368765420309 0.08708493142704977 0  0.9808802069771394 0.0853329316208199 0  0.9798412652590376 0.08703743970670044 0  0.9788845856480028 0.08528543336725097 0  0.9778456415311002 0.08698994474716162 0  0.9768889587992258 0.08523793051529835 0  0.9758501138549829 0.08694239145791882 0  0.9748933396401123 0.08519041580575418 0  0.9738546958423343 0.08689506160660859 0  0.9728977323320407 0.08514293557930148 0  0.9718589812933358 0.08684765818797005 0  0.9709020698731523 0.08509544887115607 0  0.9698631015072353 0.08679999800545546 0  0.9689063602046366 0.08504790621836149 0  0.9678673836014424 0.0867524668922465 0  0.9669106856797081 0.08500039592729904 0  0.9658716899937496 0.08670496041719192 0  0.9649149785934448 0.08495288523553875 0  0.9638759857092755 0.08665746293619615 0  0.9629192692327313 0.08490537408302437 0  0.9618802916035514 0.08660995232882085 0  0.9609235562083629 0.08485786038506976 0  0.9598846103053009 0.08656257866233602 0  0.9589278214832619 0.08481035854844277 0  0.9578888488494954 0.08651511763512128 0  0.9569320574938763 0.08476283625129431 0  0.9558930259347966 0.08646753038674274 0  0.9549362837650419 0.08471531958882357 0  0.9538972261797136 0.08642001220426616 0  0.952940486530401 0.08466778540165806 0  0.9519014273016384 0.08637246976449636 0  0.9509446729295222 0.08462020258321637 0  0.9499056018240009 0.08632503389821453 0  0.9489488315526611 0.0845726988421972 0  0.9479097480236975 0.08627754619924166 0  0.9469525172556503 0.08454397622082467 0  0.9459137905478611 0.08623314834952733 0  0.9449565329851689 0.0845000956303857 0  0.9439178466047553 0.08618677173540075 0  0.9429623692383502 0.08437817571780988 0  0.9419221826022113 0.08612701706726217 0  0.9508623440813517 0.08807743625338391 0  0.9568498246681754 0.08821979164651647 0  0.9699453420111508 0.08334337396735203 0  1.090798523572675 0.08102588076487569 0  0.9409667428532591 0.08431620027224147 0  0.9399262935556858 0.08607507378303976 0  0.9390013116723376 0.08425817210331935 0  0.9379353850159289 0.08602507370611019 0  0.9370672726711812 0.08418279264836248 0  0.9359503764433114 0.08597858387322339 0  0.9368944468903861 0.08774004299313176 0  0.9348980928750162 0.08769423006800678 0  0.9339378559747824 0.08594493365984422 0  0.9328992059779401 0.0876493379856062 0  0.9319418162081835 0.08589731662992947 0  0.9309026023931042 0.08760227846779292 0  0.9299455591300096 0.0858498823207397 0  0.9289062971325253 0.08755488982297756 0  0.927949300032638 0.08580233493910203 0  0.9269100261189334 0.08750741590428346 0  1.0157607086177 0.08789188756573557 0  1.021747441756939 0.08803439412279834 0  1.055835407856569 0.08192861770207284 0  0.9708203583922592 0.0885525481893108 0  0.6793120580266311 0.04594564516640268 0  0.6693426270167193 0.04627564215449847 0  0.6892802950830608 0.04560912836732804 0  0.6975536075092088 0.01936763447520251 0  0.6613597816969794 0.0465431344921245 0  0.7154785942099535 0.01877680368836739 0  0.8956578831063805 0.01379947180323622 0  0.8964978303810202 0.0119837428610732 0  0.8976468243650584 0.01362386621987807 0  0.8984876625057705 0.01181088869385994 0  0.8996350074145344 0.01345222316720839 0  0.900478015695967 0.01163692331059889 0  0.9016238208251522 0.01327799867946822 0  0.9024664891116954 0.01146250510350615 0  0.9036124166237528 0.01309954282936917 0  0.9044542990835774 0.01128599846891315 0  0.9055998260821695 0.01292380595413805 0  0.9064417294073952 0.01111088046143112 0  0.9075871032163884 0.01274872723382833 0  0.9084268258648394 0.01093208592266975 0  0.9095738346950983 0.01257316090856402 0  0.9104096510472366 0.01074704555272182 0  0.9115576803399601 0.01238715747187772 0  0.9107184723043883 0.01420588417535369 0  0.9127054692331831 0.01403085200884853 0  0.9135412815306994 0.01220415487757624 0  0.914691836790564 0.01385451473545997 0  0.9155350609556262 0.0120503353979483 0  0.9166796874824131 0.01368282856955141 0  0.917521361009388 0.01187118744477303 0  0.91866646479453 0.01350770345713064 0  0.9195079310397953 0.01169558322764132 0  0.9206530385441748 0.01333258048462996 0  0.9214933651939328 0.01150826685205405 0  0.9226393229768257 0.01315547763830917 0  0.9234795803101346 0.01133097571638358 0  0.9246256367262468 0.0129798247368183 0  0.9254815613226035 0.01109756325117086 0  0.9266145191121168 0.01279498566050297 0  0.9274790263930452 0.01083176922507065 0  0.9286030310990852 0.01260326268545171 0  0.9294532288560957 0.01071353353831742 0  0.9305875540682393 0.01243495505240337 0  0.9314289004866945 0.01062875536938104 0  0.9325707079116028 0.01228409229959963 0  0.9334126835622105 0.01047293655506742 0  0.934556778447032 0.01210854551033965 0  0.6895911631704411 0.01963002118145324 0  0.9216920250156149 0.06205332359470445 0  0.919576976712789 0.0845138425845596 0  0.7023064743097324 0.04689007370755542 0  0.7102909152730873 0.04662516072141319 0  0.9118638999127968 0.01584102051410437 0  0.9428788475195858 0.08788725317862278 0  0.6595039130886 0.01371333474117938 0  0.7131140151450795 0.0413340631998441 0  0.6678523479408336 0.02728401675212826 0  0.91322145067334 0.04159957895723913 0  1.16510499945344 0.05392173144840928 0  1.175123135231636 0.05358122816409622 0  0.6798274031387366 0.02689406452987196 0  0.6794175769174486 0.01306228743914376 0  1.143051932308408 0.02667883449599998 0  1.135660127372067 0.0221293469168787 0  0.9257706378085766 0.01461648646603998 0  0.6983902872386332 0.01414829272450404 0  1.116602266080724 0.06766227970634188 0  0.7185012105858665 0.08274453751549904 0  1.123621948470369 0.08700217028133314 0  0.8905928207010956 0.02467789515796764 0  0.8886003031208142 0.02485245643209645 0  0.8897479173536229 0.02649064172163743 0  0.8877554087345263 0.02666523115638689 0  0.6278356665983191 0.05805879079337471 0  1.119800794008539 0.07282216864484889 0  0.9117032256095042 0.06238545548731936 0  0.9145300328296374 0.05709451569900122 0  1.115631160144997 0.08681123425436815 0  1.106615866438076 0.0679933352773352 0  0.7076992291173357 0.05884661503950241 0  0.6496329657767015 0.05386733641386268 0  0.9401622297007535 0.04252033591631309 0  0.6386176003756086 0.05250810951584892 0  0.9103719686654805 0.04683742418834528 0  0.7042882999671385 0.07628075691802216 0  0.6957219289204331 0.05924174308746928 0  0.6967773496931351 0.06093640168298271 0  0.6947661177351053 0.06099455950170849 0  0.6958347581122533 0.0626962587427826 0  0.6938231721349314 0.06275417205937853 0  0.6948939008802484 0.06445696756564367 0  0.6928986160571464 0.06452347522123998 0  0.6968916985388558 0.06439175981154394 0  0.6959520450211016 0.06615315811286207 0  0.6979478596428976 0.06608683285576325 0  0.6970080383324776 0.0678483362694573 0  0.6990035763932948 0.06778173090291392 0  0.6943087910248283 0.07660955466003917 0  0.9562086224049658 0.04186726860677829 0  1.096641302907157 0.06833282954301814 0  0.9285122039650165 0.05662945360187382 0  0.6743152067618983 0.07742301763677005 0  0.710512340661906 0.08301053278207025 0  0.9316779150949915 0.06171575701926391 0  1.114754390158112 0.08159591713773535 0  0.9761508516747552 0.04122488085972086 0  1.122042623645025 0.02681129111638143 0  1.080679922279294 0.06884707494149624 0  0.9323754343676223 0.04610994714157186 0  0.9664390240988596 0.02146166197045867 0  1.072702823159478 0.06912360159061456 0  1.046056398031563 0.04230645804697891 0  1.067967415107721 0.04161340689287712 0  1.06273102202666 0.0694677882530394 0  1.108918949366546 0.04193751363593359 0  1.118854653734667 0.04160595261300893 0  1.151802564976857 0.04223064259275136 0  1.140779596229544 0.04087210808440855 0  0.9584443121430073 0.0556325496499363 0  1.019325340360693 0.05533018449217914 0  1.029295095684913 0.05499741524207626 0  1.009355353373731 0.0556629457795902 0  0.9993850565062806 0.05599569427881602 0  0.975909573157217 0.07064148322968489 0  0.9748544806964095 0.06894736997505771 0  0.9768491417700711 0.06888066811982479 0  0.9757940764563413 0.06718660687933203 0  0.9777887066716328 0.06711991807340617 0  0.9737994285505068 0.06725328106334642 0  0.9484697997154736 0.05596467140440102 0  0.9684169475895106 0.05530000005399642 0  0.9783886509746975 0.05496736771202573 0  1.052758225831729 0.06979712083446372 0  0.918156732080731 0.07603358976744626 0  0.6749653556184532 0.0322285298773352 0  1.030818357472117 0.07053565112785337 0  1.022836905075989 0.07079379454755926 0  1.012865468056179 0.07112601317694182 0  1.002892194043399 0.07145869051782763 0  0.9456456414504678 0.06125586964296825 0  0.9869385922599718 0.07198510867956776 0  0.989449843364522 0.05631688472788156 0  1.171866833619127 0.04154972219296563 0  1.101654249217933 0.08647720401681924 0  0.7248435208898397 0.03061164335094921 0  0.6948506767938518 0.06814768078387204 0  0.9453375252254015 0.04741080037947215 0  0.6934937739891087 0.08185062379466054 0  0.9556199560471319 0.06092822687565072 0  1.048483295540912 0.02116768837250757 0  1.031450510545922 0.02093718988775958 0  0.9619445310311421 0.07110610749864527 0  0.9953981454092032 0.02065053619548555 0  1.112112179290912 0.02769089094412447 0  0.7236913447768908 0.02544552833496242 0  1.139234579939773 0.05824708830457759 0  0.6334077622905756 0.07693537541617952 0  0.6455020734541879 0.0141647786380882 0  0.8978442911853415 0.06630380328047245 0  0.9048803000641229 0.06781231277190305 0  0.6254204627207389 0.07720777657090719 0  0.6156149109116125 0.05152546134502842 0  0.6285837565857146 0.08229653560999636 0  1.17976325459797 0.04129252151820256 0  1.178759226456344 0.03962321086990375 0  1.180707927270203 0.0395290633235905 0  1.179651133821964 0.03783156238995641 0  1.181641739582739 0.03776021614605153 0  1.177786353685685 0.03791812213771076 0  1.180583136074542 0.03606181704860742 0  1.182582043664137 0.03604256284791119 0  1.183637738324643 0.03769972263072564 0  1.184580450348093 0.03598472455287581 0  1.185636061524332 0.03763545365329997 0  1.186579276203365 0.03592327382440514 0  1.187634841995534 0.03756995335994932 0  0.7362843204965094 0.01290856567344733 0  0.7875209961323849 0.08216945559284455 0  1.183736443534771 0.07061569211697347 0  0.7866953341659146 0.08739614501524087 0  0.8266729582670904 0.08605839645114367 0  0.7775265901070509 0.08250389273388332 0  1.136589302879318 0.06699220970753739 0  1.134659565229488 0.08553632973078913 0  0.7363757468743555 0.07868183923724201 0  0.7353183799989575 0.07698420108651369 0  0.7373172611833108 0.07691731367119267 0  0.7362598943551785 0.07521967549102503 0  0.7342610131478408 0.07528656292066301 0  0.7352025275322629 0.07352203730760784 0  0.7332036463257948 0.07358892473670625 0  0.7382587755545396 0.07515278806636769 0  0.7341451607150399 0.07182439912064405 0  0.7321462795095376 0.07189128654914836 0  0.8665347299443354 0.08125848408145109 0  1.191037783206401 0.04957489107750725 0  0.8797231629765531 0.01519858635213224 0  0.8785757051228746 0.01356049668331668 0  0.8777307963360417 0.01537326457918706 0  0.8765833388592339 0.01373517611717747 0  0.8774282365439815 0.01192240259156422 0  0.8754358782632724 0.01209708607347478 0  0.7373051944012687 0.04406436262582573 0  1.18998731195771 0.01212376259479169 0  0.6155183472328984 0.01515325025561579 0  0.6135194352108557 0.01521921033012784 0  0.6144618192552206 0.01345516316972181 0  0.6124629057352273 0.0135210778094495 0  0.6115205222315613 0.01528514136996792 0  0.6104639920422981 0.01358698720383653 0  0.6095216085098101 0.01535104989013007 0  0.6084650781968033 0.013652891970723 0  0.6134052894495767 0.0117570206391878 0  0.6075226946388895 0.01541695388576409 0  0.6064661643010218 0.01371879521227114 0  0.8146796710367326 0.08645972102040722 0  0.8734875826306305 0.04983146031738112 0  0.8933458475563626 0.07516225812479634 0  0.6154042033883007 0.01169111870010188 0  0.841389631243272 0.04743949516531448 0  0.8761815786975521 0.07053755552405858 0  0.7396636996349428 0.08723691767532422 0  0.6366638385607285 0.01964427285728994 0  0.7431896922875254 0.04040976594058685 0  0.612967484713318 0.03082722591272857 0  0.8152736281553521 0.0743087039880905 0  0.7267436463425355 0.0599413919015626 0  0.7575229437481896 0.05033737791112659 0  0.6578533954394939 0.02761337871440198 0  0.7476592244551942 0.08696936796249545 0  0.88817486592793 0.07013623095486678 0  0.853846328169809 0.06088682581793462 0  0.6056202603656656 0.05185534145593721 0  0.8573659858855321 0.07636623180014611 0  0.8553671046804682 0.07643311922832721 0  0.7479056243015252 0.06443185951277258 0  0.7499045055065838 0.06436497208455783 0  0.7488471386920297 0.06266733389593244 0  0.750846019897087 0.06260044646771695 0  0.7497886530825313 0.06090280827909279 0  0.7661276419689101 0.07076561527152984 0  0.8538610231680877 0.03142498975734524 0  0.7473011160037196 0.04374086110973862 0  0.7673004792624003 0.07591400311880561 0  0.7941355849554013 0.06982939220061907 0  0.7560138537899252 0.06762843417197294 0  0.7564667035378345 0.0486390273832694 0  0.7584655635459255 0.04857357371005224 0  0.7574093248779304 0.04687522036343037 0  0.8771387473843131 0.03931059640497657 0  1.147756766602668 0.07181794840623162 0  1.18715575284375 0.05317069976190342 0  0.6055387979074788 0.08133319751437904 0  0.6065960583350629 0.08303090595792365 0  0.6045971734947285 0.08309768483773054 0  0.6056544337393626 0.08479538774629999 0  0.6036555484255345 0.08486215230060541 0  0.6047128087287545 0.08655985698167126 0  0.6067116941274253 0.08649309499434815 0  0.602713923352209 0.08662661963837516 0  0.6016566630511856 0.08492891502380606 0  0.6007133607747742 0.08669442616129572 0  0.5996577776585172 0.08499567719250098 0  0.598683301592468 0.08680044470373657 0  0.5975544331150409 0.08499952654836312 0  0.596530577442786 0.08693727913780747 0  0.5953351871985749 0.08500079563460244 0  0.605770069042727 0.08825756198805226 0  0.6077689544431869 0.08819080005494585 0  0.8006875026013236 0.08692793301780943 0  0.8357405449001531 0.05802664886632702 0  0.8777170502042912 0.05662201287538735 0  0.7531924583743164 0.07292005045588841 0  0.7511935771692524 0.07298693788411346 0  0.7522509439838192 0.07468457607272794 0  0.7502520627787517 0.07475146350094436 0  0.6032814866325598 0.04163121039274747 0  0.6315096557511208 0.01462594400462749 0  0.8431421126020849 0.0699101161867723 0  0.7613038356192605 0.07611466456819087 0  0.7610721307706526 0.06919033694248111 0  0.6088701133407639 0.02748881865068858 0  0.7477897718774725 0.06096969570730849 0  0.8844088083640035 0.07719433336708366 0  0.8423311456337793 0.04567496954848075 0  0.8610161910236005 0.06584596552739233 0  0.6398630762327547 0.02820364546704016 0  1.148655668140037 0.08586664824269473 0  0.8546572951379843 0.08512197245608812 0  0.8566561763430485 0.08505508502789223 0  0.8557146619525299 0.08681961064472052 0  0.8577135431575844 0.08675272321652139 0  0.8567720287670737 0.08851724883334934 0  0.8587709099721305 0.08845036140514669 0  0.8547731475620038 0.08858413626157625 0  0.8075098081832311 0.0815005813113116 0  0.8697362011492507 0.02742809227318467 0  0.8651445008559462 0.03971251841595078 0  0.8660860152464718 0.03794799279912279 0  0.8671433820610166 0.03964563098774999 0  0.6205890349819986 0.08256122880971872 0  0.7450810811300169 0.06972543636327806 0  1.126594885663984 0.06732631227485165 0  0.7205153014163737 0.05321150496520468 0  0.8446628891126814 0.08545640959718254 0  0.8685336111494075 0.08119159665325677 0  0.8675920967588883 0.08295612227008024 0  0.6141015682360261 0.03597898239994543 0  0.8394919074640016 0.08043038245943622 0  0.7638603853643502 0.06052748084485494 0  0.7273228551047477 0.077251750812658 0  0.7251014365435979 0.04094831864619802 0  0.7577535744561749 0.05725974313461502 0  1.177799291772224 0.02189695468678399 0  1.183494487098726 0.06369593451042643 0  0.8379711309533731 0.06488408904905198 0  0.6235140058051269 0.01488972795248439 0  0.7444730900358705 0.04903257813946891 0  0.7455293395002237 0.05073091175488604 0  0.7435304147130807 0.05079648381622615 0  0.7445866641775616 0.0524948174315123 0  0.742587388830996 0.05254970290082909 0  0.741531431499333 0.05086027477894062 0  0.7405887464388989 0.05262388360579569 0  0.7395325440402447 0.0509269847644639 0  0.7278010009646063 0.06163889923734651 0  0.725802094366462 0.06170558897577309 0  0.7268594549167644 0.06340317240729078 0  0.7248605684354766 0.06347001776102494 0  0.7259179326749667 0.06516763450022518 0  0.723919050813016 0.0652345166519557 0  0.7249764168133661 0.06693214813235461 0  0.7229775356386816 0.06699903581704378 0  0.7219201688291671 0.06530139767116452 0  0.7209786543088896 0.06706592221985511 0  0.7199212874735129 0.06536828386033913 0  0.7189797730579418 0.0671328092706798 0  0.7200371398683505 0.06883044742487711 0  0.7180381731696779 0.0688973035644744 0  0.7169808777489233 0.0671996960880259 0  0.7160392955841984 0.06896411760636487 0  0.7149820844226655 0.06726681360869327 0  0.7140406771531291 0.06903100930708668 0  0.7129835027644843 0.06733374920639394 0  0.712042471122918 0.06909767321842857 0  0.7109854946534385 0.06740090197705799 0  0.710044569942283 0.06916433713061405 0  0.7089879332834925 0.06746783605901192 0  0.7080471235345431 0.06922917525489974 0  0.8445617316869181 0.05253240973119051 0  0.8563086190710112 0.07466859361150896 0  0.8990107847447202 0.03513233977170253 0  0.8999520686823839 0.03337160862113983 0  0.901008856989841 0.03505337046080517 0  0.9019502365537015 0.0332868311968573 0  0.7279168141024315 0.06510074880798863 0  1.16665317829212 0.08629732307718052 0  1.16561077025261 0.08800361937394725 0  1.167609717891544 0.08805070115316617 0  0.8346684830873677 0.08579084673823217 0  1.1757411393351 0.07088260583429043 0  1.167298077425503 0.0280361010122145 0  0.9030074844792907 0.03498148771947758 0  0.7767009281405933 0.08773058215646426 0  0.832206192186261 0.0720090789445802 0  1.18573535270563 0.07054880011377085 0  0.8297439012849812 0.05822731115088521 0  0.8277450200799186 0.05829419857908145 0  0.8266876532653795 0.05659656039044986 0  0.8257461388748589 0.05836108600727954 0  0.8246887720603168 0.05666344781864636 0  0.8237472576698023 0.05842797343548002 0  0.8248046244843446 0.06012561162411121 0  0.8228057432792902 0.06019249905231341 0  0.8217483764647389 0.05849486086368026 0  0.8208068620742267 0.06025938648051295 0  0.8197517620727697 0.05862949032064148 0  0.8188083586713446 0.06033756424684465 0  0.8177533216369195 0.05870954980999513 0  0.8168096138948466 0.0604085287415938 0  0.8481972418267696 0.07147397951894051 0  0.7240349022943386 0.06869667269842285 0  1.185158905164593 0.01428859234404127 0  1.184010534298937 0.012651141789746 0  1.183166645945879 0.01446438541733612 0  1.182018275079316 0.01282693485449252 0  1.181174386726165 0.01464017848111693 0  1.180026015859431 0.01300272791668839 0  1.179182127506239 0.01481597154288129 0  1.178033756639472 0.01317852097811526 0  1.177189868286257 0.01499176460421179 0  1.176041497419495 0.01335431403934358 0  1.175197609066263 0.0151675576653633 0  1.174049238199506 0.01353010710050251 0  1.173205349846267 0.01534335072651407 0  1.172056978979515 0.01370590016164434 0  1.171213090626265 0.01551914378764313 0  1.17006471975952 0.01388169322276684 0  1.169220831406263 0.01569493684877333 0  1.168072460539527 0.01405748628389032 0  1.168916348892785 0.01224424265788475 0  1.166924089672791 0.01242003571900754 0  1.166080201319524 0.01423327934500363 0  1.164931830452799 0.01259582878010918 0  1.164087942099417 0.014409072404901 0  1.162939571232787 0.01277162184101861 0  1.162095682878608 0.01458486546538636 0  1.160947312012645 0.01294741490195474 0  1.160103423658561 0.01476065852754835 0  1.158955052792614 0.01312320796320188 0  1.158111164439341 0.01493645158923272 0  1.156962793572808 0.01329900102448372 0  1.080656489645003 0.08770626985708652 0  0.955311565405083 0.04707498451953852 0  0.6873744680343341 0.01280142537595694 0  0.7133337271326408 0.07772129317624073 0  0.9655936015669513 0.06059524989381092 0  0.9519706758661739 0.07143834413042699 0  0.9652812419143197 0.04674771844490886 0  1.087683393231397 0.08614519070475524 0  0.9752539089156885 0.04640885197590579 0  1.079858175218571 0.07408287511045744 0  0.9965669483612691 0.06127655423337872 0  0.9229748539873848 0.07067705766404306 0  0.9963187316591147 0.04744406064238187 0  1.072675297062196 0.08751555901464875 0  1.006286286659547 0.04710577900562974 0  0.6795345178818324 0.08232977443051716 0  0.9940488461267611 0.07698827228497539 0  1.016254107272482 0.0467719445161162 0  1.01850198238043 0.06054413322303763 0  1.026221503583055 0.0464369828283101 0  1.011769550913941 0.08779686440540682 0  1.02647775635278 0.06027772474841078 0  1.050723987743526 0.08699412272600339 0  1.036189203114432 0.04610462173283619 0  1.034453602714871 0.06001134849224084 0  1.15297279667478 0.04737517591668862 0  1.026006211792704 0.075883676448445 0  1.110058171278552 0.04708549293399245 0  1.120024914815081 0.04675139998082223 0  1.141951510291859 0.0460164049256107 0  0.985213663586354 0.0460995762959764 0  1.048412869553386 0.05954460691711085 0  1.034043542757591 0.02764172588224744 0  1.056388786923827 0.05927804157384554 0  0.6881149754446146 0.04044748541335294 0  1.011052356890519 0.02793672390999283 0  0.6685648460191831 0.05822917958895955 0  1.066358669169178 0.05894494244149243 0  0.6715459322537056 0.08258216524269983 0  0.9869143960187836 0.02659766074222762 0  1.07632866530813 0.05861178989413127 0  0.6665059672194595 0.08102529184395807 0  0.9789700355706195 0.02729859433779938 0  1.193419499485688 0.01704517850008127 0  0.9360075475849154 0.07197462994739154 0  0.6585302490803997 0.0812971652080362 0  0.95796311831153 0.0274182171650471 0  0.6649789859291824 0.03255791192089824 0  0.9280233407558504 0.07224060527900915 0  0.6849369417783079 0.03189934024609092 0  0.9500159699204677 0.02811944433087443 0  1.093331409709643 0.05977484786393186 0  0.9169849239746611 0.07087552077318759 0  0.6876005054444703 0.01969550413936674 0  1.101308897541146 0.05950808959786556 0  1.109287581316741 0.05924121075542348 0  1.178544474733345 0.06559554009953822 0  0.9159264157499633 0.02765626493900818 0  0.6781520462247346 0.04077496365154146 0  0.6999437050964473 0.06602024214086591 0  0.7068568730335691 0.03117141012576488 0  1.100091356716359 0.04741958893944478 0  1.119264045784434 0.05890735229214801 0  0.6425736797806454 0.08182886752648086 0  0.6825680253058621 0.01813431027082725 0  0.7148376329656411 0.03090590914202863 0  0.6746035845743081 0.01839414757455474 0  1.087014002447134 0.04613026734801682 0  1.12924602796559 0.0585782704065252 0  1.077045656465262 0.04646373859768596 0  0.6681785297234396 0.04110725685587206 0  0.6473855295379586 0.0764939377931495 0  1.067078163834657 0.04679726170573887 0  0.6646393413174713 0.01871891448844153 0  1.057110436528287 0.04713023371850915 0  1.025738600441249 0.08812938643641011 0  1.047192409189941 0.04744700969167676 0  0.6546539609614649 0.01905136440234991 0  0.6232662668345285 0.04433179796777374 0  1.150560240547181 0.06653495789495745 0  1.158555784906544 0.06626799281893631 0  1.168550219791738 0.06593441923186197 0  0.6498576980142721 0.0278757194933577 0  0.6446603384227865 0.01939027435128381 0  0.6230426145384054 0.03395447744068684 0  0.6318673788075313 0.02846598624597337 0  0.6266701011074521 0.01998303953243675 0  0.6238716813823106 0.02872832702490782 0  0.6222092880296295 0.04263856043428288 0  0.6212673728145736 0.04439827670560795 0  0.6202103963519187 0.04270511960277113 0  0.6192686364910076 0.04446950592569453 0  0.6182115313626843 0.04277249071430012 0  0.7594082406680112 0.04680966474486162 0  0.7583519915034036 0.04511133058151082 0  0.7563530646169122 0.04517690647952658 0  0.6309975090988097 0.03368044348829154 0  0.696092212280831 0.04017702683407923 0  0.6989275237187642 0.03144834307324891 0  0.6409920545286011 0.03335019698812539 0  0.5689316269872343 0.07168097894620598 0  0.5669018834018 0.07564044098588402 0  0.6521926844939467 0.04164059674719347 0  0.6549844178793247 0.0328878442410432 0  0.6601875251995664 0.0413748865323661 0  0.7240483998365126 0.03923764924407634 0  0.6055237807347267 0.01548285687309024 0  0.6044672503913167 0.01378469803154592 0  0.6035248668227022 0.01554875962198483 0  0.6024683364779786 0.01385060074070295 0  0.6034107025966395 0.01208652985454317 0  0.6014116740797046 0.01214904315147676 0  0.6004668766784279 0.01392749510726559 0  0.5993920751216875 0.01207015384093358 0  0.5984087434968 0.01401167102608769 0  0.5972973042200168 0.01206351583889143 0  0.594233810312167 0.0870897366139466 0  0.592963035453048 0.08499618771377894 0  0.605382143633691 0.06322448237408189 0  0.7416352328858278 0.05430645176825714 0  0.738589874938917 0.0526910800951189 0  0.9157830198685746 0.08827272131123672 0  0.6074085478716722 0.01195473368319917 0  0.9468706041747985 0.08798301550387479 0  1.137762351423518 0.07215211188328391 0  0.778909107985062 0.06176681026392938 0  0.7809080327721986 0.06170123820260505 0  0.7818507080948667 0.05993733252598729 0  0.7829069575593482 0.06163566614126679 0  0.7838496328820252 0.0598717604646423 0  0.7849058823465197 0.06157009407992192 0  0.7858485576691959 0.05980618840329194 0  0.7869048071336866 0.06150452201856368 0  0.7878474824563642 0.05974061634194183 0  0.7889037319208578 0.06143894995720856 0  0.7898474997601765 0.05970834899233744 0  0.7909028387941387 0.06137892868113981 0  0.88890287001047 0.02830332019209188 0  0.886910475804959 0.02847798186626757 0  0.9039490725295973 0.03321619142633803 0  0.9050062769707919 0.03491312159810443 0  0.6157383829637847 0.02207332675836915 0  1.029729764202983 0.08822438341656906 0  1.077786296190128 0.0824503183250274 0  0.7649166344748254 0.06222581469351169 0  0.6172696123128332 0.04453210176822908 0  0.7667065221153071 0.08806501929748145 0  0.7741227848154424 0.07048665055693344 0  1.172852455499054 0.07954625301421907 0  1.111822875771324 0.07299264719724614 0  0.7402821700316169 0.01277742035392576 0  0.7487312862679711 0.05920517009046945 0  1.214218950552283 0.03866275248673431 0  1.188578132886491 0.03585756831172613 0  1.189633703816628 0.03750353871657978 0  1.143501205837238 0.08062073527252395 0  0.7629177097466605 0.06229138671598435 0  0.8814130248067107 0.01157305908749609 0  0.8834057267772015 0.01139854404626903 0  0.9045709033074326 0.08345857764307786 0  1.278358538731647 0.05733410993054412 0  0.8995738444073651 0.08188608911759555 0  1.172900867332751 0.01189265653563819 0  0.8945719224937199 0.05430914193463517 0  0.96111248133426 0.07636623050033611 0  1.033720918841828 0.08831935734923269 0  1.196719774244227 0.0835477048298521 0  1.195682724870655 0.08525335625428815 0  1.19767796452249 0.0853032537916016 0  1.196641032238325 0.08700882138126145 0  1.198640435654078 0.08705644661503835 0  1.194642452168374 0.08696074841861226 0  0.7572957402894598 0.04341300016346004 0  0.755296815210716 0.0434785727576996 0  1.13578292605819 0.08036278493648272 0  0.5842053186621423 0.04479604613228045 0  1.180869904212691 0.01118948429067986 0  0.8967719050248385 0.06461551817366327 0  0.9847891649472407 0.08888444073252008 0  0.5644386268105757 0.07174498561674822 0  0.562262978361658 0.07599077809995997 0  0.8157522698183933 0.05871157006405889 0  0.8148103936589703 0.06046528448519862 0  0.9097894623498073 0.08847632989722576 0  0.5962546515961047 0.01413750707757151 0  0.5950735278090427 0.0120662214237616 0  0.7757403595920646 0.05667180941778739 0  0.8335099588470665 0.05116920868359209 0  0.8364503544426418 0.0493377956385582 0  0.6203654099459267 0.06495811775856515 0  0.6213810572135565 0.06668111372162466 0  0.62039678595545 0.06842216297264142 0  0.6223967033776049 0.06840398931284272 0  0.6233809746575306 0.06666294244206164 0  0.6243966211650223 0.06838585549362976 0  0.6253808925058265 0.0666448152629424 0  0.626396539080703 0.06836773566458861 0  0.6273809911528919 0.0666466489263504 0  0.6283964453315358 0.06834832793782369 0  0.6293809372789391 0.06663164358647425 0  0.6303963660374111 0.06833051609740096 0  0.6313807852586115 0.06660580245865061 0  0.6323961983068741 0.06830294049394867 0  0.6333807453468004 0.06659233859097366 0  0.6343961090095475 0.06828402425277691 0  0.6353805635470464 0.0665632096845534 0  0.6363961254436431 0.06827678121479644 0  0.637380413225564 0.06653755611431761 0  0.6383960484388067 0.06825922211744437 0  0.6393803245424077 0.06651827987562781 0  0.6403960496030462 0.06824128473249931 0  0.6413802498143586 0.06649997100682917 0  0.6423959670619692 0.06822308955511337 0  0.643380154150724 0.06648178084066231 0  0.644395346958706 0.06820422777281171 0  0.6453787558155627 0.06646423331015774 0  0.6463935762811149 0.06818578713384382 0  0.6473759745264334 0.0663937036523863 0  0.6483905822901872 0.06815836803946081 0  0.649372500324801 0.06636555934002833 0  0.6503868026990587 0.0681367047534438 0  0.6513699905727699 0.06651729810934423 0  0.6523827032633362 0.06814603340918129 0  0.6533659401303187 0.06655328533818197 0  0.6543781091970118 0.06814095315458976 0  0.6553606300030693 0.06649168868280167 0  0.6563730437242037 0.0681175877509045 0  0.6573547152797388 0.06638006105274072 0  0.6583677095385991 0.06808286078437474 0  0.6593493247437979 0.06634355565611684 0  0.6603216606896392 0.06801522908453642 0  0.6613371262049047 0.06631405536446397 0  0.6623449835951534 0.06798816885026543 0  0.6633353748140871 0.06629236430945287 0  0.6643808989884624 0.06799140610855199 0  0.6653374843436848 0.06627712470039659 0  0.6663115669942731 0.06794065873393124 0  0.6673229242756014 0.06625373067595594 0  0.6683327046572247 0.06789335081928795 0  0.6693205876172255 0.06622941549635847 0  0.6703725907302932 0.06792463742056298 0  0.6713231268464253 0.06621872043873031 0  0.6723375013889041 0.06793872545619882 0  0.6733125090524141 0.06620970319674284 0  0.6743264479394697 0.0679274411992952 0  0.6753071812079272 0.06619154675701527 0  0.6763200381909323 0.06791077218380213 0  0.6773018313803898 0.06617367285641929 0  0.6783147602160443 0.06789262656779213 0  0.6792967622417356 0.06615552250270312 0  0.680309882870152 0.06787453013952202 0  0.6812919064598214 0.06613721991109478 0  0.6823052913331044 0.06785616801310643 0  0.6832871807721693 0.06611900015184553 0  0.684300652848728 0.06783795881304283 0  0.5834727981882497 0.02978459610184214 0  1.206190892356558 0.04960842878714539 0  0.9271973680904899 0.07743117980477265 0  0.8746522777673607 0.02568229723781745 0  0.5747214795937494 0.02106331825823531 0  1.167745603782711 0.07114982552734928 0  0.6813230000542557 0.06959362639312934 0  0.6169373355592906 0.05656038064123163 0  0.7567121160899957 0.08839945643837095 0  1.106766887402613 0.08140721568054551 0  0.8880579424894206 0.03011607453843629 0  1.04592378908799 0.07506962266935076 0  0.9628370585255042 0.0883621686880852 0  1.157806681926084 0.01148575739848975 0  1.155814422706098 0.01166155045964146 0  1.154970534352814 0.0134747940855933 0  1.153822163486092 0.01183734352069722 0  1.152978275132824 0.0136505871466959 0  1.15182990426609 0.01201313658179944 0  1.150986015912831 0.01382638020781383 0  1.149837013726844 0.01218903218982279 0  1.148993651472955 0.01400219036007261 0  1.147844368050785 0.01236503016223725 0  1.147001310306954 0.01417802042157915 0  1.145852802387191 0.01254074626199425 0  1.14500917246052 0.01435362595083366 0  1.14386110213621 0.01271645683775287 0  1.143017449829252 0.01452910289645504 0  1.141869855844711 0.01289234469235135 0  1.141026421039887 0.01470425959517694 0  1.139879279651375 0.01306839054017666 0  1.139036062368743 0.01487948916425917 0  1.137888980213093 0.0132444779677469 0  1.137046395427911 0.01505508719200866 0  1.135900054294962 0.01342031661412781 0  1.135057502078147 0.01523055681779832 0  1.133911148211352 0.01359603691274881 0  1.138732117061153 0.01143327056179239 0  1.134753557342617 0.0117862472470038 0  1.132765389175406 0.01196204719659689 0  1.131923268111599 0.01377127520223896 0  1.130777679602539 0.0121375453779708 0  1.129935348721483 0.01394343940165243 0  1.128790149281713 0.01231238858689556 0  1.127947916157244 0.01411726682085214 0  1.126802966534598 0.0124874128171411 0  1.125961103118109 0.01429503127678381 0  1.12481612560808 0.01266306172393858 0  1.12397435553465 0.01447167498698977 0  1.122829435518115 0.01283862904788276 0  1.121983438413884 0.01465155030027051 0  1.120842189011724 0.01301477163292283 0  1.120001231892017 0.01482185666917319 0  1.118856364122803 0.01318913286461947 0  1.118014887791918 0.01499688777430927 0  1.116870213956803 0.01336437344191089 0  1.116028634131536 0.01517200565158009 0  1.114884038598884 0.01353954771988645 0  1.117711515804756 0.01155662964800978 0  1.11404250328681 0.01534709818199292 0  1.112897808974004 0.01371465927027525 0  1.112056401405858 0.01552218703279463 0  1.110911781748682 0.01388975621087588 0  1.111753862229481 0.01208196650387404 0  1.109767302399562 0.01225737921817943 0  1.108925873634809 0.01406479498147454 0  1.107781342739321 0.01243250146863397 0  1.106940305164574 0.01424338864253025 0  1.105795968129113 0.01261299234151148 0  1.104954610059228 0.01441991898308143 0  1.103810249614627 0.01278920632271563 0  1.10296853680941 0.01459182366223557 0  1.101806181309527 0.01295593982095786 0  1.100979672510327 0.01476494843674964 0  1.099818200424873 0.0131293588548663 0  0.7407209159788894 0.08893464958392445 0  0.7387219671279729 0.08900154814026431 0  1.102625428769532 0.01115112295224501 0  0.9353983078250361 0.01030115659186958 0  0.9365426881584299 0.01193412752459871 0  1.294514396118381 0.0568024533241097 0  0.5984002140823633 0.05770669809490268 0  0.5830723827951492 0.0533160599347831 0  0.5774078805312588 0.07820568222857185 0  0.9038011482388972 0.08867421581422666 0  1.202151525447091 0.01239715909478978 0  1.200050796782252 0.0126579962783412 0  1.176885385772734 0.01154107041333211 0  0.9668283978015688 0.08845703843562949 0  1.195600866927911 0.08871615187958144 0  1.193601577361128 0.08866846527557173 0  0.9373842166898869 0.01012689744146194 0  0.9385285968707362 0.0117594285362156 0  0.7527143536798714 0.08853323129472762 0  1.22961729601943 0.02056802226021548 0  1.232036412929015 0.02393856323953559 0  0.6017720187240997 0.08839126030925533 0  0.5983090545773757 0.0433974639150369 0  0.8591625462451785 0.0104513888989889 0  0.4810771944307949 0.0581073277385247 0  0.4759936457321634 0.05031862942679186 0  1.127765949582975 0.07242684594085291 0  1.19777650452941 0.06735552526856896 0  1.144704576862058 0.01090393344724015 0  1.213601218507325 0.05158713840414503 0  1.312126103959334 0.04137220045821738 0  1.316995484036698 0.04899048624074424 0  1.321416021470879 0.04121448441101043 0  1.326403227091382 0.04888158532071568 0  1.330996216399026 0.04092709734038748 0  1.335978732198127 0.04865264536090019 0  0.7562163070369508 0.04172908564734111 0  0.7542367017912618 0.0417826423078658 0  0.6852825282006025 0.06610078383654626 0  0.6862961126290468 0.06781976945910248 0  1.101801824923507 0.07313211146168677 0  1.214048362638945 0.01654567742484263 0  0.7551329458590097 0.04004761376650388 0  0.7531752897153565 0.04008751950924092 0  1.185378108874356 0.03404324725590543 0  1.195775402638143 0.06739708127098357 0  1.181695906307083 0.03408580090135844 0  1.179552548097796 0.03432789366337451 0  0.7272320768898388 0.01147270804732432 0  0.7292309797580518 0.01140714747940967 0  0.739225920058692 0.01107908705486737 0  1.190575273672284 0.035739112263917 0  1.191632293213146 0.03742817992568474 0  1.192573817664707 0.03566226278175206 0  1.193631071073356 0.03735826487112437 0  1.194572626935522 0.03559325501658904 0  1.195629924557249 0.03729056405879554 0  1.194688349037597 0.03905499739948964 0  1.196687227144089 0.03898802004330565 0  1.195745652451963 0.04075247787437025 0  1.197744534800137 0.04068562517594539 0  1.196802960952876 0.04245010786503867 0  1.198801844148808 0.04238328008591774 0  1.197860270583652 0.04414777107123433 0  1.071882913824031 0.07431074356914068 0  0.9800753184218719 0.07738877095261389 0  1.125785794135967 0.08012614391561267 0  0.9768071421116675 0.08869471814515464 0  0.9059479062490726 0.03314853038498115 0  0.9070050376355147 0.0348457581371691 0  1.1216844567934 0.01120598660924366 0  1.161791200366072 0.01113417127628044 0  0.5158962960612239 0.04243214966091647 0  1.196738142264571 0.06564425010665516 0  0.8137529703392873 0.05876595768247303 0  0.8128113862364349 0.06052839999767251 0  0.8117539983856414 0.05883013315642111 0  0.8108124688703617 0.06059420678087511 0  0.8403322644287164 0.04574185697668207 0  0.8412737788192333 0.04397733135984887 0  1.184793978561679 0.07231285274814658 0  1.010040856454415 0.07636476494503594 0  0.4716863257724869 0.05868326399720986 0  0.4664786144856833 0.05072065990924155 0  1.200800644526719 0.01078222568306812 0  1.198926030902801 0.01101497004810899 0  0.9807979447752587 0.08878946050603137 0  0.7918466369811428 0.05964925284714757 0  0.7929018293346226 0.06131536107002581 0  1.202450375336571 0.05811211788588259 0  0.9393700705540513 0.009952193482646657 0  0.9405144817684616 0.01158458638325395 0  0.9396729717440003 0.01339189723033319 0  0.941658929086947 0.01321698759356489 0  0.9425003381641012 0.01140969892861273 0  0.9436448539225644 0.01304205279261141 0  0.9444862488361487 0.01123476963689009 0  0.9456307463422842 0.01286710582914361 0  0.9464723868800657 0.01105978394980977 0  0.947616627848452 0.01269215107051143 0  0.94845805040901 0.01088489447012941 0  0.9496025578932683 0.01251719615747411 0  0.948761056630636 0.01432451701874275 0  0.9507469586937211 0.01414954088399258 0  0.9515884737723068 0.01234223625813713 0  0.9527328510027773 0.01397454646981205 0  0.9535742544992014 0.01216725824835911 0  0.954718689360608 0.01379952752569112 0  0.9555600425621977 0.01199227634913022 0  0.9567044984978046 0.01362448607848307 0  0.9575458421260314 0.01181729160149123 0  0.9586902913063107 0.01344950222768882 0  0.959531615842558 0.01164232248601425 0  0.9606760555704708 0.01327448064953536 0  0.9615173710406366 0.01146734432496001 0  0.962661798119318 0.01309948045991272 0  0.9635031124710023 0.01129236329738939 0  0.9646475167127045 0.01292445798855003 0  0.9654888229237663 0.01111738465881768 0  0.9666332238460957 0.01274950424160302 0  0.967474504583839 0.01094242376877424 0  0.9686188872051888 0.01257446849665098 0  0.9694601821561872 0.01076744845206852 0  0.9706054739980494 0.01240088725440665 0  0.9714460062045434 0.01059270757898549 0  0.9725916705106866 0.01222590294502766 0  0.9734479246897508 0.01037774372029021 0  0.9745791719865435 0.01204293896371984 0  0.9754496160160159 0.0102096501514058 0  0.9765568636716241 0.01187820273318968 0  0.9757203247715907 0.0136809674383841 0  0.9777151249101128 0.01351189953750337 0  0.9785640635697546 0.01172369607171821 0  0.979701725906466 0.0133412720622798 0  0.980564007879549 0.01154266038000119 0  0.9816897083453073 0.01317046169371703 0  0.9825256475662753 0.01135489534871982 0  0.9836752691882562 0.01299036728801142 0  0.9845072557378796 0.01117691218181134 0  0.9856642632041696 0.01281114686260648 0  0.9864927490580531 0.01100070978600653 0  0.9876339293008268 0.01263161695131116 0  0.9884756778609278 0.01082474956494936 0  0.989619597029623 0.01245663271948096 0  0.9904608427328707 0.01064958266257818 0  0.9916050925183868 0.01228158028728142 0  0.9924463139492223 0.01047454033950256 0  0.9935913076692394 0.0121075122071735 0  0.9944319496662002 0.01029968435078787 0  0.995577248301034 0.01193248075946178 0  0.9964175699043571 0.0101246993802706 0  0.9975621965421311 0.01175651942824207 0  0.9984030076190464 0.009949543412872453 0  0.9995473494018046 0.01158151665881976 0  0.9987064174801641 0.01338837879778173 0  1.000687024046576 0.0132113304214401 0  1.001532026663759 0.01140611266826888 0  1.002677206489091 0.01303847661337442 0  1.003518222804525 0.01123135992369456 0  1.004666938457761 0.01286047580381269 0  1.005504608385476 0.01105586390485364 0  1.006648671599934 0.01268840920920843 0  1.007489660500935 0.01088124083430264 0  1.008634682168782 0.01251389433102337 0  1.009475191991919 0.01070635914452974 0  1.010619779798185 0.01233822717020903 0  1.011460580902755 0.0105312005741939 0  1.01260501639861 0.01216320405904369 0  1.011764059654174 0.01397013929757675 0  1.013760223539163 0.01380023656548424 0  1.014592340736544 0.01198897262475252 0  1.015752688917946 0.01362276477382093 0  1.016579349589271 0.01181362468352394 0  1.017720513016789 0.0134450448266883 0  1.0185621987672 0.01163806022949867 0  1.019716905484747 0.0132753355313943 0  1.020549105490611 0.011463798680551 0  1.021709268972353 0.01309792345442185 0  1.022536015827398 0.01128846754994103 0  1.023677177449677 0.01291978010401402 0  1.02451885012688 0.01111283336485485 0  1.025662802234213 0.01274471736243366 0  1.026503947448478 0.01093766577968548 0  1.027648244551439 0.01256960754676079 0  1.028489381564817 0.01076257180419665 0  1.029634015322705 0.01239488735089338 0  1.030474925807122 0.01058755216241995 0  1.031619676455165 0.01221979653916551 0  1.032460479278644 0.01041247997874149 0  1.03360496395391 0.01204435947447616 0  1.034445935930852 0.01023735034378203 0  1.03559032925622 0.01186928475225402 0  1.034749299544854 0.01367627804719691 0  1.036729279979184 0.01349870222179599 0  1.037574896463805 0.01169375996138576 0  1.038720264117561 0.01332613000766084 0  1.039561192175984 0.01151899106304616 0  1.040710622730251 0.01314760755755164 0  1.04154769335619 0.01134336183641606 0  1.042692273839705 0.01297523552404852 0  1.043532562802286 0.01116874440075811 0  1.044677044501414 0.01280065822513348 0  1.045518038142613 0.01099368426828743 0  1.046662431313537 0.01262564146770021 0  1.04750350555451 0.01081859930405241 0  1.048647914065865 0.01245054121773323 0  1.049489002870753 0.01064349675663508 0  1.050633413748722 0.01227543342822148 0  1.051474505377517 0.01046838565915076 0  1.052618925688333 0.01210032380876128 0  1.051777819978071 0.0139074092142266 0  1.053763370042912 0.01373226091906491 0  1.054604465123809 0.01192517793071477 0  1.05574891975445 0.01355707451269678 0  1.056590019682091 0.0117500166613944 0  1.057734468827986 0.01338193846724798 0  1.058575553081759 0.01157487833466443 0  1.059720000612521 0.01320671399065912 0  1.060561100923348 0.01139973032705612 0  1.061705541043601 0.01303161348579871 0  1.062546631556832 0.01122458801917113 0  1.063691061307891 0.01285640034890655 0  1.064532155528039 0.01104944632426172 0  1.065676574379965 0.01268117355923306 0  1.066517657062256 0.01087426913173502 0  1.067662097114672 0.01250612349326326 0  1.068503184445624 0.01069916426330063 0  1.069647595250557 0.01233086918443255 0  1.07048868749368 0.01052399063068576 0  1.071633118228889 0.01215594864713717 0  1.070792049819046 0.01396304416005332 0  1.072783210167791 0.01378396915976494 0  1.073619622475993 0.01198012083363653 0  1.074764226606428 0.01361162200541275 0  1.075604466758416 0.01180538822979367 0  1.076748720414886 0.01343753914894395 0  1.077589816484218 0.01163039001388092 0  1.078734243745957 0.01326201097670395 0  1.079580071291839 0.01150885600618632 0  1.080720566703404 0.01309568573091474 0  1.081566529381473 0.01134409684650914 0  1.082706355297615 0.01292332137442841 0  1.083547528315506 0.0111174565281541 0  1.084691212069997 0.01274041926154313 0  1.085532185140484 0.0109324179455515 0  1.086676521989286 0.01256269576329079 0  1.08751753686596 0.01075517486431692 0  1.08866198834737 0.01238674516313855 0  1.089503029581812 0.01057952644070601 0  1.090647506896027 0.0122113780976431 0  1.091488556976437 0.01040423960447233 0  1.082816402679429 0.08084065492423211 0  0.642335952877086 0.06477575897729529 0  0.5918272758791426 0.08720983455729125 0  1.022869552055298 0.08287275997155304 0  1.199863232597439 0.04408312527585937 0  0.6753381822610764 0.06964762511127282 0  0.6123848721055651 0.07582205353172816 0  1.096786606351003 0.08117230833352335 0  1.274430477690226 0.03745929144916385 0  1.067808447788638 0.08221320435631821 0  1.167767978026037 0.01060679209301084 0  1.035913231376703 0.07521938847971052 0  0.6214124319355687 0.07014501850188692 0  0.614397031276456 0.06847642076646802 0  0.4620955665739005 0.0592444523566244 0  0.4568445087977823 0.05133812805490055 0  0.8908958829956114 0.02812884835869564 0  0.6363071644419233 0.06481361700614144 0  1.055445458133898 0.01011811695327617 0  0.8933631185679488 0.01052589689111163 0  1.222988821013275 0.0809307870302879 0  1.226926245577526 0.08099503709544129 0  1.229031721451805 0.07729987500046168 0  0.9278669829282029 0.08926000750465198 0  0.9258707564004649 0.08921251274106518 0  0.9907761984578651 0.08902703525020722 0  0.5788086278268662 0.06832912894739827 0  1.321298186960285 0.05664613487667977 0  1.125657875283777 0.01085497825788303 0  0.9163696924312513 0.01022321308120819 0  0.8556281995251341 0.02443377471823021 0  0.8565697139156661 0.0226692491014097 0  0.6053075274393305 0.07440885322355092 0  0.7938445156161912 0.05955178946844368 0  0.7949005907219947 0.06124480786415038 0  0.7958432388113736 0.0594800719967743 0  0.7968876379002734 0.06117106619575809 0  0.5949828650719602 0.05942108631007251 0  0.9318594648994252 0.08935478314047941 0  0.9947674036227532 0.08912201716194387 0  0.9710763451490061 0.07600128496161032 0  0.6302502631430817 0.06490663016085749 0  0.6853141246613978 0.06955705325126302 0  0.6873097088081173 0.06953885882323069 0  0.6004702719038444 0.0577998139605697 0  0.8957251133389268 0.02596460306399229 0  0.9106181740199834 0.08325191659466417 0  1.063902197496184 0.07489518021172847 0  1.055215813038205 0.05413216259783087 0  1.045246370781871 0.05446496811508075 0  1.065185217245382 0.05379934897999267 0  1.039298567831567 0.05466810090162984 0  1.075154678127596 0.05346651675122564 0  1.085124901613474 0.05313347937044903 0  1.092161217105089 0.05462729016053818 0  1.091921145258258 0.07373476213021901 0  1.098143673420309 0.05442738715297698 0  1.108115933976291 0.05409393703126489 0  1.1086226097258 0.01062519377250624 0  1.092633045532021 0.01203615628932355 0  1.093474074044126 0.01022902724798224 0  1.118090844023278 0.05376001935761238 0  0.7827643249850597 0.05819149924306919 0  1.016882664483831 0.08273028656053258 0  1.340619069002695 0.04018830423839498 0  1.345352978516191 0.04814963217039353 0  1.128071885491887 0.05342495676626234 0  0.7260482412431994 0.03918786898105379 0  1.134064378159958 0.05322365325906614 0  1.186792828785518 0.07224610581185904 0  0.9358516505705211 0.08944970412371731 0  1.140061193509388 0.05302295990379179 0  1.091791980357409 0.01384331156158882 0  1.085841166075092 0.01436503436322913 0  1.079878754679401 0.01489433262386308 0  1.073945054156982 0.01542360331016606 0  1.064835518566784 0.01448849737145973 0  1.05887892980722 0.01501395857361392 0  1.05292225484792 0.0155394089365651 0  0.9987583428906991 0.08921672680084239 0  1.041852517746914 0.01475851151001815 0  1.035887232330471 0.01530540557600422 0  1.147114972801861 0.05452085617558856 0  0.6303202582205767 0.04583539604038228 0  1.024840454954876 0.01455703571884203 0  1.018892649353494 0.01508680757492522 0  1.012920845775086 0.01560821599762981 0  1.005822891892517 0.01449887563670682 0  0.9998450344854792 0.01501808625975514 0  0.6243619495910913 0.04603026401315048 0  1.002049871214215 0.07670983667991299 0  0.9887945106090434 0.01426954255377914 0  0.5939928083592498 0.01423715743164349 0  0.5926740808500663 0.01205480129375728 0  0.9828589886329651 0.0148183053953049 0  0.9768761629265483 0.01531934996237885 0  0.9697741958060935 0.01421530051631407 0  0.6363144766278457 0.04563984051802622 0  0.9598351775791122 0.01508182141451392 0  1.157109434313739 0.05418807351814733 0  0.9538775514940914 0.01560692488762777 0  1.184854422652385 0.0108378981654429 0  0.9408174227754567 0.01502441835282342 0  0.9337157036732693 0.01391581850591599 0  1.098993011589866 0.01493939663854759 0  0.8798171640761745 0.08947911031615281 0  0.8818159704077055 0.08941224039790086 0  0.8778184500011161 0.08954609913880848 0  0.6137463531313692 0.02214294424580499 0  1.179986058780836 0.04821140300177319 0  0.6351444276897332 0.04047560230061108 0  0.698063549438285 0.06954329079224862 0  0.700059176042097 0.06947663793060292 0  0.919811981830942 0.01514160954691441 0  1.030851347976366 0.08306298563675751 0  0.6273963112515268 0.07010948272916989 0  0.7095002383069186 0.01897349290293753 0  0.7077303211395076 0.02596162123678922 0  0.9958882512179845 0.08396097582625864 0  0.6147864118177006 0.02384153363097554 0  0.6085792249859443 0.01711511283810741 0  0.9412326970921241 0.07703496895118142 0  0.6972614798820662 0.04532821181288424 0  0.6533704286943819 0.04680940350548729 0  0.6715631982162146 0.05312821745138281 0  0.6733311468917966 0.04614280490202287 0  0.6815308288348465 0.05279584066507074 0  0.6974854544538633 0.052263202061681 0  0.6832996332482062 0.04580796782609742 0  0.6595991080694233 0.05353938809748075 0  1.108084475088179 0.01587212484836404 0  0.6932703779065644 0.04547434547885949 0  0.6915011241483735 0.0524639110071582 0  1.144289634335443 0.05981415132270224 0  0.8256302864508346 0.054898922201816 0  0.9067474613669797 0.01456070519448471 0  0.9447910829097911 0.01467580942941569 0  1.162279658420945 0.05921493103640929 0  1.172274114319827 0.05888198766505885 0  0.963806841958684 0.01473177030101986 0  0.9927545229336784 0.01391678364411125 0  0.6573660012188919 0.04667946375248403 0  0.7099286054992684 0.06570449317458471 0  0.7079312794868129 0.06577149920067743 0  1.028792635769079 0.01420160371350531 0  0.5610823409964719 0.02856995857233921 0  0.5584079022991811 0.02429872422726923 0  0.7125201088576113 0.05347855256340457 0  1.045821291056763 0.01443275668590164 0  0.7150978117936568 0.07072830203081965 0  0.6914119935919557 0.06292387798361997 0  0.7142868811956624 0.04649315584736068 0  0.7159232865966204 0.06550265416575751 0  0.7190953450960943 0.07059483451780621 0  0.7214626976158488 0.01858586363261903 0  0.7366250460303809 0.02329528344322116 0  0.7386239707989826 0.0232297107873863 0  1.193746768803365 0.04081929234352933 0  1.195861387122934 0.04421459106604092 0  0.8015131645679245 0.08170124359578454 0  0.7955165209525985 0.08190190588007629 0  0.733087793899737 0.07012676093247971 0  0.7361440419199613 0.07175751169253883 0  0.7430821999249582 0.06979232379149122 0  0.7441395667395136 0.07148996198011726 0  0.8288023868944553 0.05999183676771589 0  0.8198654106507386 0.06202579382036958 0  0.8138687414322555 0.06222569096935789 0  0.7852904264345828 0.07531250417373746 0  0.8195030954133481 0.08109925674180815 0  0.7835232337222691 0.08230323044925615 0  0.7695310652868262 0.08277144244668377 0  0.8580904904262305 0.03821554251191413 0  0.7655333028767006 0.08290521730309403 0  0.8680848964515318 0.03788110537092101 0  0.8670275296369896 0.03618346718229264 0  0.8691422632660816 0.03957874355954517 0  0.8682007488755686 0.04134326917637638 0  0.7752960102572917 0.07564663793034489 0  0.7735288276969308 0.08263766759025518 0  0.8467923177400756 0.05938984991392963 0  0.8254997390285288 0.0808985944569031 0  0.8879431610798584 0.06321190334394471 0  0.8899420422849249 0.06314501591574551 0  0.8135064517984525 0.08129991902681147 0  0.8238631100938365 0.06189013724094303 0  0.6087105795433161 0.08642633352801304 0  0.6097678398456536 0.08812403818256276 0  0.8914775138335577 0.0492294733973194 0  0.8701996300806336 0.04127638174816918 0  0.86925811569012 0.04304090736500586 0  0.7182846584958482 0.04635982629183111 0  0.8755876216328208 0.08268857251737877 0  0.8630150722286525 0.06577907809919531 0  0.8620735578381354 0.06754360371601424 0  0.8639565866191586 0.06401455248235205 0  0.8596259619352535 0.02429999986185353 0  0.8606833287497954 0.02599763805048434 0  0.8294975014386723 0.08076481960048662 0  1.165236312966629 0.01604652296876849 0  1.196918697018813 0.04591226206646743 0  0.4524036156635074 0.05982433672141885 0  0.447106875203137 0.0518750197558178 0  0.4426294820408994 0.06036981765926307 0  0.437289560422733 0.05216146461851219 0  0.7353061756564765 0.04413293880345018 0  1.349711032230246 0.03997870297539571 0  1.354957909170833 0.04749003476044281 0  1.35907294734974 0.03791419626961089 0  1.365001167119327 0.04700434387164359 0  0.6443125162431729 0.04536957896597625 0  1.172932141032969 0.04671449626650072 0  1.171101673308119 0.05372197489612179 0  1.162940264957249 0.04704671776617068 0  1.161117716490903 0.05405433419378292 0  1.053938759499762 0.07498074004259109 0  0.6403148202200868 0.04550475976550464 0  0.590380336852801 0.08498719254563415 0  0.589096203995521 0.08718079077989839 0  1.203052691805644 0.01018006436710698 0  1.151112760449587 0.05438783007094778 0  0.9539795833308699 0.08296310031402829 0  1.148287417773664 0.05968098024355853 0  1.15228520034872 0.05954780920853121 0  1.156282982920114 0.05941463817391702 0  1.166277439344705 0.0590817105860915 0  1.176273410882833 0.05874798957008689 0  1.17827988377004 0.05867663624941544 0  0.7540743827858969 0.03835071907003115 0  0.7521177942141867 0.03838996084987677 0  0.7530602618640845 0.03662618433256556 0  0.7510683585006934 0.03668738954022602 0  0.7520121694485385 0.03492277758119827 0  0.7500146041695239 0.03498750411987597 0  1.122082954467987 0.05362613018539665 0  0.9165247031115029 0.08306520633016054 0  1.112105907014969 0.0539603424440221 0  1.102132686121812 0.05429396845230845 0  0.6313488118414703 0.07005055993931798 0  1.079142536372674 0.05333336925306905 0  0.6251499678012647 0.0408084800542784 0  1.069173164214479 0.05366613952759168 0  0.6291477562391335 0.04067543101109034 0  1.201649497233193 0.01810692434856496 0  1.059203743261636 0.05399896327616201 0  1.049234291336007 0.05433183755163846 0  0.7799653574495078 0.06346514387923166 0  0.6391422102406549 0.04034243068930653 0  0.6431399899693651 0.04020917438181641 0  0.7859621318110241 0.06326842769521396 0  1.019403174342577 0.009831089096641391 0  0.6471377706140992 0.04007594541230672 0  0.6394116934454462 0.06998196935425857 0  0.6842690288095007 0.06438181526378244 0  0.8097550960289813 0.05889638848474497 0  0.8088135781131963 0.06066080875159378 0  0.8077562097066386 0.058963122986718 0  0.8068146944632383 0.06072762311583527 0  0.8057573272412173 0.0590299727498809 0  0.8048158126406323 0.06079449208919502 0  0.8078720611356337 0.06242525705651495 0  0.882257975741765 0.009760308601873277 0  0.8842499793223589 0.009585587986791056 0  1.05982639087451 0.08202348367114565 0  0.8953447287580536 0.07509537070195788 0  0.8942873619633944 0.07339773248170608 0  0.933060218986026 0.08417316254160902 0  0.5915048312536271 0.01440224050911067 0  1.129632413466399 0.01050405195959421 0  0.7467324050629112 0.059272057518687 0  0.6162126228457574 0.04283855825340896 0  0.5710664158272583 0.06817998909046173 0  0.852803656353549 0.02972735156870813 0  0.851862141963021 0.03149187718553442 0  0.4618755117289858 0.04294140553577517 0  0.7919589427308242 0.06307282596867209 0  0.7959548042919362 0.06294006381756467 0  0.7979342285171882 0.06284469439253633 0  0.9879059120143578 0.08377092751287077 0  0.6353482901556213 0.0699952979683942 0  0.5900515961458449 0.01216393086278305 0  1.051844394167528 0.08183376423575829 0  1.194562503066901 0.09032132975473917 0  1.192563311692607 0.09026454452701016 0  1.196782020609662 0.09047331847684974 0  1.061402185081519 0.009592690999868911 0  0.6003546056234956 0.01043395599926065 0  0.803758445723163 0.05909685082475837 0  0.9918971600176176 0.08386598940282508 0  1.026860512535719 0.08296790059812059 0  0.9544156340895058 0.01036004750303927 0  1.086807208700465 0.08093390691590727 0  0.6133982130925256 0.06323966415233312 0  0.5976997687493705 0.08864158098073815 0  1.233982611564326 0.02004971529983269 0  1.236547470585992 0.02373017665122624 0  1.074459972767834 0.0101735225352967 0  1.231112899326473 0.08112857099208333 0  1.233260955411399 0.07744813122725562 0  0.678283524745664 0.06443660735137127 0  0.9659540135871773 0.08324833205782993 0  0.8860655807082012 0.0302907567020682 0  0.8849181175211414 0.02865266580962068 0  0.8958870775824024 0.0663793364802189 0  1.150679531768512 0.01037600961177817 0  1.369788488759991 0.03865243564733878 0  1.375070087905433 0.0471748392637933 0  0.9028926865996967 0.03151827862345527 0  0.8639418321316656 0.008402510522262981 0  0.5995130959150141 0.05599704621177577 0  0.5972485166448306 0.05546504064716033 0  0.7509576953477541 0.03322333980907409 0  0.7489590664545371 0.0332887278442849 0  0.7480164404475121 0.03505260284988124 0  0.7469603178272158 0.03335419034605063 0  0.7479030142905878 0.03159027152134128 0  0.7459041223868483 0.03165582313141044 0  0.7468468067135402 0.02989191185489445 0  0.7448478889076164 0.02995747957438486 0  0.7458571881054833 0.02812173464038332 0  0.7438027472500721 0.02824717036895228 0  0.7448083208801051 0.0264064507578685 0  0.7428508192493549 0.03002105332343982 0  0.7449614525447289 0.03341972539951071 0  1.238558224766747 0.01951380154736919 0  1.241395941049336 0.0235127970391328 0  0.6263366641985423 0.06494397601157068 0  0.5694203746954798 0.07898173811928971 0  1.188838941092285 0.01048631204246106 0  1.190831200312342 0.01031051898189202 0  0.8872130400144752 0.03192884478720764 0  0.8206661710455841 0.05684147311036297 0  0.9289885917880679 0.08409724380147146 0  0.9269922684395182 0.08404967021616824 0  0.9479894066109985 0.08288481779088264 0  0.5722369429218842 0.03143395939402831 0  0.6723002411118477 0.06448934569775078 0  0.6454109717369984 0.06992557530217886 0  0.6533962576987823 0.06985476127691023 0  0.4986760276296576 0.04050403929214461 0  0.5596507327098386 0.07181209769029295 0  0.5574153585663341 0.07628388377740991 0  1.217970122985563 0.06496479617060583 0  0.4327955421538471 0.06086461222632543 0  0.427438039175534 0.05255325365612043 0  0.4229228497866682 0.06135923290427509 0  0.4175449390065402 0.05304094857058694 0  0.431935274798008 0.04381735969062064 0  0.413023271967967 0.06186838299327047 0  0.4076328277212741 0.05353549499221727 0  1.047853495035642 0.08173889065117476 0  0.7603509141912498 0.04504576235679179 0  0.7614071639556668 0.04674409542395717 0  0.693572456773608 0.01949895390042477 0  0.7015350069187979 0.01923630363462269 0  0.6886526867212571 0.0213870147026723 0  0.6977668913575747 0.026292324796839 0  0.9041726288799474 0.07649963455092934 0  0.9499055084544086 0.01595691764975101 0  0.8762807754281623 0.0102843122842491 0  0.8742884183913073 0.01045899639689987 0  0.9297468349702096 0.01425806766405598 0  0.9264001589729911 0.0215172463000914 0  0.9755679231995532 0.06025442748009402 0  0.9158383942720074 0.01549118604604608 0  0.6653520527644896 0.04640973390630253 0  1.380100697895417 0.03814672250119829 0  1.385079114448989 0.04689848642750997 0  1.390080486654398 0.03777794703267824 0  1.395028170769826 0.04643367429814657 0  1.390308358792714 0.05537622298803666 0  1.400240041192025 0.05504663175770613 0  1.404910733277789 0.0461350258304347 0  1.410172928050387 0.05463848291146976 0  1.414851946822488 0.0459161569130493 0  1.42012203711454 0.05430861453100397 0  1.424805028765698 0.04559406148882131 0  1.430080454369012 0.05403386428504509 0  1.434763945509696 0.0452633134120802 0  1.440041200112575 0.05370507392702835 0  1.444725697561813 0.04492353084972801 0  1.450004620200179 0.05338184027418426 0  1.45468924457899 0.04458419729237888 0  1.459628485069146 0.05286144654735579 0  1.464598188028531 0.04421097690871303 0  1.469709760092683 0.05365761862221833 0  1.474574232648841 0.04405191458412936 0  1.479894194744707 0.05204764347303607 0  1.484583536066668 0.04354771312592327 0  1.489566394279357 0.05180221125656358 0  1.494502732772513 0.04317399934256217 0  1.499670819466276 0.05286632272870964 0  1.504484901050275 0.04305960541293354 0  1.509820592061756 0.05115437591163088 0  1.514483660538039 0.04252681205778543 0  1.519519891984677 0.05082234516114473 0  1.524411708088925 0.04215338019608256 0  1.52950220976339 0.05016101810349845 0  1.53437508471393 0.04175155573545024 0  1.539720439005713 0.04988768196637414 0  1.544382049811974 0.04141061514385444 0  1.549474020336233 0.04976701292959892 0  1.554351910640296 0.0411493643373113 0  1.559479639695158 0.04924520390341358 0  1.564292425915225 0.04074515867666659 0  1.569643419627901 0.04896573741686878 0  1.574287478351541 0.04040219817147903 0  1.579573538218912 0.04886167819821337 0  1.58425295022699 0.04009899294664196 0  1.589533740299305 0.04856461485822479 0  1.59421815159631 0.0397699379728983 0  1.599498885929405 0.04823154812795427 0  1.604183721824328 0.0394303739961428 0  1.609464928912094 0.04789078386967185 0  1.604779312657674 0.05669440075249818 0  1.614746999369572 0.05635102963222582 0  1.619432340076899 0.0475467241651398 0  1.624714756701909 0.05600685712627135 0  1.629400210818878 0.0472024984317763 0  1.634664027552963 0.05565269961903037 0  1.639364886102633 0.04685657248412948 0  1.644650323777571 0.05531799338442257 0  1.649334663526794 0.04651288122429191 0  1.654638022732162 0.05496096831669815 0  1.659304387555463 0.0461656883939135 0  1.664586813476885 0.05456263112606377 0  1.669269885065425 0.04581262467022999 0  1.674575416690964 0.05419236092676422 0  1.679242128153462 0.04546343024477108 0  1.684549392079741 0.05390703778701828 0  1.689211828550793 0.04512825537398514 0  1.694906189673408 0.05380422275637504 0  1.699244465090844 0.04482573890692604 0  1.705130539720882 0.05339379185947683 0  1.709265072604346 0.04447729998652329 0  1.714422484205972 0.05290752302363177 0  1.719127755352939 0.04410848963835387 0  1.724391918147622 0.05255749326046866 0  1.729075702509405 0.04376084095711677 0  1.734353337180618 0.05221699856576259 0  1.739032669904105 0.04342523839074824 0  1.744313952396871 0.05185898807573136 0  1.748981695140258 0.04308721195264346 0  1.754242377240288 0.0515213632491546 0  1.749581911844727 0.06027624202919963 0  1.759483393098669 0.05993938186069478 0  1.758898661424677 0.04276044389339473 0  0.715704605564869 0.02570028839527023 0  0.7546948622552752 0.05562919641656455 0  0.9124833947604797 0.02274231314891114 0  0.7025342031565881 0.05381974630804838 0  0.7062977452682507 0.04675724213875226 0  0.9219191720656841 0.06898129353984703 0  0.9239156151012536 0.06891445762827705 0  1.043862620712414 0.08164400144279445 0  0.6493674040406199 0.04693371192209662 0  0.9619625703798524 0.08315328311290296 0  1.188691690188421 0.03925520848697594 0  0.7615355404665946 0.08303899215946033 0  0.7513094295933122 0.07644910168956967 0  0.7533083107983782 0.07638221426135382 0  0.7915187585424867 0.08203568073640907 0  0.8072781033350478 0.0745762537006025 0  0.888406570304317 0.07706056024356599 0  0.8841771035178015 0.07027000581126558 0  0.8501961230318298 0.07140709209072921 0  0.8492546086413247 0.07317161770756264 0  0.8472557274362528 0.07323850513579439 0  0.726033783501146 0.06862978528427309 0  0.7250922690794674 0.07039431064543009 0  1.133607240852311 0.01015282833391467 0  0.6494048869584527 0.06988439235723148 0  0.6193497639944935 0.06323526521117941 0  0.4801886849159679 0.04205257182170465 0  0.4121577783518291 0.04470028800483715 0  0.4022394761447335 0.04519262316489436 0  0.3977091717669828 0.05403362565677895 0  0.3923113404453877 0.04568820600023041 0  0.3877779128949366 0.05453668708860235 0  0.3823771701326689 0.04618534593321697 0  0.3778348857079495 0.05490973252796379 0  0.3724377122593814 0.04666221789220981 0  0.36789538747746 0.055420816946845 0  0.3624950225319363 0.04715890834545698 0  0.3579473085191907 0.05584217285049106 0  0.3525494249705003 0.04764450596919023 0  0.3479961451186469 0.05623488441093073 0  0.3426023267052025 0.0481238787521578 0  0.3380564704505741 0.05687698685636366 0  0.3326523002051318 0.04864177481723386 0  0.3280984162881722 0.05719505153357654 0  0.322700057717537 0.04911269835883789 0  0.3181802588198085 0.05796652895301389 0  0.3127587854279302 0.04965512534954073 0  0.3082772686079188 0.05858097455425616 0  0.3028192041294276 0.05018290525827099 0  0.2983197059806063 0.05911644606592885 0  0.2928694437859559 0.05069350586505973 0  0.288300141440238 0.05900700793916328 0  0.2829079372365578 0.05109376718840569 0  0.2783672617874468 0.0600492645570777 0  0.2729560564613881 0.05166761258591802 0  0.2683854026637609 0.05994280546937533 0  0.262998668084695 0.05207928174580653 0  0.2774906798380793 0.04280236710849471 0  0.3073496712885773 0.04131108449936838 0  0.2585686042500306 0.06136104553776006 0  0.2530707921460496 0.05271777092217756 0  0.2488134806593387 0.06229349284885222 0  0.243167276844432 0.05349400945107156 0  0.2476588185122927 0.04437490639912127 0  0.2377101789132204 0.0448779880950337 0  0.2331778166618781 0.05392558966510591 0  0.2277551565648084 0.04536616799544255 0  0.2232120344832755 0.05422899386066083 0  0.21780224343308 0.04581750525152557 0  0.2132583838895734 0.05465887043511067 0  0.2078528547250054 0.04631132629798953 0  0.2033086261525823 0.05514558934412424 0  0.1979036471008816 0.046805117770643 0  0.193453491656616 0.05560962131265274 0  0.1879695748438647 0.04729706187838115 0  0.1834678777287542 0.05607322890211992 0  0.178005357919512 0.04780667174356737 0  0.1734171683710115 0.05662810976318197 0  0.168048203085733 0.04829826070180711 0  0.1636265285680399 0.05700349839909759 0  0.1581227595076166 0.04877531259532973 0  0.1535565976657858 0.05740066213093609 0  0.1481567671973128 0.04925331525977927 0  0.1434610941252595 0.05803871378100398 0  0.1381804693261323 0.04977136876969256 0  0.133734679711859 0.05835543333582711 0  0.1282593083777908 0.05024059997103232 0  0.123591091377327 0.05869818213291798 0  0.1182796315079907 0.05070651644450788 0  0.1135013166525533 0.05945134624246546 0  0.1083043483908229 0.05124423916498132 0  0.1037582380573955 0.06011946270377942 0  0.09840221659460203 0.05179475860167661 0  0.0938498001537994 0.06065510246177579 0  0.08844877622956984 0.05229291796479214 0  0.1029338825596263 0.04291965043843652 0  0.08390451361542392 0.06115905911927078 0  0.07850015610780994 0.05279052880548298 0  0.1327862779076067 0.04141632402753521 0  0.5656758644957129 0.02029173013061888 0  1.234423264775289 0.0278529527615907 0  0.899324329713598 0.009991544536229845 0  1.015432426032794 0.01018127345514858 0  1.574960016716334 0.05696617326949799 0  0.6593522299667343 0.06966511061478939 0  1.166568476505249 0.08975815125198938 0  1.164568987112522 0.08971053038739646 0  1.168567774570858 0.08980558215202164 0  0.3371954460999799 0.03981073465683863 0  0.8578293955816214 0.09021488702197689 0  0.8598282767866928 0.09014799959377263 0  0.8607697911771879 0.08838347397693509 0  0.8618271579917653 0.09008111216556509 0  0.8627686723822555 0.08831658654871459 0  0.8638260391968244 0.0900142247373284 0  1.370104847875266 0.05504131698713489 0  0.6068273293464408 0.08995526668407361 0  1.72030581406919 0.06101323863765723 0  0.7249908725449181 0.03747409958957511 0  0.7229921681247505 0.03753748461858974 0  0.9583872266432246 0.01001010252587414 0  1.078429682891637 0.009982419032476198 0  0.6152707992603821 0.04460103444332866 0  0.662324536266638 0.06458026950082114 0  1.340370294735699 0.05606175873178869 0  0.6143476731763136 0.009992963844619699 0  0.6163465870778896 0.009927060778846128 0  1.15466605183934 0.01002409989479064 0  0.8757384399056837 0.01554794899939437 0  0.9853459285255615 0.009367944000630801 0  0.741224844826234 0.01101351439510692 0  0.5920306120540638 0.08276524884380698 0  0.5995464581505006 0.01571016727024215 0  1.180464683367295 0.03259815517755574 0  1.178491838201122 0.0326704595492848 0  0.08304447300334104 0.04392521214592474 0  0.07309817944710689 0.04442348971786218 0  0.06855330221421881 0.05328478385110567 0  0.06315467703797428 0.04492893088355808 0  0.0586133813627387 0.05377661205920495 0  0.05321848696706987 0.04542735333814069 0  0.04868489513853477 0.05421121397435807 0  0.04329879179041383 0.04590135544770003 0  0.03791187889201961 0.05614424035861344 0  0.6653481778362491 0.06949823574541321 0  1.185848530079231 0.07412267891439223 0  1.183851945357979 0.07409603894282397 0  0.9579711139135394 0.08305822626614487 0  0.6093501739240444 0.0633257673791324 0  1.213728515548784 0.02443619962617691 0  0.6561196445080751 0.06460344989205877 0  1.04040250413335 0.009711984748300163 0  0.9079464205133837 0.03308154303376992 0  0.9090036268388469 0.03477872783249646 0  1.544611246667446 0.05745908245730666 0  1.689810963800575 0.06222987542495532 0  0.1626469306028217 0.03993396666555725 0  0.9203464952407621 0.009854900976698387 0  0.5037043380504882 0.06355403438105905 0  1.235503856096759 0.08130560886040358 0  1.237950214484911 0.07716718892460095 0  0.9819191072354938 0.08362843545014689 0  0.3666313679039789 0.03856644276796906 0  0.8803282772185136 0.02210030759241813 0  0.6714047720940921 0.06956174614613292 0  0.228809984692026 0.06316162784274787 0  1.202995297766364 0.08029073542627953 0  0.6504979945110974 0.06454603025303261 0  1.196571493023353 0.0355259232446602 0  0.9033038148287802 0.009643508285891523 0  0.7867117305909477 0.05815861952185151 0  0.5887811768432606 0.01464317171686784 0  0.7375238312761285 0.0509828456147275 0  0.7365893277034474 0.05275530435928234 0  1.082411758369824 0.009331351744612552 0  0.6866614190482309 0.02145239841088941 0  0.8808745723346085 0.09117667768793371 0  0.8828734033103898 0.09110970866766463 0  0.8838147558275593 0.08934532467429976 0  0.8848721184193888 0.09104275285002475 0  0.8858134573683887 0.08927861010537522 0  0.8868704871619462 0.09097586942329461 0  1.222007705471515 0.02752946184929068 0  1.012891509182444 0.08263251925652867 0  0.5875842794071182 0.08494853779355838 0  0.5862000691072611 0.08740126103981656 0  0.9623585992238326 0.009660204684776 0  1.659913276566173 0.06314914426492116 0  0.5872318681192411 0.01218875885022434 0  1.131071242459523 0.01557692360418005 0  0.9738951515530849 0.083461060087979 0  0.930326895999055 0.008892932605921553 0  0.9814124585581749 0.009783214516455816 0  1.514569643365143 0.05818839805996096 0  0.9027726280074125 0.0149190878414953 0  1.113201050608262 0.01715466535164563 0  1.119158106901641 0.01662624179978605 0  1.100140182019218 0.01657209853377014 0  1.125105034415713 0.0161242101093319 0  0.896805785696116 0.01543812402084443 0  0.7376472144933728 0.05445543929224155 0  0.7252337067720276 0.01153768261364249 0  0.7111017408191401 0.07086317967748471 0  0.6893659492624535 0.01273738529701349 0  0.6883131407968808 0.01104625316881133 0  0.6903041011407889 0.01098209583764018 0  1.125620310151855 0.0870498787386131 0  1.12457978301748 0.08875653857411492 0  1.126577715476737 0.0888042476069547 0  1.12553729926745 0.09051054401615866 0  1.127535176472413 0.09055839372183767 0  1.123539644861043 0.09046284624141888 0  0.702074399428763 0.03997906037759478 0  0.7010192408363164 0.03828529694683115 0  0.7030135244859763 0.0382183396059206 0  1.131184028727677 0.02777640463399459 0  1.132287019794135 0.02937986624818018 0  1.130305731676489 0.02956017001616416 0  1.131445579009067 0.03119010873074522 0  1.129457765029054 0.0313654672571736 0  1.133526780895626 0.03126894174819591 0  1.130602399807755 0.03299873377949502 0  1.128614553194804 0.03317383323638552 0  1.129759883040038 0.03480748479816907 0  1.127772303531169 0.03498267477601118 0  1.126626763374851 0.03334897962568987 0  1.131747396346075 0.03463237613816551 0  1.125784829141673 0.03515780378419955 0  1.12463936493823 0.03352428495758421 0  1.123797517528454 0.0353330477532949 0  1.122652181521935 0.03369958035917821 0  1.121810410979548 0.0355082131637706 0  1.120665117005594 0.03387477043396733 0  1.119823418082794 0.0356833224662363 0  1.118678239016503 0.03405005485797109 0  1.117836580796465 0.03585876250552673 0  1.116691422948985 0.03422533151002286 0  1.115849780693047 0.03603380479261936 0  1.114704699675896 0.0344009559821776 0  1.113865720585746 0.03623932093915883 0  1.112718179124134 0.03458147428169909 0  1.111879512624513 0.03642043012498983 0  1.110731588742702 0.03475812244795266 0  1.115549769366396 0.03259349107213264 0  1.109890089020889 0.03656433905685246 0  1.108744646004432 0.03492603260217836 0  1.10790302551657 0.03673382287402641 0  1.106757916644143 0.03509973493428744 0  1.123786542013811 0.08007766059033139 0  0.9454352935422451 0.02158714385608972 0  0.9383154544767265 0.02046379835776728 0  0.7085157156864951 0.08307718944384544 0  0.709571729474868 0.08477286293512983 0  0.7075753537529443 0.08483951173758336 0  0.7086313147591944 0.0865351094901419 0  0.7066366022516632 0.0866009854137669 0  0.7106275951663072 0.08646846108048101 0  0.7096871896981594 0.08823066834393559 0  0.7116834574815579 0.08816402126669295 0  0.7107429322482475 0.08992614342763057 0  0.7127392906864037 0.08985960422386555 0  0.7087467955542002 0.08999277326576317 0  0.9743915380506578 0.02076917448153512 0  0.8964020955720452 0.07679300889147844 0  0.9973841377336572 0.02047538262353632 0  1.105541106293038 0.02132957014123532 0  1.010445320250927 0.0210567808798942 0  1.033436425157807 0.02076197490235621 0  1.050469204603204 0.02099244389087656 0  1.146761337539846 0.04067052724247112 0  1.145706535645089 0.03897711060469619 0  1.147700438124586 0.0389106672183043 0  1.146645402498252 0.03721609184067674 0  1.148641187184678 0.03714925340131064 0  1.147585445767787 0.03545345786152455 0  1.145588767647038 0.03552084962458757 0  1.149582948549171 0.03538652904963942 0  1.146528660211938 0.03375759149924076 0  1.14453137841535 0.03382575683422956 0  1.091886367330317 0.04078145610511196 0  1.090831944648132 0.03908887697023264 0  1.092825122996107 0.03902209659721507 0  1.091770706953533 0.03732939730247128 0  1.093826587427158 0.0373420138099565 0  1.089777568662562 0.03739618034744452 0  1.09071630521146 0.03563671836416486 0  1.08872323395711 0.03570347878810471 0  1.089661915934321 0.03394408010260952 0  1.087668919785352 0.03401083144069681 0  1.091654963538927 0.03387728087007033 0  1.088607570860314 0.03225148797426951 0  1.086614607584688 0.03231824283801495 0  1.085675941895358 0.03407757157794741 0  1.084621649683915 0.03238498894462198 0  1.083682977227947 0.03414426900218339 0  1.082628691863844 0.03245172327213341 0  1.081690019924357 0.03421100075999291 0  1.080635735769266 0.03251846117972053 0  1.079697065419103 0.03427777522581597 0  1.078642791270073 0.03258519565710066 0  1.077704112001293 0.03434452049969427 0  0.9378482694000706 0.08949640788421104 0  0.7275545586322473 0.08417607807856911 0  0.7286119234948005 0.08587371745042445 0  0.7266130890435452 0.08594061114711152 0  0.7276704313073852 0.08763817092303912 0  0.725669132888386 0.08770314760420275 0  0.7296692844160166 0.08757134350404092 0  0.7287278261869466 0.08933574128334518 0  0.7307265965583708 0.08926893972460997 0  0.726520848560735 0.0201599545383603 0  0.9699253117875712 0.07083832551683186 0  0.8814757365463282 0.02373839652413078 0  0.7417948789730184 0.02832238665612009 0  0.737681296004171 0.0249936167455604 0  0.7337969832575891 0.0285869746841512 0  1.177987175007502 0.04827821363874655 0  0.9077049370393941 0.06251912944569385 0  0.7493105483882508 0.07651598911778049 0  0.8347990305096216 0.05979117448314397 0  0.740850713068683 0.03008789970370335 0  0.7302874881798842 0.01310531978484902 0  0.7312301585756115 0.01134141657023619 0  0.7393161423681548 0.07685042625557731 0  0.8977110293826758 0.06285263680494743 0  0.8389126453438799 0.06311956343222871 0  0.8409115265489403 0.06305267600401174 0  0.8398541597343665 0.06135503781539795 0  0.7395666455934116 0.02146580482781191 0  0.8791808178174267 0.02046221796373702 0  0.7501268534153104 0.03845056740791356 0  1.161321353346447 0.02856343560815162 0  1.16246972438606 0.03020088601495412 0  1.160477465263756 0.03037667898753818 0  1.161646590576998 0.03199957411030917 0  1.159577041807864 0.03201810945926871 0  1.163621554469569 0.03183591054474511 0  1.162798997053736 0.03363419442937936 0  1.164771174473553 0.03347248506319031 0  1.163927494309049 0.0352855826809188 0  1.165913096762055 0.03507420943254468 0  1.161807159929297 0.03526994269000098 0  1.154196205182983 0.02745336389438778 0  1.194388912561227 0.05844171591493529 0  0.6123487592447282 0.01005886600010437 0  0.8690264108420448 0.0361165797540901 0  0.8679690440275121 0.03441894156545312 0  0.6177137332823454 0.02200729426874452 0  0.8676067917570994 0.05349428620960929 0  0.9004145530046505 0.04719739793606317 0  0.8477338321305844 0.05762532429709403 0  0.8497327133356442 0.05755843686888618 0  0.8701849350823576 0.07073821780867427 0  0.8691275682678195 0.0690405796200417 0  0.7427199225761194 0.08886768405573534 0  0.7417782535352575 0.09063230599588119 0  0.7437772803345624 0.09056532788492234 0  0.6107094649449269 0.08635957162959686 0  0.6117667252436872 0.08805727617598032 0  0.6108244882279925 0.08980342166961183 0  0.6128228036353688 0.08971959388035432 0  0.6137654136572449 0.08798461636346157 0  0.6148226411246547 0.08968133792416534 0  0.6157644249062676 0.08792162239337932 0  0.6168217061795871 0.08961995492782823 0  0.6177633612221404 0.08785638489034521 0  0.6188206300066055 0.08955434350263858 0  0.6197622615111724 0.08779006872701589 0  0.6208195242911636 0.08948784756258887 0  0.6217611508719877 0.08772342536783269 0  0.6228184118306058 0.08942114967075948 0  0.6237600372872436 0.08765669381737091 0  0.624817297754937 0.08935440342175882 0  0.6257589229423883 0.08758993950883782 0  0.6268161832833984 0.08928764532021374 0  0.6277578091887852 0.08752320290256158 0  0.6288150688444212 0.08922088819362067 0  0.6297566947552393 0.08745644593846365 0  0.6308139542975476 0.08915412783655474 0  0.6317555801905529 0.08738968504801416 0  0.6328128397108373 0.08908736628668402 0  0.6337545479994509 0.08732301126756514 0  0.6348117289391424 0.0890206157395847 0  0.6338701005203087 0.0907850689206964 0  0.6358691525395606 0.09071839545066009 0  0.6368106403923069 0.08895390028896967 0  0.6378680700501792 0.09065165595526073 0  0.6388097427544359 0.08888721575736008 0  0.639866756011835 0.09058477906878488 0  0.6408083964189364 0.08882077836697579 0  0.6418648863107561 0.09051769698782033 0  0.6428061515195143 0.08875424221239023 0  0.6438622585761636 0.09045045204733052 0  0.6448027993121934 0.0886880498716901 0  0.6458586579303811 0.09038356916996167 0  0.646798939930129 0.08862140148420863 0  0.6478544927554356 0.09031692089073924 0  0.6487946019133441 0.08855498399957036 0  0.6498500240766529 0.09025032663758198 0  0.6507907510597813 0.08848732963585082 0  0.6518453095259478 0.09018344174874185 0  0.6527864046926795 0.08841954781898745 0  0.6538383743458749 0.09011546426244182 0  0.6547804323282338 0.08835431197357675 0  0.6558309698479038 0.08999240197888397 0  0.6567744393040571 0.08827969751031381 0  0.6578274581477647 0.08991623295447312 0  0.6587694382360392 0.08821024853486256 0  0.6598230125147985 0.08985959470471852 0  0.6607644196105872 0.08814492029995161 0  0.6618179976671043 0.0897949270081109 0  0.6627593070869847 0.08807892249406524 0  0.6638132662340168 0.08974070711787724 0  0.6647542659693024 0.08801454054161863 0  0.6658082011121194 0.08967660700049175 0  0.6667491470571698 0.08794878784556723 0  0.6678034674435191 0.08962246021817954 0  0.6687425094029307 0.0878793040297063 0  0.6697981469851122 0.08955752229629668 0  0.6707342205935799 0.08780814922188804 0  0.6717928528321236 0.0895022829574806 0  0.6727340017594069 0.08775769027960278 0  0.6737885250949138 0.08944033519618513 0  0.6747287021179051 0.08768602356848265 0  0.675874956657293 0.08942370518706234 0  0.6767388354648263 0.08762695583854076 0  0.6779392362247828 0.08944175092059911 0  0.6787480254046475 0.08758056833527134 0  0.6798569920289036 0.08935174733002373 0  0.6807324992306556 0.08751347931013903 0  0.6817870078864653 0.08924253119106335 0  0.6827148679311287 0.08743813327140933 0  0.6837690901635556 0.08916743937531076 0  0.6847056377702512 0.08736869692494276 0  0.6857600628494441 0.08906272314483211 0  0.6866987839676367 0.08729200868452798 0  0.6877541504677939 0.08898815621548369 0  0.6886939176396895 0.08722574400943359 0  0.6897491187332117 0.08892034821294532 0  0.6888091501293563 0.09068145762674365 0  0.6908042916245589 0.09061474247744312 0  0.6917442567825428 0.0888535741541714 0  0.6927994926231051 0.09054815668850498 0  0.6937394802203163 0.08878695331858019 0  0.6947947514292415 0.09048161586008185 0  0.6957347716248468 0.08872036717549928 0  0.6967900763389068 0.09041509599767744 0  0.6977301370239816 0.08865377351955991 0  0.6987854687489733 0.09034857741007508 0  0.6997255891868661 0.08858717683932199 0  0.7007809776404245 0.09028207068238482 0  0.64973758692693 0.08678930421688598 0  0.6557211819006918 0.08659173856942916 0  0.8821641102458035 0.03748884611765695 0  0.6185893713386026 0.08263035253569283 0  1.155344576048678 0.0290908144600452 0  1.15341246680779 0.02922442335561715 0  1.154446472097926 0.03086712964923145 0  0.6015039533119761 0.04851156766805965 0  0.8597271193609567 0.05722399972785625 0  0.8530206662033596 0.06611351524022453 0  0.8819465174646732 0.06341256562854163 0  0.7421334428383296 0.03871143230897803 0  0.8813670591344858 0.046101868810093 0  0.6073064128987287 0.07434209307363344 0  0.848675346521088 0.05586079868025474 0  0.8506742277261484 0.05579391125205271 0  0.8496168609115934 0.05409627306341803 0  0.8724155211354897 0.07759565799137341 0  0.8770072406640491 0.06531086610176925 0  0.7233414063947846 0.04792168519576984 0  0.8516157421166537 0.05402938563521476 0  0.8526731089312067 0.0557270238238487 0  1.195151520487653 0.05291039261612256 0  0.7669155593283224 0.06216024258841298 0  0.7659728839503941 0.06392414830148126 0  0.8711264494728722 0.06897369219184293 0  0.8700690826583353 0.06727605400321604 0  0.7342510859255471 0.04243573403374838 0  0.8695909779639536 0.08288923484188539 0  0.8686494635734427 0.08465376045870759 0  1.166759220153717 0.03329293891154081 0  1.167903544264309 0.03489186082580857 0  0.9040647605875232 0.03667751348037195 0  0.7679718087394078 0.06385857623889059 0  0.7779664326623316 0.0635307159405801 0  1.168750475164179 0.03311542774509098 0  1.169898678661793 0.03475259195953759 0  1.170743046212231 0.032945435699585 0  1.17189146904944 0.03458385310085457 0  0.8616248431403113 0.02423311243365226 0  0.8626822099548603 0.02593075062228697 0  0.8605674763257657 0.02253547424502874 0  0.6194125139590229 0.07016313169240687 0  1.184315016812662 0.0161018359824603 0  1.170369202272999 0.01733238741364751 0  1.162704647693265 0.021486254034316 0  1.154126645999549 0.01528803771156815 0  1.148149819608589 0.01581542875870284 0  1.188369018395723 0.02791485576759731 0  1.142173633870674 0.01634003684512069 0  1.191602613383545 0.08860223191619776 0  1.190562517647764 0.09027492875922903 0  1.097058570464112 0.02728083829854596 0  1.098203519564861 0.02891332359326668 0  1.096217259794402 0.02908866918776603 0  1.097362229155062 0.03072119412899405 0  1.099348545257713 0.0305458506250474 0  1.098507234609625 0.03235375233111233 0  1.10049362213509 0.03217840303351317 0  1.099652275133329 0.0339863646032956 0  1.082652176009909 0.0877537066718916 0  1.081613247303326 0.08945833050034695 0  1.083608990510318 0.08950575921331452 0  1.032057441267172 0.02781697268747452 0  1.033202300101346 0.02944942339601846 0  1.03121607926678 0.0296246679632808 0  1.032360959157008 0.03125716888605524 0  1.030374704715098 0.03143240171858862 0  1.034347198391143 0.03108189038791368 0  1.033505861667115 0.03288971162184468 0  1.035492197030716 0.03271443065479812 0  1.034650809541142 0.03452230863239396 0  1.036637175254562 0.03434701715603159 0  1.032664437687662 0.03469757841072769 0  1.037478555210208 0.03253913180880275 0  1.038623542610118 0.03417170941930275 0  1.039464904147892 0.0323638181490678 0  1.040609900236038 0.0339964026666119 0  1.009066186349148 0.02811194073624955 0  1.010211024384166 0.02974444673270447 0  1.008224740530245 0.02991966873803476 0  1.009369654293083 0.03155224730850689 0  1.007383289687321 0.03172747194771017 0  1.008528254311954 0.03336011432917005 0  1.01051464115201 0.03318486412321635 0  1.006541851284511 0.03353534175700122 0  1.009673227414644 0.03499279862760112 0  1.011659682503236 0.03481753595813753 0  1.005396886470499 0.03190266889908085 0  1.004555430632602 0.03371055592752476 0  1.003410489307015 0.03207785769914215 0  1.002568969421887 0.03388577140894726 0  1.003713948995655 0.03551853442457443 0  1.001727424533685 0.03569375014422554 0  1.000582593686038 0.03406100926828954 0  0.9997408964087474 0.03586896392965202 0  0.9985960459456664 0.03423619559516732 0  0.9977543274523295 0.03604416342880754 0  0.9966094897962989 0.03441140551312996 0  0.9957677362812657 0.03621937000256094 0  0.9946228856000078 0.03458659440520677 0  0.9937811123153339 0.03639457962669079 0  0.9926361023779047 0.03476169472357764 0  0.9934783129838092 0.03295375459796667 0  0.991491059626602 0.03312881306239635 0  0.9906494635811273 0.03493684751163841 0  0.9895044359156377 0.03330391157936512 0  0.9886628434494283 0.03511198691426673 0  0.9875178069726857 0.03347904411907586 0  0.9866692688153981 0.03526281370104052 0  0.9855300153789546 0.03365018506664556 0  0.9846852828424864 0.03542463011347551 0  0.9835435898180083 0.03382243903638073 0  0.9827019838369894 0.03563007101785164 0  0.9815581397370197 0.03400171519465399 0  0.9846016879701958 0.06167594815827412 0  0.9856565097822918 0.06336979826397836 0  0.9836621310120195 0.06343635450878234 0  0.9847169482640385 0.0651302664379354 0  0.9867113718051224 0.06506369076618584 0  0.99600486950374 0.02753061147311543 0  1.012501115959323 0.03300956082705404 0  1.013645453620215 0.03463446296252699 0  1.01448749839203 0.03283296428786518 0  1.015631767931378 0.03445765266881223 0  1.016473870807638 0.0326572304970932 0  1.017611058904543 0.03420153861865163 0  1.035716498888027 0.08836679405911074 0  1.034677605797492 0.09007133336915592 0  1.036673273836183 0.09011875969567769 0  1.050957065672892 0.01571933104786662 0  1.033907950579065 0.01548345446089422 0  1.010922521120635 0.01577741290745748 0  0.6448348622951069 0.05920934417348681 0  0.9730120056253081 0.02782502316058448 0  0.9741569349452539 0.02945777017272426 0  0.9721704297611461 0.02963294433617949 0  0.9733154085409588 0.03126580100384395 0  0.9713287263802339 0.0314409835525641 0  0.9724738221084863 0.03307392234355444 0  0.9704870855904646 0.03324912763826067 0  0.974460520634592 0.03289869907810064 0  0.9736189303877971 0.03470690015157013 0  0.9693419688056762 0.03161612660345367 0  0.9685002928699094 0.03342431654632931 0  0.9673551790695371 0.03179126133518104 0  0.966513456271606 0.03359950616151393 0  0.9696454179030962 0.03505736132025013 0  0.9978647618672652 0.0151956672056457 0  0.9748787771652326 0.01548890624524777 0  1.041451236658017 0.03218851956000768 0  1.042596250917456 0.03382109013391426 0  1.041754897588941 0.03562901564170214 0  1.043735893993346 0.03545118092822311 0  1.044581758547617 0.03364534432695741 0  1.045711967688866 0.03529844334205129 0  1.046566295634142 0.03347370613399737 0  1.047714091626733 0.03510300267950404 0  1.048554966233416 0.03329563243659869 0  1.049705655427691 0.03498736241650561 0  1.018459067404906 0.03246842080186239 0  1.019596077121471 0.03401051784273434 0  1.020445027178281 0.03228826583711315 0  1.02158995898654 0.03392007383618599 0  1.022432592973411 0.03212631681128422 0  1.02357750193813 0.03376101824540827 0  1.080751080312732 0.03597034099640715 0  1.08734873518667 0.05997465589108248 0  1.088403479956777 0.06166847646763277 0  1.086409148668299 0.06173500231541787 0  0.9440551493919114 0.02864526539297044 0  0.9452006022660375 0.03027866846972388 0  0.9432132946284759 0.03045382880009922 0  0.9443586565288237 0.03208742722698846 0  0.9423715260519698 0.03226248894434877 0  0.9463460805364694 0.03191212238824818 0  0.9455041580622719 0.03372102533030583 0  0.9474917625405337 0.03354572019527129 0  0.9466467136406642 0.03532024917510163 0  0.948635515997114 0.0351587452756771 0  0.9446595457960505 0.03548999012411317 0  0.9494790323408584 0.03336699730411231 0  0.9506227334899924 0.03497996604373905 0  0.9514663505377081 0.03319057177731814 0  0.9526113842138632 0.03481868619296148 0  0.9534538626399429 0.03301742143619354 0  0.9545993909904966 0.03465116054785326 0  0.9554412879200981 0.03284379473436206 0  0.9565867708419433 0.03447738982449185 0  0.9574285456776807 0.03266905015705256 0  0.9585736540884825 0.03430190272645461 0  0.9594157385616204 0.03249394160355458 0  0.9388313081631694 0.01519931583420599 0  1.050542588766133 0.03312979124353567 0  1.051693099734233 0.03482355274639178 0  1.052529344332343 0.03295796106483626 0  1.053691499183463 0.03467996495113713 0  1.054517775629917 0.0327885033143952 0  1.055659568025188 0.03440163398500938 0  1.052830816738506 0.03663698142066628 0  0.698771613370724 0.0608702861525416 0  0.9369487695268345 0.02753757666567865 0  1.056501425687119 0.03259698420806435 0  1.05763586627164 0.03411200017714228 0  1.058485627002607 0.03239989954251662 0  1.059624045759609 0.03397197782398995 0  1.060471922908134 0.03222682766513774 0  1.061773799996333 0.03408795957949093 0  1.058671966574143 0.03577481025675882 0  1.062485491336199 0.0321004314168878 0  1.063604914962982 0.03370027774185791 0  1.064450467173957 0.03189786028844893 0  1.065591938435074 0.03352585289356727 0  1.066433351793929 0.03171814084401309 0  1.067577672936975 0.03334977398518631 0  1.064820670710996 0.03530575479747415 0  1.06841885531132 0.03154174296495276 0  1.069563879798579 0.03317429349892036 0  1.068722569190134 0.03498220107537701 0  1.070634155434014 0.03485927537753396 0  1.07132703643023 0.03306846879987193 0  0.7136799047319395 0.08809752402534674 0  0.7147359989813569 0.08979516110473285 0  1.047409884073183 0.03166317685826404 0  0.9380940701806343 0.02917113298480885 0  0.9361066146756737 0.0293463557335383 0  0.9372521608754343 0.03098009492364611 0  0.9352643737801121 0.03115533950683023 0  0.9364101264028422 0.0327893920245268 0  0.934422042513225 0.03296455039950955 0  0.9332763398226233 0.03133042290004426 0  0.9324339044053196 0.03313970731043377 0  0.9312881220023158 0.03150545721863993 0  0.9304455450254122 0.03331493657849499 0  0.9315909103552802 0.03494311814890585 0  0.929609563813921 0.03520032857205538 0  0.92845800913423 0.03350261903489125 0  0.9276221869223085 0.03539133898294566 0  0.9264694641439638 0.0336821925105653 0  0.9256630895258452 0.035575160469693 0  0.9244854002364523 0.03385945204675044 0  0.923732209938375 0.0358050948764314 0  0.9224896088937499 0.03401520312897739 0  0.9217150889242778 0.03590442893158393 0  0.9205113727615528 0.03420327101328985 0  0.7156766206532754 0.08803112016599048 0  0.7167328596927659 0.08972905501958957 0  0.6892500372712969 0.009290830449621928 0  0.6912438012114951 0.009215011715609484 0  0.6872618773986527 0.009356279267548822 0  1.024419021208021 0.03195580772363114 0  1.025563344807929 0.03358944976313519 0  1.143592299517386 0.03558856118436585 0  1.142534885955362 0.03389400880094272 0  1.141595922879121 0.0356565045977825 0  1.140538945078469 0.03396225804913362 0  1.139600198822803 0.03572440594531714 0  0.717673588464163 0.08796432308607982 0  0.7187300180334782 0.08966354132340955 0  0.7196708544451873 0.08789770947419895 0  0.7207274448798269 0.08959720903653448 0  0.9653689683494173 0.03196597171632118 0  0.9756057218121584 0.0345316499529655 0  0.9605596817661476 0.03412644392704173 0  0.9764458767516224 0.03272251843763452 0  0.9807170791731923 0.03580382905001558 0  0.9233333666935235 0.03220748491501062 0  1.150639052980544 0.03708339798066793 0  0.9196699565271178 0.03601369396462129 0  0.9185141930587417 0.03436959802466372 0  0.9176695436935898 0.03617660066177441 0  0.9165211023833775 0.03454117985132965 0  1.037876454387998 0.08150139866574452 0  0.6216118311714625 0.05132935404100212 0  0.6008277556883765 0.02775784751418867 0  0.726175611467623 0.009775067776836876 0  0.7241787582906862 0.009839976431191225 0  0.617891119473489 0.02891997270065115 0  0.9780339252677455 0.08364421660047751 0  0.9368086369658354 0.09120190144667248 0  0.9388046251273977 0.09124938509955005 0  0.7269899134696234 0.03740737482176089 0  0.7280481905060344 0.03912185064858017 0  0.7333098603265295 0.04419867642551506 0  0.7343408616287181 0.04589241817639034 0  0.1930166665106905 0.03869746569187357 0  0.751787534287587 0.06083592085087438 0  0.7528449011021499 0.0625335590394929 0  1.105916423237172 0.03690896507280445 0  1.202843699833712 0.06527319755279171 0  1.205140836973083 0.06500658090061663 0  1.206400682926792 0.0671634158306969 0  1.207571612456496 0.06481984670013233 0  0.396846908849608 0.03684195133603362 0  0.8734435209755433 0.01227177005889712 0  0.8722960615055022 0.010633680586139 0  0.6211521943050006 0.04094186929170684 0  0.1990276171774988 0.06389442612452501 0  0.5560056073752758 0.02884284439287699 0  0.5534265956966934 0.02449141617595919 0  0.7978353948614166 0.05940927423248332 0  1.004359579990854 0.009424358906977851 0  1.022729878975643 0.035503121786898 0  1.042893629493739 0.03725874090863765 0  0.7476739194534083 0.05750753190184904 0  0.9243291225796704 0.009482176076065673 0  1.629904593577284 0.06436701972561049 0  0.9911734404594885 0.008932334939052405 0  0.666315301989665 0.06454300893866574 0  1.644052213034268 0.03805369148547325 0  1.172735445931579 0.03277178517550514 0  0.935567822472537 0.03459871328506421 0  0.9375560447260726 0.03442350994165679 0  1.199680497809163 0.08535370170660041 0  1.20064085761406 0.08710351640336833 0  1.485180612815114 0.06081732361765286 0  0.7301726658906758 0.009643329952407222 0  0.7321726678600725 0.00957752580740856 0  0.7297852078020619 0.09103321312142922 0  0.731783782471261 0.09096645408027598 0  0.7277866439326319 0.09109998839486136 0  0.7327253697326908 0.08920210169489434 0  0.7337826626528554 0.09089974418095681 0  1.008900666704013 0.08253363491742462 0  1.189517397716452 0.02955239685158029 0  1.198000260146889 0.01279549885593422 0  0.9453280521464098 0.009427467833111495 0  0.6751125645132263 0.09124614370308595 0  0.7479224073323381 0.02810383942241447 0  0.6863276430791456 0.07127628030112323 0  0.6883233680973999 0.07125806602410742 0  0.8392748976141675 0.04404421878804572 0  0.5506311350979991 0.02922316976621092 0  0.5480290183892494 0.02350840633058782 0  0.8957122272197418 0.06291931910046186 0  0.896653469636812 0.06115511873734585 0  0.8946545295546475 0.06122188693183334 0  0.9072785603774889 0.00929362173110128 0  0.742281094799162 0.0127118476941649 0  1.429484528953646 0.03681706380598709 0  0.8973436099787678 0.0750284832488608 0  0.898382536432081 0.07673760693649469 0  0.9157077578225468 0.03634012616857622 0  1.046359093750505 0.009186671282854185 0  1.196830110431609 0.01116941869417461 0  0.9723483804755826 0.008677871658657313 0  0.9663301645734546 0.009310287510338404 0  0.957833356587618 0.03596420110152916 0  0.6198773835890371 0.09123687672876445 0  1.29014137697614 0.03622065635367711 0  0.5986004573630288 0.08327619987857793 0  0.8987352276263361 0.03160202955633848 0  0.9536875373913085 0.03648875011969365 0  0.1689514735926894 0.06495023058695731 0  0.621349681423397 0.06321709241015901 0  1.67395582455915 0.03701985919189653 0  0.2223464346212041 0.03696042823531989 0  0.6023520781270382 0.06884108213276252 0  1.145470951324213 0.03206181308049502 0  1.147469191852684 0.03199339506981969 0  1.023374404928238 0.009480862224083158 0  1.455004838989124 0.06090719609166394 0  1.224857124753369 0.08436229101231621 0  1.220662891790344 0.08429541271589613 0  0.06769344817050543 0.03606352414029372 0  1.233965985263051 0.05725655598039169 0  1.004909371049144 0.08244656117426515 0  0.6894264501965061 0.06951795477521885 0  0.6903393581572457 0.07123944201397164 0  0.5846004250235791 0.08487030954055876 0  0.9362397142687816 0.008494521161862788 0  0.9440725752294918 0.08266893570845088 0  1.459365521328597 0.03577853177714884 0  0.544868983225003 0.0294769656187863 0  0.5416090538598433 0.02430202325101756 0  1.016777602964727 0.0360996189365212 0  1.088358559810402 0.008947617073700419 0  1.008330685311411 0.009074282931431591 0  0.0531413620805661 0.06429560513189646 0  1.033809416090274 0.03633024027968782 0  1.240376541555436 0.08138589329282264 0  1.242954069183658 0.07725284008779953 0  1.240277501186047 0.07283900114589778 0  1.245516147461698 0.07271711954367935 0  1.248288708247981 0.0774154170671125 0  1.251042754311322 0.07253523377769094 0  1.253908158233304 0.07745896669528692 0  1.256843173415091 0.07234813795435416 0  0.6849343452906572 0.09092056594421152 0  0.8628845248063467 0.09177875035418534 0  0.9098459053918379 0.0330160847916656 0  0.5546168442100343 0.07198756272497557 0  0.5520978798723255 0.07667931340041562 0  0.8166923695335605 0.057046940337503 0  0.9249137184220657 0.08745992410327517 0  0.9238744716399563 0.08916506953689726 0  0.7401685948533265 0.009315181096042263 0  0.7381696700857832 0.009380753755790252 0  1.138543454616171 0.03403048702789858 0  1.137604854353735 0.0357923299801943 0  0.5490790045196665 0.07205636410497386 0  0.5465481806436681 0.07739300850360244 0  1.703892386737506 0.03599976422562829 0  1.194738328323072 0.06568681106506147 0  1.193775468663391 0.06743915877827864 0  1.195701057702838 0.06393380591645491 0  0.601863938532897 0.05574461761652165 0  0.60251245263921 0.05777817986599476 0  0.7928681012229013 0.05792889725911604 0  0.8648834089392016 0.09171186110238541 0  0.8658249208898497 0.08994733700516586 0  0.866882290713559 0.09164497331956184 0  0.8678238022711225 0.08988044946718024 0  0.8688811691150741 0.09157808763748229 0  0.8698226828119955 0.08981356245259511 0  0.8708800982118827 0.09151117037939493 0  1.199805261578163 0.009279965528001487 0  1.124827315880598 0.07837019396836477 0  1.122828225966399 0.0783227148952724 0  1.065373226725461 0.009242398147738957 0  0.6862643955145457 0.06436354910136019 0  1.425397392430946 0.06286730154287129 0  0.1388381132923862 0.06590919133753088 0  0.6062503506575165 0.07258813239408951 0  1.196886751211191 0.07661688200951444 0  1.194887438344203 0.07657053450267248 0  1.226805062690607 0.01677224892221294 0  0.3823862475041791 0.0647108239635964 0  1.141478374774553 0.03222003020509731 0  0.5952000401012119 0.01644985159166269 0  1.19770059207231 0.06389107363676462 0  1.201729298557322 0.08535766825496574 0  1.202714100910119 0.08719653001602534 0  1.203903175590229 0.08532790156528833 0  1.204977247766565 0.08737260628768223 0  1.201594642135455 0.0889964359288339 0  1.206237331088634 0.08531069436095015 0  1.207319208387303 0.08741666800803279 0  0.4779524613685531 0.06631074204795881 0  1.230932101302057 0.03893629652380029 0  0.6808897160089871 0.09101568299090668 0  0.873140958858049 0.008820906892077514 0  0.8711486020849455 0.008995591138458265 0  1.05033010767228 0.008836488925320986 0  1.489264462572615 0.03474395813409347 0  0.9897717783754972 0.03677201361358815 0  0.9475144669264721 0.03695558029743088 0  0.6132911428375422 0.008294805143451874 0  0.6112922289240358 0.008360707847290689 0  0.6279132748479013 0.09096054629430535 0  0.9400925762779766 0.08242758792352273 0  1.198675082771408 0.03891524236485758 0  0.9248315105429179 0.0909176050011983 0  0.9228352673639089 0.09087019709183131 0  0.6005197559088367 0.05414228999365312 0  1.027344998317444 0.009130606177583416 0  1.733757676527511 0.03496556884450234 0  0.7098024524524862 0.09168810862385701 0  0.7581577289011194 0.04162442452931624 0  1.410096995691025 0.03719712227352862 0  1.010818244910531 0.03662553855340529 0  1.008831765429761 0.03680075583332992 0  1.164879156910844 0.03687938495019002 0  1.39555331755244 0.06385628876746183 0  0.5431102979343747 0.07212082399199578 0  1.624116484800609 0.03874324563591425 0  0.8852206809578544 0.03210353003071555 0  1.208742623200669 0.08526964835105327 0  1.209916470794707 0.08751782182802255 0  1.211413689051821 0.08528324683329729 0  1.212810880843277 0.08776453859849254 0  0.04783079788344154 0.03710171521476734 0  0.03793127585383133 0.03759382007002392 0  1.092329620262467 0.008597141891297183 0  1.094315126873938 0.00842192685933957 0  0.6236857421162487 0.09102150815362905 0  1.206859760715539 0.0261153929999849 0  1.519166177455635 0.03371626320359854 0  0.1086605405499438 0.06785131939841493 0  0.8545708327106034 0.02273613652958994 0  0.855512347101139 0.02097161091276841 0  0.8536293183200716 0.02450066214641376 0  0.5963019029290315 0.009880655211194375 0  0.7078065043777878 0.09175468074323592 0  0.6204281603937736 0.07188603680986171 0  0.6224280783869469 0.07186792543285198 0  1.220680936235193 0.0577309058674746 0  0.5911179996894939 0.07390286388932364 0  0.6529656665629386 0.09184671278733597 0  0.646362743980889 0.06472587146247134 0  1.189682829445955 0.008673068420433179 0  1.191675088665899 0.008497275358741993 0  1.124497012206594 0.09221641995048969 0  1.048833407527254 0.03686713670519272 0  0.8402164120046776 0.04227969317121255 0  0.8422152932097429 0.04221280574301495 0  1.130905231971693 0.03644111658046612 0  0.3534189317168841 0.06491035204455314 0  1.26000979162977 0.07745768814438059 0  1.263241865317628 0.07207994823778896 0  1.266673312996863 0.0776411235158392 0  1.165528198304746 0.0914307134002319 0  1.163528869442977 0.09137727787721357 0  1.069344254506849 0.008892130275114051 0  0.5563195003727635 0.01981051162525788 0  0.6710144906379477 0.0912731380556951 0  1.151536067039881 0.03534820784786013 0  1.152630705280071 0.03702256351520293 0  1.07664985490291 0.03265193979613158 0  0.2422432475650547 0.03597341634309993 0  0.2521862955796477 0.03546657606335938 0  1.549071602691774 0.03267686584058599 0  1.08256977105883 0.09121026416112273 0  1.080574664151856 0.09116272004725012 0  1.08456586396965 0.09125943998185695 0  1.243599471354925 0.01897434454288465 0  1.246597801700584 0.02333345224109996 0  0.5403915016399162 0.07752748896123549 0  0.6469144385434119 0.09207859991145624 0  0.7322371347074352 0.04248939843217163 0  1.093777577355734 0.01366811815729233 0  0.717790279513568 0.09142872914810318 0  0.5929060095572409 0.08923745971236609 0  0.9068896382352687 0.03138434760220547 0  0.6670229669701727 0.09134549574967683 0  1.168954809257226 0.03647532067644955 0  1.035634360495607 0.09182335167869628 0  1.03763184499719 0.09179547453935508 0  1.033638649786521 0.09177590857759928 0  0.688198531579603 0.007601179477621295 0  1.031315995203888 0.008780496864187359 0  1.031822966545979 0.03650550428347351 0  1.069755051748539 0.03657695409520029 0  1.071755745601441 0.03658796822248885 0  1.095459562442745 0.01005381085177786 0  1.096300595004834 0.008246722955829998 0  0.8714869443127653 0.01242139071861087 0  0.7496728006584656 0.05744064447361928 0  0.6128021421630795 0.02390757286890622 0  0.6117488160332285 0.02220958988062455 0  1.092936499939403 0.01547533683070282 0  1.090950823082115 0.01565051758843891 0  1.098145583352385 0.01674064239276399 0  0.5596070076874061 0.08036508949656597 0  0.8508065022469432 0.02979516054092946 0  0.8498652757061613 0.03155983974842076 0  0.8509209633971945 0.03325658199148057 0  0.8489221381629173 0.03332349928451203 0  0.8499792344519969 0.03502099312636861 0  0.8479803174878235 0.03508786147422703 0  0.8490376332549252 0.03678547242501354 0  0.8470387375821079 0.03685235213350044 0  0.8510365059520908 0.03671858045719194 0  0.8500949756758085 0.03848309759770788 0  0.8520938528152697 0.03841620800020464 0  0.6991190386507978 0.07123819993474385 0  0.7011147716168368 0.07117161073292602 0  0.6971234750896055 0.07130481250954882 0  0.7020550156309567 0.06940983917743263 0  0.7031093591809752 0.07110593049676285 0  0.6183269153193611 0.04623505346130612 0  0.6877137248439734 0.02314420743606681 0  1.17904448277256 0.04997582087338048 0  0.6946794725929489 0.087025641713186 0  0.6986701943516784 0.08689231549469847 0  0.7006657435023564 0.08682570337029416 0  0.6171544060667385 0.04107487046991728 0  0.6151555165041531 0.04114150752484046 0  0.6676848934356127 0.08618665991679331 0  0.9747390111605957 0.06549255829561867 0  0.9727443914259415 0.06555922799235334 0  0.6636995004367284 0.08632854534039014 0  0.6597098779877054 0.08646241540754003 0  1.104107909692292 0.01623207253890763 0  0.9857718006626282 0.06682421179184755 0  0.9877662340139618 0.06675762150789259 0  0.9837792087994439 0.06689177417629914 0  0.6964300090768665 0.05056913405447012 0  0.5831907702915307 0.08767465420702175 0  0.9442863772410736 0.01994619483136814 0  0.6138064674079612 0.09138559874261432 0  0.6984260332490559 0.05049827487422938 0  0.70195860128214 0.03653212215523118 0  0.6999682841253796 0.03659601945720673 0  0.7039532691578023 0.03646253459434812 0  0.9042276853045385 0.02000666610714786 0  0.9062161756735391 0.01983026894014696 0  0.6457436503735061 0.08692535437254664 0  1.146411013855605 0.03029696602417812 0  1.087463928190358 0.06342890081443073 0  1.085469567731164 0.063495416236136 0  1.089458338619153 0.06336235167684015 0  1.136203649297925 0.01686544492385354 0  0.6138503851506294 0.02561079286382999 0  0.6897052113420089 0.0230787344486226 0  0.6045813971679823 0.01724691852023475 0  0.92285997964824 0.06721868405317316 0  0.9208648199388718 0.06728255766554866 0  0.9248562963406232 0.06715178613327537 0  1.578970947779677 0.03164692846212432 0  0.6417500251774809 0.08705733898450828 0  0.7088718632376497 0.06400823004859561 0  0.7068746730832151 0.06407538300679039 0  0.7108691963251873 0.06394111964693226 0  1.109586243836519 0.03311799062356872 0  1.119519909450762 0.03224171339621595 0  1.123492937905685 0.03189051292389923 0  1.177330774799635 0.06044552176216676 0  1.179329708338664 0.06037889196446211 0  1.180279707709757 0.05861035308222372 0  0.8885382848859239 0.01268792196867166 0  0.8893818623983917 0.01087469918246783 0  0.7356480168186317 0.05452071113398409 0  1.101638697388297 0.03381101577629465 0  1.100797341896991 0.03561901491283202 0  1.102480046228277 0.03200302589229895 0  1.098810879354997 0.03579435484178274 0  1.099955959151095 0.03742703266279943 0  0.6906415907517056 0.05763406774801587 0  0.6873412567257939 0.07299552042189238 0  0.8878120227544014 0.08921164465157674 0  0.8888688121564045 0.09090891015805715 0  0.889205397694413 0.03175415992199453 0  0.8883604994202581 0.03356693442853891 0  0.9788437619366428 0.06881394436274051 0  1.087784396553303 0.03746288564201974 0  0.6377524324045578 0.08718948077960739 0  0.9080623312814147 0.03654295606762024 0  0.9100609344018449 0.03647588724661008 0  0.8867551194708634 0.08751397143806157 0  0.7406228955664886 0.02316413812751488 0  0.7415655703611141 0.02140023216866949 0  0.886607922568903 0.02502712544868297 0  1.194919813584205 0.04597908283054529 0  1.195977123554703 0.04767675602583377 0  1.197976006995619 0.0476099354474759 0  1.187865853269783 0.04448187075745747 0  1.189864736697989 0.04441504979870453 0  1.184693923302308 0.03938884951408019 0  0.7623612024335552 0.07781230274935069 0  0.7603623212282585 0.07787919017064499 0  0.7523667964078666 0.07814673987819323 0  0.7543656776129293 0.07807985244998566 0  0.7421406855344365 0.07155684940834667 0  0.7431980523489888 0.07325448759698347 0  1.162569530418733 0.0896559721962473 0  1.161529243616688 0.09133620111463045 0  0.7343989709070828 0.01643637759040551 0  0.7441323676127457 0.03864586026123042 0  0.7208628018605251 0.06360375821499427 0  0.8711411444711399 0.03951185613133184 0  0.8721985112856956 0.04120949431995621 0  0.614707191055117 0.08622470970098237 0  0.8617406955643551 0.02769527623911363 0  0.8637395767694105 0.02762838881091145 0  0.8457349509255179 0.05769221172529435 0  0.8888663332566245 0.06145880209789695 0  0.886882737229679 0.06151616921710954 0  0.8922884807580621 0.07346461991032509 0  0.8932299951525779 0.07170009428714791 0  0.8720679638633909 0.06720916657501372 0  0.8710105970488478 0.06551152838637844 0  0.8536146233217164 0.05396249820701532 0  0.8546719901362654 0.05566013639565236 0  0.748253181573697 0.07481835092915347 0  0.7473116671831925 0.07658287654599064 0  0.7532972463921777 0.04354454541769019 0  0.8903046355721973 0.04407015828183489 0  0.8418530409394296 0.06128815038716687 0  0.8407956741248542 0.05959051219855344 0  0.7384708561207989 0.04921314836625938 0  0.8586550575480976 0.08498819759969087 0  0.8971281448600875 0.03864314969671533 0  0.8706483447784974 0.0845868730304858 0  0.7322621319350631 0.07535345035368543 0  0.8659701628224475 0.03448582899365868 0  0.8669116772129816 0.03272130337681298 0  0.8817001212401153 0.08595007699593865 0  0.8666505823683615 0.08472064788688684 0  0.8690117158437909 0.06557841581458992 0  0.869953230234303 0.06381389019775012 0  0.8661871726722322 0.07087199266507081 0  0.8652456582817069 0.07263651828189384 0  1.16960866259488 0.08809778183835298 0  1.170567058080221 0.08985299881579309 0  1.169526172482247 0.09156080150218249 0  1.171526835584625 0.091555813655256 0  1.172566701354475 0.08989181020936433 0  1.173526509502615 0.09159316174990131 0  1.1745662104084 0.08993621429428085 0  1.175526207712046 0.09162960653185045 0  1.176565701140831 0.08998139994233892 0  1.177523884484657 0.09175104159151296 0  1.178564851913569 0.09004088089720066 0  1.179524892033436 0.09173247613646598 0  1.180564501155718 0.09007941098403963 0  1.181524835692401 0.0917586308530832 0  1.18256405616111 0.09012190262149813 0  1.183524374991682 0.09180178274899627 0  1.184563528067108 0.09016788738062249 0  1.185524039552612 0.09183966932227111 0  0.851253489846387 0.07310473027935288 0  0.8521950042369089 0.0713402046625133 0  0.8503119754558953 0.07486925589618607 0  0.731088912694573 0.07019364836080098 0  0.7301473983041165 0.07195817397763378 0  0.7320304270849671 0.0684291227439849 0  0.734029308290018 0.06836223531574992 0  0.8718215721146056 0.0897466699807335 0  0.8728789884953425 0.09144426957362359 0  1.180330498373021 0.01645342210777823 0  1.176345979933022 0.01680500823023673 0  1.159259535305782 0.01657390215402993 0  0.9903458853736061 0.03149570395267067 0  0.9863725116162416 0.03184544344851913 0  1.189603055777265 0.08856123866322008 0  0.9823993599559914 0.03219484379288012 0  0.9887057773494639 0.06499708943177344 0  0.9897606953445118 0.06669101425500065 0  0.9462616453410898 0.01975707623609734 0  1.191744646894025 0.02066259246729844 0  0.9971496885196977 0.02916302594399485 0  0.9991358975503193 0.02898790598029522 0  0.9193534705493316 0.03255465626210671 0  0.9273109971107139 0.0318595999285219 0  1.002872437290201 0.0373265742171745 0  0.753783463757651 0.06077087189838835 0  0.7548420928551973 0.06246772387935416 0  0.7059326521115508 0.06583430655634126 0  0.7048774527416263 0.06414011382113689 0  1.124943192109182 0.03696684069401236 0  0.324179223489546 0.06664417529461947 0  1.20581044596324 0.08942964370856329 0  1.228519781109835 0.0354292572540026 0  1.317421044720789 0.0332791402290848 0  0.7137954763346127 0.09155681284032331 0  0.7239336946002246 0.03577335179432573 0  0.7219348540622292 0.03583964212906542 0  0.7209933372607865 0.03760414705599409 0  0.7199359824287882 0.03590644744718424 0  0.663031175613076 0.09141732923577855 0  0.6188283679235718 0.02715775897435269 0  0.8028169312804688 0.06086137488270586 0  0.8038742980863273 0.06255901281151766 0  1.122499703904968 0.09216864376210304 0  0.7486196969160398 0.05575152111288162 0  0.7623498390284067 0.04498019020407215 0  0.7634060885012492 0.04667852380410989 0  0.7624634131799763 0.04844242947820593 0  0.7644623379271095 0.04837685749000226 0  1.200818426121883 0.04228477087592832 0  1.20189868650961 0.04401250485321989 0  0.7670327376545736 0.06562024032195543 0  0.7690286589016309 0.06555653626088691 0  0.7650302086166828 0.0656880539853982 0  0.5918241151213258 0.05227237200102185 0  0.5906488267375936 0.05470473819694564 0  0.7790268154566077 0.06522647890228185 0  0.7770281843815707 0.06527957581398955 0  0.7810222958022839 0.06516304905225268 0  0.5915332902796154 0.009533921538047385 0  0.8126979232918183 0.05713764401317682 0  0.8955961019950542 0.0594574810528064 0  1.040912444343483 0.03743651061883445 0  1.253691843536457 0.06717895395250205 0  1.173852880668921 0.03443130526568713 0  1.173034795838394 0.03622651471001316 0  0.8719934994457379 0.007182817448577161 0  1.753651171044333 0.03433785366398 0  1.763561819924885 0.03431466679889059 0  1.768779912595057 0.04245521037444295 0  0.7456750382483526 0.0575744193300636 0  0.7447335238578485 0.05933894494689528 0  1.242746192827437 0.06826173617916365 0  0.5572908136185196 0.06734630958496204 0  1.343622260072504 0.03235438522724531 0  1.1955141822074 0.03382822520777075 0  1.19751496276101 0.03381815666593982 0  1.096541422187141 0.03251466907963828 0  0.79700910463276 0.06463376691943146 0  0.7989900488434527 0.06453174842982248 0  1.187519151899981 0.02966025758344603 0  0.7432237695937715 0.01094794173533709 0  1.083567372584572 0.03069244434253458 0  1.270161031350729 0.07173818010707635 0  0.7251199586965039 0.008078219259082553 0  0.7231240788357001 0.008144223092548532 0  0.8794833797690071 0.02391308049937878 0  0.8806308391353852 0.02555116979655422 0  0.659039321441136 0.09148970465369724 0  0.5937759507557107 0.06143651513137161 0  0.6852508182936352 0.06264465163532387 0  0.6832555191341292 0.06266293628873063 0  1.15356872220997 0.03532074762565385 0  1.154634030840595 0.03696367145785349 0  1.187850171988466 0.07394370581880373 0  1.188791739911285 0.07217922398401939 0  1.189845317632219 0.07376510160710441 0  1.190791835798707 0.07214852950068684 0  0.6898642947875452 0.09237584575843023 0  0.8478609463756812 0.03157559288243635 0  0.9988953099177955 0.03763156724108671 0  0.9972586131965575 0.008317545103586862 0  0.9992440602624406 0.008142547659225547 0  0.5859535064156338 0.01474534652524803 0  0.5842705348319253 0.01224652437069682 0  0.8952288763570105 0.07163320685992354 0  0.6862110891893665 0.007666870008803842 0  0.5588654508694534 0.0331191500197829 0  0.9747545466080982 0.03633549249934892 0  0.8909434037584389 0.06485525278605406 0  0.7654010750682136 0.04674305041657176 0  0.7664620986938435 0.04837846213510154 0  0.7655187267084284 0.05008638724697396 0  0.767517674715068 0.05002268120922244 0  1.132798433092698 0.03633212747987901 0  0.6911741232753082 0.06481207935245391 0  0.8831024388793816 0.007947865239707454 0  0.881110568379231 0.008122498768676319 0  0.885093997024931 0.0077735693565011 0  1.155614716848825 0.0352607175119927 0  1.156641519093753 0.03689966960753097 0  1.610060850402712 0.065156248204087 0  1.600091596882645 0.06549980239544589 0  0.2925579264862371 0.06876314231527046 0  0.9367062367862302 0.0361482459567057 0  0.9387007429492167 0.03604353456414831 0  1.374455093018938 0.02819483941257159 0  1.193512668246073 0.09207508069647717 0  1.191519290245769 0.03404783461374294 0  0.9280643740307184 0.08236448769023946 0  0.9260809056725672 0.08232571352189555 0  1.00988543805874 0.0383910847258967 0  0.6872462614776093 0.06262630630536382 0  0.6202990220410007 0.06151616246472916 0  0.6183282814177111 0.06151595176027228 0  1.208864669767858 0.06694970945094916 0  1.210126059690682 0.06464497162076951 0  1.224461709169969 0.03617636885329666 0  1.077588517038001 0.03089266294055792 0  1.192738678377001 0.06572937731560297 0  1.187844264006134 0.07811411271171996 0  0.8086977224198276 0.05719854724426991 0  0.7288437996057745 0.09279713748254638 0  0.8411579263951934 0.04051516755438361 0  0.8431568076002584 0.04044828012615738 0  0.914603319736027 0.03468530600281929 0  0.9153855436271995 0.03289939669415735 0  1.15246471796892 0.03070319975684533 0  0.6082494357417556 0.07251199466626815 0  1.754854893680853 0.06923280541908224 0  1.764740487254507 0.06896551316693204 0  1.744928841822642 0.0691301093287098 0  1.249000863367685 0.01834748349122302 0  1.252172859218499 0.02301704811620107 0  1.254751335283288 0.01771288303402112 0  1.258151424757283 0.02273561743575533 0  1.249513758366371 0.02809320396206962 0  0.7529566894441837 0.03315772464201326 0  0.5813497729699989 0.0847977037280144 0  0.9268374282871785 0.03729933409775429 0  1.114894662644543 0.03802801249131512 0  0.7519008739495072 0.031459121126702 0  0.75501704513792 0.03658776532179341 0  0.5798576246247278 0.08848965661784158 0  1.174515248106303 0.09343528548744708 0  0.8588867623961853 0.09191252521061469 0  0.8568878811911116 0.09197941263881085 0  0.7390747644292324 0.007640220329663798 0  0.7371067874616721 0.007686118609795929 0  0.7412763694576169 0.007293546112030698 0  0.6978453627726061 0.09210990746837394 0  0.2655327897156053 0.07046090652819391 0  1.273695472517249 0.07788392926646193 0  1.277440451889602 0.07151875889212105 0  0.9308108958024124 0.0369041438626284 0  1.14840974758427 0.03022918128666166 0  1.232977674750105 0.08580290144436385 0  1.180510876034769 0.09350308208683411 0  0.5778464435974868 0.08500066997888663 0  0.8700011426927952 0.007357501705179868 0  1.120968656777892 0.03731658518808227 0  1.097994525824876 0.03758479953290984 0  1.203853396041317 0.0633432628585246 0  0.618428242455765 0.07190415420357082 0  0.804699960096543 0.0573323246952987 0  0.8027070163947798 0.0573955122958921 0  0.693854712123853 0.09224281797202406 0  0.6429217289998879 0.09221367064172964 0  1.196660705176453 0.06212729000170712 0  1.198659646630774 0.06207182120658476 0  1.1963843672219 0.03214407360337017 0  0.6853455184710945 0.07301371562144558 0  0.2467805049872334 0.02709903815485204 0  0.4580455959939792 0.0673769760612178 0  0.7684618462639117 0.0483045801184909 0  0.7695167405026343 0.04995603515925266 0  0.5385323248212509 0.02997391187040896 0  0.535201458818511 0.02442544386429145 0  0.5374307577823013 0.01925643134655494 0  0.5973552523154199 0.0783653685564072 0  1.034595425518405 0.09352798679292196 0  0.9209403909378351 0.03777334904727966 0  0.9376782537506555 0.03784959557506579 0  0.9398113072157638 0.03761608910811311 0  0.8819549998685378 0.006310636053908331 0  1.19180734907459 0.0674632643604413 0  0.5951233787095982 0.07852335115036939 0  0.6389254355201002 0.09234903490138764 0  1.179411713096357 0.03090139556978826 0  1.181313745197374 0.03078406117645688 0  1.177419433628254 0.03096250502496094 0  0.6214438069928051 0.07360895984519053 0  0.7967847478736432 0.0577141327694842 0  0.7428357677982924 0.09232983604747218 0  0.7448346425890457 0.09226293425045154 0  0.7408369188734983 0.09239671966939315 0  1.136640693749551 0.03407310924241504 0  1.137502224188978 0.03233237046995886 0  0.9838387649726391 0.03731939817356714 0  0.9237940154611414 0.09267211366443975 0  0.9217980942035259 0.09263295317333062 0  0.9208393751985252 0.09083239276254337 0  0.9197830051903232 0.09260523502000517 0  0.925788773384606 0.09267833338387507 0  0.9377654807404446 0.09295187206741447 0  1.194279957258912 0.01514478410378594 0  1.195426737004118 0.01684108224998946 0  1.221556644101308 0.04976886728799587 0  0.8859149627888044 0.09278697706109047 0  1.08755326851329 0.03055894112919655 0  1.089546175994074 0.0304921720648737 0  1.132034802861958 0.03808566821224819 0  0.5856130942596374 0.09027980000693053 0  1.20209036203548 0.02269208269907719 0  0.5761163877224678 0.08826038439928052 0  0.5827899432122065 0.01542317755579874 0  0.5809918982049063 0.01224579663580773 0  0.6349275546569089 0.09248287452152411 0  0.6329285072590569 0.09254954976445243 0  0.8819318996546879 0.09287385441052909 0  1.235801724752488 0.01562907860658668 0  0.7311184434736191 0.00798755517198424 0  0.7088621109032328 0.09344992149952538 0  0.5874442205235009 0.07717614322613971 0  1.194623133340699 0.06219228570802719 0  1.075711156379783 0.03441125632616572 0  1.076765437035407 0.03610387983450554 0  0.6234338843157584 0.07362766953780014 0  0.8459813683562887 0.03515471265824394 0  0.4381724318382443 0.07036120409833352 0  0.9357694608423301 0.09290641506585851 0  0.6039521569403897 0.05633646348607741 0  0.6045501730680123 0.0579651703729797 0  0.603472335938813 0.05956924260604254 0  0.6054754976015944 0.059613227743615 0  1.184874280116085 0.07596828934621969 0  1.182904849190592 0.07587716777903045 0  0.6842372608948225 0.06092585000790426 0  0.7289878147774793 0.03734139713041956 0  0.731294358408372 0.04426069920876728 0  1.218614849458049 0.02784217745243859 0  0.6205556198436347 0.04963705222731774 0  1.092095324344375 0.01728210033664276 0  1.042055561405148 0.03904933328444529 0  0.7354942297269469 0.05102216190645801 0  0.9949261359720412 0.03802747219770473 0  0.9229173623246226 0.08741244670536086 0  0.6857222256239115 0.02320967015672434 0  1.188673576291187 0.03136627024006888 0  0.8799335912029715 0.0929408088640047 0  1.099297245917904 0.01838220456861629 0  1.044011922610452 0.03889271002130212 0  1.769359041447425 0.0596835453070068 0  0.6981788753269318 0.07299970997983547 0  0.6961833843403662 0.0730662074826363 0  1.177045599548281 0.05004264792959016 0  1.097444608942554 0.009873810060230474 0  1.098285975391729 0.008070743359181065 0  1.097141568695851 0.006439713170209959 0  0.6856439392394651 0.08559921227572564 0  0.6996016949603896 0.08512791717984222 0  0.8525719515055368 0.02280302395777205 0  0.9736839428512816 0.06379853416168835 0  0.9756784562377102 0.06372793031590182 0  1.203220398132504 0.05234166496365199 0  0.9716893465025782 0.06386519105823674 0  0.9707497809784718 0.06562587552135588 0  0.9696947385460486 0.06393183881207107 0  0.9687551525306626 0.06569255252099038 0  0.9676980120410454 0.0639957534550213 0  0.9667601408121878 0.0657587373632999 0  0.9657015353060514 0.06406272163978846 0  0.9647650803236757 0.06582539102008861 0  0.9637095925742468 0.06413196876386168 0  0.9627707355851284 0.06589246360346833 0  0.7021704177277854 0.07287270061779175 0  0.7041648912866147 0.07280239762628161 0  0.9617156763892487 0.06419842808982062 0  0.9607762002161403 0.06595917288699785 0  0.9597210424733746 0.06426504547481161 0  0.9587813805132701 0.06602584559317883 0  0.9577243264587687 0.06432896127623938 0  0.9567861833811776 0.06609220512188635 0  0.9557276021039354 0.06439598642051547 0  0.9547908770096367 0.06615891003968785 0  0.9537341381497417 0.0644654157386317 0  0.9527960520546781 0.06622607534945671 0  0.9517406805016899 0.06452803206495303 0  0.9508012636813501 0.06629218658603091 0  0.9497458731018487 0.06459390488388986 0  0.9488062086675284 0.06635867775571691 0  0.5368147901864914 0.07224981549957611 0  0.5335422566359596 0.07904936957823322 0  0.9477507468124311 0.06466044645114101 0  0.946811002501039 0.06642532068717498 0  0.9457554862501052 0.06472705938789378 0  0.9448156928233693 0.06649202333423188 0  0.9437603116389535 0.06479822858382517 0  0.9428203207877903 0.0665595105136179 0  0.9417669563236509 0.06486081557458812 0  0.9408249295141169 0.06662618483908717 0  0.9397705303396284 0.06492782680978995 0  0.9388294269472366 0.06669247583520826 0  0.9377737278088444 0.06499399833259685 0  0.9368335274379862 0.06675906690368745 0  0.9357777180513804 0.06506053046537053 0  0.9348376092164071 0.0668257725291293 0  0.7268454317964472 0.0928574162077471 0  0.9337817501887576 0.06512724846817887 0  0.9328416007185034 0.06689253566399425 0  0.931785676447221 0.06519389680777886 0  0.930845462762704 0.06695930307103902 0  0.929789787502314 0.06526438544467061 0  0.7016019463903357 0.08506231217318039 0  0.9888211271658922 0.06845157225878512 0  0.9908157631197386 0.06839018908793086 0  0.9917551842943746 0.06662527707540246 0  0.9928102518307129 0.06832458229951963 0  0.9937496202381505 0.06655898378355507 0  0.9948045204303223 0.06825294880919279 0  0.9957439951472041 0.06649116723885573 0  0.9967990735204548 0.06819044532536797 0  0.9977384246798282 0.06642545818271277 0  0.9987935019208818 0.06812465830249834 0  0.9997328279843619 0.06635913535485279 0  1.000787875623413 0.06805760403735607 0  1.001727209134466 0.06629249846655255 0  1.002782248399858 0.06799090372143611 0  1.003721577870734 0.06622586845486736 0  1.004776459827212 0.06791971937591951 0  1.005715910105928 0.06615809780436605 0  1.006770948141169 0.06785716517450074 0  1.007710266515519 0.06609235855141217 0  1.008765312722974 0.06779136909573316 0  1.009704614683664 0.06602603424256016 0  1.010759635154642 0.06772452779274024 0  1.011698924334199 0.06595942648332923 0  1.01275395125273 0.06765787074533654 0  1.013693245280213 0.06589280907980212 0  1.014748108453119 0.06758662328476461 0  1.015687536498929 0.06582503165873051 0  1.016742543931485 0.06752390760086793 0  1.017681835160424 0.06575926798639538 0  1.018736859779453 0.06745808344649976 0  1.019676137575229 0.06569292980954136 0  1.020731145240302 0.06739146156878875 0  1.021670429416246 0.06562636820162907 0  1.022725425082699 0.06732485091041319 0  1.023664706218426 0.06555976558340149 0  1.024719566591541 0.06725358489892361 0  1.025658948202956 0.06549196886856477 0  1.026713980205412 0.06719073044024446 0  1.027653235038159 0.06542619793730692 0  1.02870824182669 0.06712484263778264 0  1.029647495319989 0.0653598477286928 0  1.030702475257949 0.06705829404562837 0  1.031641742963348 0.0652932905978458 0  1.032696718943084 0.06699169807521239 0  1.033635986883497 0.06522669111466931 0  1.034690958361129 0.0669250179351899 0  1.035630226608357 0.06516007030735375 0  1.036685195947051 0.06685839028976044 0  1.037624462800544 0.06509345478276918 0  1.038679277954701 0.06678719944066033 0  1.039618669616795 0.06502568351810355 0  1.040673479303652 0.06671962380046606 0  1.041612899413701 0.06495907135589117 0  1.042667702706279 0.06665285329799578 0  1.043607126286251 0.06489245918477965 0  1.044660473131481 0.06659158570690719 0  1.045601083750032 0.0648267390997006 0  1.046653655579583 0.06652419739464904 0  1.047595573043966 0.06475923451843615 0  1.048646807419095 0.06645636283903519 0  1.049589190868311 0.06469319721881875 0  1.050644593362673 0.06639159288824098 0  1.051583923827982 0.06462698707837732 0  1.052639742263207 0.06632519407828105 0  1.053578384216559 0.06456047690364713 0  1.054633462496863 0.06625407298259733 0  1.05557250931128 0.06449295965449053 0  1.056627335270184 0.06618671356914502 0  1.057566709697383 0.06442624015246659 0  1.058621496915191 0.06611995977480711 0  1.059560928523237 0.06435957841428074 0  1.060616632084525 0.06605779908656279 0  1.061555316278709 0.06429369762578463 0  1.062611401365175 0.0659918221413248 0  1.063549647466955 0.0642273170361644 0  1.06460416710331 0.06592007723042494 0  1.065543656373413 0.06415988426539786 0  1.066598418891177 0.06585350155734891 0  1.067537864733546 0.06409313725975645 0  1.068592663676929 0.06578687650240199 0  1.069532119084362 0.06402648928430726 0  1.070588079170747 0.06572463808489143 0  1.071526584717315 0.06396059338167384 0  1.072583055434175 0.06565857463307066 0  1.073520995182709 0.06389419230759635 0  1.074575465451846 0.06558703200152312 0  1.07551500856303 0.06382677278950992 0  1.076569781073712 0.06552045715703445 0  1.077509272549473 0.0637600224874999 0  1.078564094183953 0.06545383604004529 0  1.079502109383581 0.06369262103781684 0  1.08055528977004 0.06538574255789295 0  0.9848325176531072 0.06858493501036718 0  0.6108058984279021 0.02397362212880851 0  0.6097498131126786 0.0222754876660129 0  1.094105762433226 0.01709239313398974 0  0.8569641985506709 0.007068174077252594 0  0.7221830799055956 0.009904595581696762 0  0.721129921901119 0.008209850276392323 0  0.7201890502802786 0.00996902510696532 0  0.719136221692105 0.008275489822628292 0  0.7181960056015965 0.01003350374193106 0  0.7171437129414153 0.008340838478778236 0  0.7200766899558653 0.006516702599586283 0  0.7162010769677651 0.01010188531908703 0  0.7151518246061188 0.008406610644070726 0  0.7142079069851552 0.01016626508304942 0  0.7131606751685664 0.008471751281850418 0  0.7122216470320116 0.0102270430213969 0  0.711171132706264 0.008535975750700224 0  0.7102282914014252 0.01029689690829457 0  0.7091808987272126 0.008601787713703703 0  0.7082359885787199 0.0103613716644529 0  0.7071909126864468 0.008666772198688446 0  0.7062525463023912 0.0104207878130923 0  0.7052028124965791 0.008730465966354772 0  0.7042593031383493 0.01049156940922273 0  0.7032131408568325 0.008796265893728027 0  0.7022666660570231 0.01056155865482056 0  0.7012249304680328 0.008859967936668397 0  0.7021633324253906 0.007105525276280703 0  0.7001748168718868 0.007170231494874122 0  0.6992352167272471 0.00892535714117298 0  0.6981862815818369 0.007234946622379133 0  0.6972479669497826 0.008987514894571006 0  0.6961907414971855 0.007294556826576797 0  0.6952539921673739 0.009058160870420563 0  0.6942100778482145 0.007363695182803888 0  1.090115590875808 0.01745352065331554 0  0.7279315072490136 0.03563889773440222 0  0.9050707681756324 0.01819661462875057 0  0.907059660688148 0.01802200656828206 0  0.6736662416161607 0.08598169400425071 0  0.6776728361543718 0.085865443674458 0  1.078448492366345 0.06199946326218157 0  0.6816572352772986 0.08573488830049381 0  0.7058180492559434 0.06237929812049166 0  0.7038213210997619 0.06244636999196271 0  0.7216681631018751 0.08783113936157522 0  0.7300437390732439 0.03903998368781428 0  1.068477299683792 0.06233276402774258 0  0.7302401814736309 0.04255612822941172 0  0.6963092962443428 0.01074944415410532 0  1.058506126130897 0.06266587207947574 0  1.181328617503785 0.06030800844161791 0  1.1822753935718 0.05854698338231887 0  0.7098124315596149 0.06224476949465969 0  0.7118101246747817 0.06217657937718035 0  0.7271162558309585 0.008012547677191997 0  0.9238007310485581 0.06545606377164921 0  1.040558038661232 0.06326535006182182 0  1.138661310168838 0.03748600723767748 0  0.9399758302577467 0.01683198054690252 0  0.9379895566304879 0.01700685848407173 0  1.067273982260533 0.0299094365320807 0  1.128311845130984 0.02973145621199555 0  0.6122393177916499 0.00659916003149208 0  1.061318841124625 0.03043797031176672 0  1.121542336297134 0.09041529159036311 0  1.120502608920954 0.09212095058918952 0  1.014632651645559 0.06413144501464169 0  0.6923054510091614 0.01090554897316412 0  1.119545300558576 0.09036777259608478 0  1.118505688765068 0.09207330797623943 0  1.117548451390866 0.09032026844662705 0  1.116508926497589 0.09202568203108286 0  1.115551751722577 0.0902727620126462 0  1.114512292621562 0.09197806864292979 0  1.113555182780352 0.09022526265470968 0  1.112515790293251 0.09193047676343002 0  1.11155872742473 0.09017776208374342 0  1.110519369092841 0.09188288511796541 0  1.109562366520718 0.09013026102281541 0  1.108523057660126 0.09183532587397242 0  1.107565102660754 0.09008180733209371 0  1.106526670342634 0.09178760364934568 0  1.105568202797151 0.09003440308095653 0  1.104530355414628 0.09174004046827255 0  1.103573735518735 0.08998774742430854 0  1.102534499163853 0.09169263484433522 0  1.1015776499556 0.08994024896350367 0  1.100538473402756 0.09164512987679387 0  1.099581619446407 0.08989276089287151 0  1.098542473366522 0.09159759252079827 0  1.097585627862449 0.08984526499594205 0  1.096546499965743 0.0915500585953079 0  1.095589673136464 0.08979776928245511 0  1.094550556451082 0.09150253523097492 0  1.093593752502336 0.08975027404337151 0  1.092554664082927 0.09145501406162042 0  1.091597864743658 0.08970277917209797 0  1.090557719587209 0.09140849469618255 0  1.09151513389299 0.0931421229823958 0  1.089601824090254 0.08965545064496422 0  1.088562229463305 0.09136050938576078 0  1.385718996675826 0.06412423532027661 0  1.390443753424556 0.07240170444229674 0  1.055356461060231 0.03096499554331148 0  1.008649695549621 0.06433140425187775 0  1.135594590408337 0.00997700503258277 0  1.134449415917395 0.008342907828293087 0  1.136435850662676 0.008168135733306027 0  1.132461645819505 0.008519566385555415 0  1.002666648739634 0.06453127079551126 0  0.8898101372957705 0.08914510263353938 0  0.8908668705710789 0.09084212630253605 0  0.8899257918624102 0.09260559803710257 0  0.891926102405932 0.09261768021125701 0  0.892864823328167 0.0907886758462759 0  0.8939239644778967 0.09256625232355908 0  0.8948622949905928 0.09072695879132515 0  0.8959185165018267 0.09242393241619057 0  0.8968588016844615 0.09064251999191364 0  0.8979148294121579 0.0923417147128425 0  0.8988556175781666 0.0905764594572801 0  0.8999115654409624 0.09227251376537589 0  0.7257871898124897 0.09116509763187605 0  0.7248472845379899 0.09292288777020372 0  0.0893130009165353 0.06953084551510383 0  0.07935885200170567 0.07002964979556858 0  0.685273626432673 0.009421356844720131 0  0.6842230098745087 0.007732068209428105 0  1.023274406333455 0.03032383855002794 0  0.9082039798245588 0.01965334486081768 0  0.9288502988154317 0.06702462388602475 0  1.088518745654895 0.06512287702681546 0  1.090517854550782 0.06505998514049721 0  0.6944352341888775 0.05063617847428824 0  0.6953746229148893 0.048875269829507 0  0.6933801471999225 0.04894218378649638 0  1.128576216240597 0.08885243233769954 0  1.129532997096296 0.0906065845906162 0  1.128492582871583 0.09231234791837419 0  1.130490149572998 0.09236053201951012 0  1.131530627834397 0.09065466687494511 0  1.132487854565428 0.09240878923993086 0  1.133528348913811 0.09070274813387232 0  1.134485918833989 0.09245710313640235 0  1.135526659249372 0.09075090360514323 0  1.136484354434866 0.09250543741905855 0  1.137525272366114 0.0907990597695843 0  1.138483052221006 0.09255374260319411 0  1.139524260901253 0.09084715840757081 0  1.140482022399528 0.09260197446486915 0  1.141523514481806 0.09089473476580408 0  1.142481355754914 0.09265013444498543 0  1.143522893416947 0.09094274488695786 0  1.144480885779463 0.09269828192214402 0  1.145522327140492 0.09099082703898578 0  1.146480327889887 0.0927463770453287 0  1.147521755349702 0.09103891372576656 0  1.148479896056389 0.09279153294477241 0  1.14952120266632 0.09108651080302339 0  1.150479521948317 0.09283175537914568 0  1.151520662788457 0.09113320403939658 0  1.152478912685374 0.09288127166184632 0  1.153520085848523 0.09118129560842628 0  1.142564853038051 0.08918717285029781 0  0.9422963256907165 0.02012026140028681 0  0.9431215322758082 0.0182964789741578 0  0.706750867850099 0.09005947170307127 0  0.7058106614255043 0.09182125454672203 0  0.9257964608178753 0.06539104924508041 0  0.6951280005667622 0.0713713969035154 0  0.6941879765933173 0.07313273344875913 0  1.017315214207831 0.030848263002449 0  1.13421467113414 0.01704076982924066 0  0.7003112490325114 0.04695664810022836 0  0.7013654420186826 0.04865509179829378 0  0.9797859687942522 0.06704934422598069 0  0.9808422919484834 0.06873784322533472 0  0.6712623673983784 0.07570579482465731 0  0.6702505433448084 0.07398536970955531 0  0.6682636727750177 0.07404776151704368 0  0.6722933271586556 0.07425050224264218 0  0.9091197222373136 0.03824033074297022 0  0.9110947395599697 0.03816049829862992 0  1.040306267840163 0.03055598497807699 0  0.9662101666473453 0.0301581382519214 0  0.9787286932543551 0.06535858417481734 0  0.9951634039084907 0.02933819348298775 0  0.8974563890118851 0.07849256130000615 0  0.8994478072306122 0.07843032215715404 0  0.9863653502512985 0.05470128482143903 0  0.9853269387346621 0.05299791878162753 0  0.9873761121028817 0.05293485466452238 0  0.9833193043088491 0.05307251423232223 0  0.9842754543083468 0.05130239879623945 0  0.9822657047420875 0.05137828608807206 0  0.9832216043735633 0.04960835284129657 0  1.080820846590812 0.08079324623987162 0  1.08185966842196 0.07908875739268988 0  1.079864187488669 0.0790413577305592 0  1.083855055821074 0.07913608179770593 0  1.082898468863013 0.07738430495673917 0  1.052315546121628 0.008661387546419009 0  1.071329708848156 0.008716996337069054 0  1.070185221243176 0.007085111792051541 0  1.068199706007291 0.007260213395834349 0  0.9030826815858621 0.01837186670098281 0  0.7347242578216961 0.08913527460042615 0  0.7357814680367617 0.09083294474924471 0  0.7348400221703013 0.09259733590076391 0  0.736838573602607 0.09253057533879921 0  0.9578415355874881 0.06778649871160776 0  0.901572337606612 0.08181978424727127 0  0.7336669854830016 0.08743757542971989 0  0.69196256149753 0.06628652587805096 0  0.7188638422940331 0.0636706059454491 0  0.7426218203340633 0.0230985654678893 0  0.7435644951286885 0.02133465950904413 0  0.744615171145411 0.02303001394864228 0  0.745562490903539 0.02126859037273819 0  0.744507015091211 0.01957067080414657 0  0.7464721227548412 0.02292673667579396 0  0.8843129909748566 0.02175094031062791 0  0.7397942666771701 0.0283897779998588 0  0.8826231958806656 0.02537648551551849 0  0.8817782985027625 0.02718925910285892 0  0.7356823712365994 0.02505918940519533 0  1.14229074392573 0.05988073679493914 0  1.143347854171764 0.0615785346759753 0  1.141350684854175 0.06163976613843837 0  0.6491366611369053 0.04000933580147492 0  0.6480795302671425 0.03831155032725451 0  0.6500784207616358 0.0382449406890925 0  0.6490212899213889 0.03654715547889354 0  0.7367386210772759 0.02675752317790858 0  0.7266304221952459 0.0236231467533417 0  0.6473685159420233 0.0470003977023617 0  0.648427804834311 0.04870010612347118 0  0.646427617063921 0.04876513486429231 0  0.650432837986294 0.04863991996030617 0  0.7316845209949381 0.02519033220667172 0  1.145346745432386 0.06151194915997083 0  1.144404964656881 0.06327633254471102 0  0.7331158322010715 0.007831644244305817 0  0.7329719414754046 0.06666459712715503 0  0.7504837676267281 0.08167579111199058 0  0.7534241632224049 0.07984437806684111 0  0.8450783835672153 0.03693979687387246 0  0.6306983223904774 0.08569205489476131 0  1.181852447959816 0.07415317051475394 0  1.180910772174596 0.07591604978882473 0  1.179854638216199 0.07421098787283496 0  1.178912268169586 0.07595874738659203 0  1.17785562200858 0.07427501928900793 0  1.176913381857868 0.07601976691023324 0  1.175856715959971 0.07434040812131865 0  0.736169639876335 0.009446942774392017 0  0.6460806397755784 0.03837815984384155 0  1.160570060476835 0.0896083222004081 0  1.159529771466779 0.09128970248468539 0  1.15856929727639 0.08956011740407911 0  1.157527707643265 0.09126916664807383 0  1.156564387265555 0.08951831477638611 0  0.6267004876562449 0.08582549269373708 0  0.7430761181486712 0.03694752664551534 0  1.194580795426502 0.0186735648707665 0  1.196482224247914 0.01845757977745887 0  1.197428668256168 0.01632831416926644 0  0.7388513101311451 0.03015398736526196 0  0.7399074426975379 0.03185244712551974 0  1.181755204707261 0.041221193858464 0  0.7238032007415243 0.06177237255999013 0  0.8511523350995024 0.04018073184275018 0  0.8491534533402361 0.04024761897522341 0  0.7189944660411802 0.03767098330072524 0  0.7179371012237242 0.0359733348753835 0  0.7188789817743197 0.03421886094454604 0  0.7169956598728764 0.03773758237620421 0  0.7159386677303837 0.03604031480478319 0  0.7149974695031165 0.03780408842381818 0  0.7139409651171832 0.03610756740251872 0  0.7130001377445044 0.03787061871581002 0  0.711943774690576 0.03617478780357104 0  0.7110034761381847 0.03793715809373078 0  0.7099476335779951 0.03624190433483476 0  0.7090060123647702 0.03800479126635455 0  0.7079502757737302 0.03630997904460322 0  0.732286470961334 0.01303971099298807 0  0.8627980623789059 0.02939291442773677 0  0.8369137641388016 0.06318645086043309 0  0.8699679252325667 0.03435205413723969 0  0.7554230444274834 0.07977749063860802 0  0.8975949755113604 0.05939075430832984 0  0.8531512150727535 0.04011384375730992 0  0.622702777048602 0.08595899107119201 0  0.7950131050852896 0.06470353345585177 0  1.168376943053007 0.01750818047478665 0  1.187690570225904 0.00884886148088892 0  0.8429104077539973 0.06298578857579235 0  1.157267276086153 0.01674969521531677 0  0.8768858990213776 0.01718603829245587 0  0.8748935422826297 0.01736072255628314 0  0.74577618353598 0.09049842097917989 0  0.7468335540165648 0.09219605592156302 0  0.7477750768792192 0.090431531768008 0  0.7488324422817271 0.09212916971276586 0  1.190922046683603 0.04611272343752926 0  1.17533066216848 0.06051285763329417 0  0.8672592344850605 0.04310779479321054 0  0.8683166012996062 0.04480543298183539 0  0.8703154825046623 0.04473854555364391 0  0.8693739681141339 0.04650307117046841 0  0.8673750869090815 0.04656995859865783 0  0.8684324537236099 0.04826759678729364 0  0.8292657965906747 0.07384049198961658 0  0.8283242822001519 0.07560501760644298 0  0.8263254009950902 0.07567190503462569 0  0.83032316340521 0.07553813017825267 0  0.7618614602919741 0.06059305309425216 0  0.7609187849217931 0.06235695880221879 0  0.7598625354509896 0.06065862519111445 0  0.7589037683090176 0.06240970858573114 0  0.7599488245908909 0.06411101656681335 0  0.772685185342879 0.05503904786224616 0  0.8236314052457662 0.05496580963001572 0  0.8246173690811599 0.05322500131805004 0  0.8227758229384668 0.05327991890109735 0  0.8265792090821618 0.05313834946912881 0  0.8255675264192892 0.05146508739938519 0  0.8275233986707453 0.05137525128267648 0  0.7716289358796966 0.05334071424611297 0  0.7736278606629297 0.05327514218733995 0  0.8730094782539167 0.06544464095817917 0  0.6048284439491073 0.09002202871184098 0  0.6058580676420495 0.09168475028087138 0  0.6038822127496468 0.09178066479209891 0  0.6047480561795958 0.09341318764361767 0  0.8737460829040724 0.01572263312990188 0  1.187271489366892 0.05663286740982789 0  0.8540927292580066 0.03834931803095406 0  0.855150094947274 0.04004695561919765 0  0.7553071920034353 0.07631532683314517 0  0.7643600836385791 0.07774541531990861 0  0.6208371230054102 0.02708693041614046 0  0.8731400256761979 0.0394449687031184 0  0.7696300110927488 0.05340628630733972 0  0.8383333832236528 0.04580874440487898 0  0.8372760164091078 0.04411110621624785 0  0.8363345020185957 0.04587563183307831 0  0.8813525603462422 0.07556358266174257 0  0.8741973924907571 0.04114260689175456 0  0.8517578119020738 0.02803586147480017 0  0.8878237421142616 0.05975196094391453 0  0.8858273235212303 0.05981731454454706 0  0.8505583753021005 0.052331747446584 0  0.60965220464673 0.08466186710017977 0  0.8705324923544719 0.08112470922506322 0  0.6116510900451704 0.08459510510597468 0  0.6174031174208678 0.01162521960731818 0  0.6183455010099606 0.00986115863796147 0  0.6172889706680951 0.008162999843225152 0  0.6192878845861254 0.008097097276569903 0  0.6203444149318494 0.009795256188229904 0  0.6212867985024944 0.008031194659376769 0  0.6223433288479377 0.009729353562614122 0  0.6232857124176201 0.007965292004449969 0  0.6243422427628533 0.009663450901398285 0  0.6252846263323379 0.007899389337305272 0  0.626341156677506 0.009597548232211199 0  0.6272835402469428 0.007833486666787537 0  0.6283400705920972 0.009531645561131072 0  0.6292824541615208 0.00776758399538854 0  0.630338984506675 0.009465742889586563 0  0.6312813680760958 0.007701681323769302 0  0.6323378984212475 0.009399840217930271 0  0.6332806164568312 0.007635957375696565 0  0.6343368680801781 0.009333967333517502 0  0.6352795987162173 0.007570189844116931 0  0.636335802676276 0.009268092149726331 0  0.6372777445868917 0.007504414611834408 0  0.6383344753218035 0.009202179196643677 0  0.6392761732316352 0.007438986414831679 0  0.6403325073482536 0.00913655107434598 0  0.6412743755746696 0.007373482372957572 0  0.6423296532455256 0.009070271510586987 0  0.6432699174341531 0.007283895795760204 0  0.6443254382851196 0.008999223422099637 0  0.6452649585500962 0.007213686932442613 0  0.6463200320810871 0.008931239109319955 0  0.647259566360352 0.007171576943173944 0  0.6483140232250478 0.008870416318538462 0  0.6492528008963967 0.007110835051320781 0  0.6503067243747949 0.008802999729709089 0  0.6373922527595697 0.01096619829239153 0  0.6333944380571146 0.01109800407666098 0  0.6293966009372509 0.01122980445543972 0  0.6253987731080832 0.01136160979817989 0  0.6214009452785627 0.01149341512997023 0  0.7366074520200361 0.08560616666282833 0  0.8638407341951273 0.06055238867688998 0  0.74836903399775 0.07828051473462383 0  0.7463701527926947 0.07834740216283431 0  0.7453127859781281 0.07664976397421491 0  0.7443712715876274 0.07841428959104203 0  0.8776011974963074 0.05315984924678092 0  0.7595218222645911 0.05027189041272626 0  0.603539913121515 0.08139997803900391 0  0.8897849523092323 0.05968628264127091 0  0.7451886170751256 0.04034419387875769 0  0.7461312923978644 0.03858028820204484 0  0.7471875418620236 0.04027862181768127 0  0.8485594940970427 0.05239863487478029 0  0.8732558781002434 0.04290713250857976 0  0.7665748551729687 0.05177499816725815 0  0.8647969435839653 0.02932602699953077 0  0.7634185692477184 0.07950994092675649 0  0.7654174504528075 0.07944305349957465 0  0.7539019863413819 0.06423137260612635 0  0.7410833187198942 0.06985921121971524 0  0.7401418043293648 0.07162373683657983 0  0.739084437514812 0.06992609864794737 0  0.7725716111987789 0.0515768085718467 0  0.6200976392871711 0.03578265368948139 0  0.7433139047730606 0.07671665140243172 0  0.7423723903825339 0.07848117701927514 0  0.6042574211796584 0.07270550043467158 0  0.7304011181635546 0.01656752490525288 0  0.8740668450684549 0.06714227914680791 0  0.8867691634294328 0.05805258618040594 0  0.8847707469126629 0.05811918417944288 0  0.8857123930041838 0.05635457653321295 0  0.8837136111973394 0.05642140205163729 0  0.8846551641044035 0.05465685244495289 0  0.8826563058851301 0.05472372555653739 0  0.8835978305260448 0.05295919355530074 0  0.881714795325566 0.05648824878726597 0  0.7403616663195489 0.04570148297048322 0  0.8305695632514828 0.0530006217285978 0  0.6111626652900757 0.03781022715468336 0  0.8760410016200679 0.01899881196179674 0  0.761293589522246 0.04328185666493373 0  0.7582475875990259 0.07448391378925703 0  0.8359722497483116 0.06495097647726325 0  0.8349148829337434 0.06325333828863275 0  0.8812367079222189 0.07210141885629692 0  0.8815989548603376 0.05302607753332112 0  0.882540471882488 0.05126155027739832 0  0.8845393535261572 0.05119466257601685 0  0.8834819887583562 0.04949702311258193 0  0.8854808697658285 0.04943013580743816 0  0.8732411831019666 0.07236896856908714 0  0.8583075002760716 0.07460170618331977 0  0.8572501334615368 0.07290406799467782 0  0.8592490146665922 0.07283718056650115 0  0.8581916478520504 0.07113954237786038 0  0.8561927666470128 0.07120642980605231 0  0.8601905290571079 0.07107265494966505 0  0.9047643807709611 0.06435044492525423 0  0.8461036310594461 0.038620296856172 0  0.8591331622425646 0.06937501676103423 0  0.9000672461814647 0.03681525001946331 0  0.8649127960079135 0.03278819080502079 0  0.7461384479445714 0.07142307455190564 0  0.8838293099701798 0.05988366155807921 0  0.8308012680995163 0.05992494933951942 0  0.8298597537089953 0.06168947495634881 0  0.8844235032594711 0.0477324974268641 0  0.8864223844829598 0.04766560998716958 0  0.6077788109211679 0.09156811028085916 0  0.6106922708537705 0.0205114301720881 0  1.191814440482003 0.01201377431914418 0  0.8640724390431843 0.06747671628782664 0  0.7230933878793255 0.0704611981139487 0  0.7241507546898097 0.07215883626898417 0  0.7221518827760923 0.07222571790513993 0  0.8713728493192043 0.04643618374227744 0  1.18661175752603 0.01937672744182102 0  1.169760237246037 0.01043099903187523 0  1.168611866379272 0.008793548467003696 0  1.166619607159271 0.008969341528167802 0  1.170604125599279 0.008617755405850362 0  1.167463495512485 0.007156097902148392 0  1.165471236292487 0.007331890963332127 0  0.887479751300587 0.0493632481738723 0  0.8625663575308159 0.02246858681682229 0  0.8278608725039363 0.06175636238454547 0  0.8289182393184815 0.06345400057318125 0  0.8309171205235804 0.06338711314500196 0  0.8720826588616323 0.03774733051449199 0  0.8615089907162794 0.0207709486282131 0  0.826919358113425 0.06352088800137365 0  0.8679543490292453 0.06388077762594804 0  1.169594755212398 0.03130899969504225 0  1.198570688788056 0.0354684476551259 0  0.8884212657460411 0.04759872252282886 0  0.8641882914671772 0.07093888009327015 0  0.865738457974461 0.02756150138269451 0  0.8617113055676908 0.0866189483600967 0  0.8612478958716414 0.07277029313829141 0  0.8667958247890041 0.02925913957130921 0  0.857511228306197 0.02090472348459466 0  0.8564538614916775 0.01920708529594678 0  0.8544549802866126 0.01927397272412322 0  0.8553964946771535 0.01750944710730626 0  0.8573953758822156 0.01744255967912538 0  0.8563380090676933 0.01574492149048578 0  0.8533976134720969 0.0175763345354776 0  1.193862503601894 0.04428140928819222 0  1.181043366489445 0.04990900854869029 0  1.180101792650927 0.05167349130679037 0  1.182100676076427 0.0516066702681755 0  1.181159102523258 0.05337116155992307 0  0.8273827678096171 0.07736954322325895 0  0.8253838866045498 0.07743643065143851 0  0.6086933717735373 0.02057733365811994 0  1.175606864443749 0.08823921625627387 0  1.18315798597545 0.05330434131971498 0  1.181605196687706 0.0883806787976055 0  0.7261496358941606 0.07209194883517446 0  0.7252081215036498 0.07385647445220075 0  0.7300315458798886 0.06849601017225002 0  0.8738204561823211 0.08967977948230005 0  0.872763081583855 0.087982147214684 0  0.7272070027085449 0.07378958702312244 0  0.8748779219291563 0.09137748395448161 0  1.161556277041055 0.01984880327089399 0  1.169525313920456 0.01914563103915525 0  1.171517573139385 0.01896983797821798 0  1.158415646952998 0.01838714578027257 0  1.163548536224778 0.01967301024550716 0  1.167533054699303 0.01932142409771391 0  1.156423387733284 0.01856293884011629 0  0.9212091390584192 0.07766042063027435 0  0.9222652167685386 0.07935603026341644 0  0.9202687588759721 0.07942280575414409 0  1.190643786211713 0.0868618354334401 0  1.11121492901409 0.01732975802010718 0  1.112354507736776 0.01896393147147805 0  1.11036467567767 0.01914724263377219 0  1.114345016757566 0.01878749454412392 0  0.6976104275278416 0.08518865076505694 0  0.687899947512575 0.09242311101120866 0  0.6695526783914987 0.08264824686099728 0  0.9742080725707238 0.07757966279539508 0  0.9752080134345499 0.07920343631829908 0  0.9731316181319849 0.07923943224893695 0  1.030678052784776 0.03487282404503161 0  1.029836509140751 0.03668077006851417 0  1.084737057952798 0.03583688542220619 0  0.9771971056068072 0.0792277232050681 0  1.096620868926034 0.0116784952396983 0  0.9928733161723629 0.03824906893269683 0  1.126826610809421 0.07841763528477325 0  1.125868062602598 0.07666231404847618 0  1.127817156805152 0.07667907126129415 0  0.930056521408045 0.08238281008376222 0  0.9883242066141043 0.047714445766602 0  0.989375764940042 0.04941225259660981 0  0.9913883525440406 0.04933421274919515 0  0.9904293645907668 0.05110765854256741 0  0.9924423548492258 0.05102920378590037 0  0.9915078227696716 0.05278682489373244 0  1.029230166969314 0.02979969482154016 0  1.067852943481539 0.03679048459609201 0  1.039235893092118 0.04773048470675088 0  1.040271102018429 0.04943549717214171 0  1.038265559651305 0.04949783752309894 0  1.042280636910116 0.04935874428193596 0  1.041321897518396 0.05113092942502938 0  1.037782149221943 0.03597961063451319 0  1.012197268095065 0.02956913210551158 0  1.085606591892681 0.08955585249532427 0  1.03866921600103 0.09015364282581541 0  1.039627890272207 0.09182825948401042 0  1.040665028189034 0.09019652340155244 0  1.041623882201809 0.09186363321630786 0  1.042660852566567 0.09024114954449899 0  1.043617178625521 0.09201301653699819 0  1.040672418011299 0.09355777330835459 0  1.101285874338035 0.01820444261470216 0  0.9761424566216671 0.02928196052425328 0  1.084416259114477 0.06180067421683134 0  0.9239566380717684 0.08570723802416197 0  0.9071209266589584 0.03830766762662381 0  0.9727756704938183 0.0365144477383606 0  0.7050110370639906 0.03814757127421649 0  1.004858947705314 0.0371512805582239 0  1.004017442043488 0.03895941021135071 0  0.9678153387773151 0.06745313120331334 0  0.9478664552266773 0.06812079784927878 0  1.091453528164425 0.06329639149453838 0  1.092515476451484 0.06499276794633425 0  1.093448729985558 0.06322975664416827 0  1.094502378049412 0.06492314247852705 0  0.7102807104980139 0.07609371560668859 0  0.7092241734130159 0.07439812233242912 0  0.7112198272949624 0.07432848178041593 0  0.9479200727510724 0.01613151015856176 0  1.042292548404879 0.03038072426992962 0  0.9946890472652845 0.06479752409315191 0  1.044656080706751 0.09030513591236668 0  1.045614993038741 0.09197129864876272 0  1.046652063519466 0.09034045361817022 0  1.047611315066746 0.09199289026403186 0  0.7033616904830413 0.04858540972569598 0  0.9347198850176646 0.03635597333553001 0  1.048647897670047 0.0903815597963419 0  1.049607152720471 0.09203494837217137 0  1.05064365550953 0.09042702663928955 0  1.051600581447142 0.09217868727643481 0  0.9638257256704728 0.06758639270644734 0  0.9986778191821776 0.06466447726271313 0  0.6832853436137362 0.009486503341568928 0  0.6822346736634104 0.007797192437268651 0  0.6812969491849381 0.009551660617029157 0  0.680246250803493 0.007862296468038594 0  1.143712089842135 0.03904427734152398 0  1.0954420265881 0.06316243852535086 0  1.096497060943745 0.06485657977121737 0  1.097436609781341 0.06309589564170673 0  1.098491789286863 0.06478999398962332 0  1.052638973479393 0.09049018212075563 0  1.053595854556073 0.09224477819896366 0  1.054634562868995 0.09054332954794445 0  1.05559423065038 0.09218057396186542 0  1.05663085475269 0.09057301675592433 0  1.05759481414741 0.09220406700744023 0  1.054599075589965 0.09395666820715681 0  0.952308516979177 0.03138537421334438 0  0.9418803659963986 0.06832082847576923 0  1.101942468046099 0.03725168345587501 0  0.6433860607169976 0.01076678913586896 0  1.058627293011573 0.09061358401345188 0  1.059588724467185 0.09236204319988123 0  1.06062284814319 0.09067828034698081 0  1.061578058641784 0.0925067386319689 0  1.062617675830525 0.0907446856236095 0  1.063572579720354 0.09257353106275124 0  0.5437480937097954 0.08277428273054803 0  0.9642251548947472 0.03033224949414366 0  0.6473758131413003 0.0106312636218277 0  0.9562831970169604 0.0310359652537989 0  1.06461282730516 0.09079861144934773 0  1.065568330935599 0.0926122699418114 0  1.06660848305814 0.09084566040209949 0  1.067564065947383 0.09265817709141277 0  1.068604445289177 0.09089263602579731 0  1.069560172485121 0.092691828623302 0  1.099431289776221 0.06302931912794774 0  1.100486610225874 0.06472342204425895 0  1.1014261469942 0.06296267549892094 0  1.102481534743019 0.06465685941186397 0  0.9538517611661932 0.06792036323518102 0  1.070600020529579 0.09093782233718389 0  1.071555961041898 0.09273657782143099 0  1.072595758331573 0.09098441483160885 0  1.073551162865957 0.09276997297684877 0  1.051383278416268 0.03131591300848468 0  0.9732420292033863 0.01912863189983249 0  0.9712599424884544 0.0193104948861282 0  0.9752187976832959 0.01894666158626081 0  1.069259849705434 0.02973415809374609 0  1.144489183335624 0.03028240266726272 0  0.6846702199209675 0.02151775271304875 0  0.6837305709123002 0.02327497331415322 0  0.6826784552297402 0.02158291730983412 0  0.6817386530755243 0.0233403504725541 0  1.074591403679311 0.09102936474444653 0  1.075545182844004 0.09285744196434401 0  1.103421032970863 0.06289607997536889 0  1.10448178356916 0.06459344128069951 0  1.105416994642048 0.06282994843841913 0  1.106480484222155 0.06452593214551568 0  1.020615405944278 0.06393179513771929 0  0.7166172673925273 0.08626804504969332 0  1.025259857285836 0.030149024346117 0  1.024603862992386 0.063798567546024 0  0.72461285327012 0.08600588683991728 0  1.081530823422552 0.09291488127910821 0  1.028592362981796 0.0636654984184436 0  0.6793084769183367 0.009616592697098181 0  0.678257728768437 0.007927358138669106 0  0.6773199137465424 0.00968174731598013 0  0.6762691050736369 0.007992454632478049 0  1.107412850817848 0.06276328256938832 0  1.108467085606765 0.06445719988874901 0  1.109407116308985 0.06269583426742061 0  1.110462572626243 0.06439065253428589 0  1.111402736999097 0.0626291227237462 0  1.1124583122701 0.0643241063244222 0  0.9378891748796102 0.06845485047587609 0  0.9406831492943843 0.03586649991151163 0  0.9418284908953649 0.03750076707479298 0  1.132572861880621 0.08894850091792085 0  1.0325808337691 0.06353236563680195 0  1.150562550994732 0.08937950255891404 0  1.076585410438852 0.09108272314434203 0  1.079536181070409 0.09286688878474343 0  1.036569284251689 0.06339916613950597 0  0.9338974797721634 0.06858856983951182 0  0.7367064677568466 0.05621806719490854 0  0.7387037853889238 0.05615355994517129 0  0.6806866519087853 0.02164825025439729 0  0.6797464850043462 0.0234057519747847 0  0.6786943510391651 0.02171342568664378 0  0.6777540047411325 0.02347120207234115 0  1.146563689521367 0.08928369783275554 0  1.197033907446555 0.04937414937905419 0  1.195035461869609 0.04944120304228339 0  0.9299056479053049 0.06872026682191608 0  1.046540293807968 0.06306590755110804 0  0.9962341140330927 0.01883466817106984 0  0.9982095664564063 0.01865265294948499 0  0.9942526349022611 0.01901681434854621 0  0.720611704734524 0.08613400749751217 0  1.050528653219828 0.06293283461287288 0  1.136570475524527 0.08904413271090308 0  1.11339788108002 0.06256282938420288 0  1.114454131373369 0.06425735626791447 0  1.115393808927477 0.06249618368675406 0  1.116450351808821 0.06419087708132397 0  1.136240528820977 0.03744073967568191 0  0.9804131380044895 0.03237118778340879 0  0.98125445774006 0.03056356216586586 0  0.9832414357612784 0.03038835876930747 0  1.054517246955813 0.06279958430256358 0  0.9767509366334323 0.03616467216776569 0  0.6753312309760462 0.009746666933782542 0  0.6742803366585539 0.008057505313622999 0  0.67334240568065 0.009811866819631601 0  0.672291409380096 0.008122603682078886 0  0.6713533905110085 0.009876752147657396 0  0.6703023782891708 0.00818767520532267 0  1.009294987478306 0.01941597164620834 0  1.007313793313833 0.01959827489881071 0  1.011269817214522 0.01923395562167631 0  1.064488313039921 0.06246653899639443 0  0.9645279862059224 0.03377417874324477 0  0.9656719806212717 0.03540778138652127 0  0.6767020155700394 0.02177878132141095 0  0.6757545903477749 0.0235431527353835 0  0.674707892382169 0.02184505829370247 0  0.6737565311826774 0.02360808535930745 0  0.6727124244085317 0.0219097446479728 0  0.6717740646570197 0.02366781324962382 0  1.117389897744403 0.06242959512624355 0  1.118446735695382 0.06412423415424684 0  1.119386487186622 0.06236286322988747 0  1.120443527343811 0.06405734463531892 0  1.121384398091198 0.06229538529020724 0  1.122440911897162 0.06399072319597086 0  0.925912715957498 0.068848801855573 0  1.074459532680538 0.06213344830884571 0  1.199030627733695 0.04930675579499745 0  0.9636858543456662 0.0355831977319406 0  0.9647867249702952 0.03719611755630207 0  0.9628364104461233 0.03738849148100569 0  0.966784402786198 0.03696885793783122 0  0.7047559761473428 0.09013123223206795 0  1.032285598694873 0.01912104653538006 0  1.034259373177769 0.01893909411656612 0  1.030305869980838 0.01930497210356417 0  0.7055828333539609 0.08490695600677541 0  0.7527257945295618 0.05907342206676748 0  1.123380664690779 0.06222918218288792 0  1.124438441299479 0.06392397315005743 0  1.12537571290316 0.0621627221503861 0  1.126436579693274 0.06385775895635004 0  1.049324472989744 0.01936026084269801 0  1.051310283370615 0.01918501110052524 0  1.047342005716418 0.0195370679162875 0  0.6693642725288089 0.009942445766178105 0  0.6683129916646436 0.008252844994131623 0  0.6673747984078943 0.01000718229074971 0  0.6663234211792388 0.008317893156092975 0  0.6653851118204135 0.01007194189346401 0  0.6643337060251564 0.008382930332207036 0  0.6707214641061288 0.02197468160733095 0  0.6697796269048351 0.02373349571829944 0  0.6687272007636637 0.02203996701893184 0  0.6677842941977448 0.02379963136404485 0  1.080438473800378 0.0619308762540688 0  1.22278302290959 0.08784506897973018 0  1.598903530704125 0.03097293667748423 0  1.608867940734269 0.03062953308847853 0  0.8512584196598773 0.02459551697817733 0  0.7040487568609001 0.06934854314172417 0  0.7029927999082313 0.06765220376639287 0  1.127371767854354 0.0620954194985381 0  1.128435647871514 0.06379229818507473 0  1.129372972334128 0.06203054127391749 0  1.130433756133214 0.0637245793868853 0  1.131375419622473 0.06196361841429544 0  1.132433108785036 0.06365766648775432 0  0.5925492471762071 0.05934011593624393 0  0.5912619701997981 0.06151377468795748 0  0.589974363901132 0.05930320711376302 0  0.5885290020656229 0.06161706745829278 0  0.5871439118920755 0.05914352202807635 0  0.5856174434966686 0.06168566595146709 0  0.6474906122843389 0.0504703378449315 0  1.133374985957565 0.06189707203977633 0  1.134432303857031 0.06359218313415048 0  1.135372520641357 0.06183218669269634 0  1.136430898905721 0.06352471942921174 0  0.6667323382916078 0.02210552444702851 0  0.6657886304687196 0.02386502449581169 0  0.6647361183640041 0.02217078235103955 0  0.6637920656617657 0.02393078396264345 0  0.6627365707705384 0.02223456000610842 0  0.6617938991636284 0.02399639237972164 0  1.137367450995284 0.06176385459343918 0  0.7578457754255548 0.06071005198142479 0  1.153695194485682 0.03871599089440639 0  0.6512456632884169 0.007054104841264023 0  0.6522984033008369 0.008737521463926631 0  0.6532373407843999 0.00698999886715087 0  0.6543013404803562 0.008683192756687143 0  0.6552301188354536 0.006918270743762682 0  0.6563245947901516 0.008631013694276629 0  0.6533582414508321 0.01044392442281294 0  0.6633952854283535 0.01013808449329786 0  0.6623352605666991 0.008439701876979882 0  0.661403492829757 0.0102011453164669 0  0.6603531491939413 0.008513425053787304 0  1.111004007110818 0.03822147872911259 0  0.7559074854305831 0.06418320817595581 0  1.750183156223889 0.07777687775096723 0  0.7026541117900066 0.08675126203265267 0  0.6225545484547707 0.0495722762905651 0  0.7800813174007747 0.06692589935784585 0  0.6594138993512317 0.01026696718154672 0  0.6607413014666481 0.0223009968402533 0  0.6597958011572083 0.02406309004049884 0  0.6587432064440581 0.02237082455516905 0  0.6577965057242405 0.02412862863771289 0  0.9397615910787601 0.0929924850041632 0  0.9408005246953693 0.09129547162734937 0  0.9417574946676003 0.09304102479514775 0  0.942796449702252 0.09134292441449372 0  1.09911328031585 0.03920752253560157 0  1.043317198007669 0.05104354944262411 0  0.6567403444358171 0.02243371224359078 0  0.6557974452005428 0.02419389716205431 0  0.6547409118791037 0.02250100729850538 0  0.6537984146575146 0.02425975568618835 0  0.6527417456398772 0.02256267819510306 0  0.6517994340829723 0.02432478894906972 0  1.138430633947734 0.06345879938557565 0  0.6507432694562327 0.02263175044723432 0  0.6498005763989791 0.02439090437249965 0  0.6487443605173981 0.02269545714083798 0  0.6478016675263074 0.02445631974386686 0  0.7323931010325475 0.04936767949819758 0  0.6467453624168088 0.02275865493808885 0  0.6458027348070077 0.02452151977586293 0  0.6447464407635664 0.02282432246583493 0  0.6438038113094215 0.02458710938764665 0  0.6427475191103273 0.0228899899935752 0  0.6418049216351356 0.02465374672699749 0  0.6407485974570886 0.02295565752130481 0  0.6398059723429783 0.02471857232045975 0  0.7038160173184852 0.09189366035527632 0  0.6387496758038481 0.02302132504902897 0  0.6378070460832511 0.02478409952580907 0  0.6367503790130249 0.02309163174490099 0  0.6358080606844001 0.02485050301319683 0  0.6347514063797298 0.02315338965987157 0  0.6338091199102158 0.02491564159873805 0  0.6327529697973091 0.02322286051703992 0  0.6318102754603602 0.02498184100969324 0  0.6307540682042315 0.02328655866811124 0  0.6298113700177087 0.02504726895518142 0  0.6287550675376352 0.02334966268764981 0  0.6278124374424172 0.02511245545318105 0  0.6267561458843899 0.02341533021538371 0  0.62581351396883 0.0251780428092878 0  0.6247572242311495 0.02348099774311081 0  0.9490670462354387 0.01776233804554345 0  0.9510506330759956 0.01758912582723026 0  0.6185565865641335 0.04970110416107529 0  1.174915094752137 0.07610334795109795 0  1.173857928138863 0.07440978344252248 0  1.146403722582307 0.06320574312088117 0  1.191763988299139 0.07370821900073704 0  0.9935006872435848 0.05271252209764364 0  0.9944408278503989 0.05095990153132252 0  0.9954951690505524 0.05264405632958237 0  0.9964345975007649 0.05089161091208087 0  0.9974891215651072 0.05257679813619343 0  0.9984284416529531 0.05082451095558632 0  0.9994831720528146 0.05251507688889735 0  1.000422324822118 0.05075852540862506 0  1.001476856892339 0.05244408945239507 0  1.002416177139624 0.05069115838091975 0  1.003470654893847 0.05237656605564769 0  1.004409909200649 0.05062419210032388 0  1.005464439040829 0.05230962049910295 0  1.006403686467136 0.05055735626987505 0  1.007458220601402 0.05224285991511364 0  1.008397445440453 0.05049058292265673 0  1.00945217541459 0.05218119855645055 0  1.010391247134262 0.05042466127244897 0  1.01144578185144 0.05211031579178431 0  1.012385061782084 0.05035729849186744 0  1.013439513879666 0.05204281211786481 0  1.01437869068257 0.05029036252732351 0  1.015433226003854 0.0519758782565268 0  1.016372396108566 0.05022353354898193 0  1.017426942313468 0.05190912219333202 0  1.018366089959464 0.05015676326165892 0  1.019420840033817 0.05184735143536295 0  1.020359833344457 0.05009082353851341 0  1.02141438722275 0.05177656294551589 0  1.022353635784641 0.05002344615323262 0  1.023408072654759 0.05170907376413046 0  1.024347175514689 0.04995653935888794 0  1.025401729360304 0.05164214957167463 0  1.026340824860692 0.04988971687746574 0  1.02739539602027 0.05157539730292427 0  1.028334469326542 0.04982294922645195 0  1.029389252348222 0.05151351805865313 0  1.030328168824054 0.04975699165692361 0  1.031382753064364 0.05144282169545241 0  1.03232197641713 0.04968959690429084 0  1.033359113335869 0.05137329279657804 0  1.034311705066413 0.0496214711796245 0  1.035303784272618 0.05131105145967825 0  1.176387468653176 0.0622064553318421 0  1.174388323159084 0.06227246588103812 0  1.180396024898417 0.0620650597499489 0  0.7506153958455697 0.05568860367545612 0  0.9812116800902159 0.0496927780825616 0  0.9802693335751222 0.05144760462140034 0  0.9792146214723197 0.04976271810336333 0  0.9782744029809363 0.05151511865050828 0  0.9772199220687556 0.04983002164315332 0  0.9762800821627696 0.05158193294064571 0  0.9752256889204463 0.04989668643054603 0  0.9742859130677841 0.05164848712029192 0  0.973231253109713 0.04995484808391116 0  0.9722917091094665 0.05171362144015634 0  0.9712373105815131 0.0500281903295981 0  0.9702975512929219 0.05178100997778746 0  0.9692431451506183 0.05009595621745001 0  0.9683033287937985 0.05184774527285724 0  1.097504065501946 0.09327110911207226 0  0.7745950741405609 0.05148965273431628 0  0.7756308751422893 0.05320597283011336 0  0.9672489014868095 0.05016277260964053 0  0.9663090565559257 0.05191448115922725 0  0.9652545971030775 0.05022934035578368 0  0.9643147227407437 0.05198100983065367 0  0.963259947623219 0.05028726116993979 0  0.9623202828550657 0.05204611286612252 0  0.9720946262858511 0.01749133004257731 0  0.9701080277748935 0.0176731467401512 0  0.7442800195667015 0.01264627503439039 0  0.7433373447720816 0.01441018099323113 0  0.9612657581276901 0.05036078642063464 0  0.9603258585911243 0.05211353098849469 0  0.9592713142616711 0.0504285845572839 0  0.9583313418034314 0.05218016506285975 0  1.214352160895539 0.08526933188530295 0  1.21584944806547 0.08793751374517908 0  0.9572767686516419 0.05049539691326602 0  0.9563367605806645 0.05224702006863478 0  0.9552821407499146 0.05056198041535641 0  0.9543420921221142 0.05231357680432816 0  0.9532871361082089 0.05061966302621865 0  0.9523472923627644 0.05237866264019915 0  0.7580125834849377 0.06757302379807782 0  0.9512925821517842 0.05069340289811075 0  0.9503524851630224 0.05244612031223368 0  0.9492977420122333 0.05076123892489234 0  0.9483575523488488 0.05251263050712874 0  1.084892030777055 0.0774431266738318 0  0.9473027696511807 0.05082804729963802 0  0.946362517687716 0.05257916367454189 0  0.945307680705622 0.05089457041154165 0  0.9443673708268918 0.05264566470083307 0  0.9433121718626382 0.05095195097733315 0  0.9423720730104019 0.05271119056844191 0  0.7630713902062825 0.06913475265446493 0  0.9413170972682785 0.05102601105228399 0  0.9403767220816184 0.05277882426682284 0  0.9393216922520358 0.05109392568034197 0  0.9383811996684841 0.05284520341354185 0  0.9373261148700365 0.05116073724413522 0  0.9363855604899914 0.05291237235999875 0  0.9353303813651075 0.05122736000858071 0  0.9343897492459324 0.05297908701321706 0  0.9333344874643511 0.05129406186553502 0  0.9323937411750898 0.05304498091749175 0  0.9313384064057644 0.05136044982679018 0  0.9303975645475611 0.05311130182541947 0  0.9293421433363132 0.05142704229702849 0  0.9303558103587835 0.04966539505284169 0  0.9284011992662711 0.05317779875783538 0  0.9273455116467337 0.05148737988745952 0  0.9264046726655308 0.05324409904276256 0  0.9253489670909802 0.0515589673082977 0  0.924407873233996 0.05331077451717422 0  0.9233520637298631 0.05162654655931492 0  0.9224107941095699 0.05337845253839651 0  0.9213547005709851 0.05168699319722715 0  0.92436608614178 0.04986550693268963 0  0.9204134373934372 0.05344441639961376 0  0.9193573590558395 0.0517587891985921 0  0.9184158801354881 0.05351088899977696 0  0.9173596299893819 0.05182639770494007 0  0.9183739515280045 0.05006615734445416 0  0.9164179697636989 0.05357762697588374 0  0.9153613880201605 0.05188658691076689 0  0.9144197304197464 0.05364439088642088 0  0.9133631002357125 0.05195858565648982 0  0.9124211322948503 0.05371117505280824 0  0.9113640597192747 0.05201545023827547 0  0.9104209749516815 0.05377589091069921 0  0.9093650385438625 0.05208014221348166 0  0.9084218944842283 0.05384342374521194 0  0.9073659587398777 0.05214660418325201 0  0.9083079092729121 0.0503823359609958 0  0.9064249016971805 0.05391055586059305 0  0.9053677144807121 0.05222412192385006 0  0.9044251747010685 0.05397831868480417 0  0.9033687934346679 0.05229277288726547 0  0.9024254427069526 0.05404592269827548 0  0.9013693977952988 0.05234909756590789 0  0.9004278280888267 0.05411116473432695 0  0.995086444192806 0.01719741290758869 0  0.993107438874395 0.01738348690163915 0  0.6052836408994425 0.0707413075977103 0  1.008147134684709 0.01777872803261598 0  1.006158879443494 0.01796019154490046 0  0.6197771059983818 0.02539576523116879 0  0.04244649315038976 0.02879986370037262 0  0.03258050737318807 0.02930372013907757 0  0.0280759301452303 0.03805314925149977 0  0.05234552811009528 0.02831748253666904 0  0.6161074258684104 0.03938265051204054 0  0.6181181310362474 0.03931772535718858 0  1.031140300973925 0.01748790023507702 0  1.029160161171095 0.01767119224670118 0  0.5840471013626625 0.05909724479575844 0  0.5823883167007338 0.0618176644721239 0  0.4184177012433292 0.07019448714078971 0  0.4084970233588843 0.07071326830741548 0  0.6510204263070773 0.03648792521847398 0  0.6520773522213877 0.03817956091819587 0  0.6530193646036727 0.03642275049984647 0  0.6540762574907026 0.03811339546427425 0  1.048173903911659 0.01771953859673122 0  1.046205532431353 0.01785916425678758 0  0.6550182713189678 0.0363566281019851 0  0.6560751532017273 0.03804694284640462 0  0.6570171653790431 0.03629012588595418 0  0.6580740451526036 0.03798037732734334 0  1.230943385729118 0.0732157675066292 0  0.6590160625019662 0.03622371556491585 0  0.6600730375970205 0.03791386028363621 0  0.6610149710855453 0.0361571546240436 0  0.6620720449425304 0.03784721392746647 0  0.6630136265619565 0.0360828196713778 0  0.6640707885647996 0.03777915607170457 0  1.154481853900193 0.09291987468929086 0  0.6650126104286811 0.03602270953430975 0  0.6660692695100763 0.03771318793575276 0  0.6670109147061291 0.03595761570567994 0  0.6680671094559503 0.03764672551348192 0  0.6690084367648731 0.03589150371899955 0  0.6700642252262001 0.03757996587604412 0  0.6710052352629 0.03582530575810944 0  0.6720606745057538 0.03751317905187235 0  0.6730011299938288 0.03575136218842524 0  0.6740564647091351 0.03744516603806175 0  0.674996902274287 0.03569105529036284 0  0.6760518192281899 0.03737925191876969 0  0.6769920223499646 0.03562591536858156 0  0.6780466417112981 0.03731299808513603 0  0.6789866859576379 0.03555980090123599 0  0.6800411262050623 0.0372464753514874 0  0.6809810186201536 0.03549354899425752 0  0.6820353451634978 0.03718078758744396 0  0.6829748377561735 0.03542004920178855 0  0.6840292517652455 0.03711244021419374 0  0.6849688695151568 0.03535954753113902 0  0.6860229790261544 0.03704658323986151 0  0.6869625579300307 0.03529430510805483 0  0.6880165585776976 0.03698043966006981 0  0.6889560873407913 0.03522823255388427 0  0.6900100372612112 0.0369141137562591 0  0.6909495232705443 0.03516195238774298 0  0.6920034428211281 0.03684776406350722 0  0.6929426706735287 0.03508828676472915 0  0.6939955164925411 0.03677951756095041 0  0.6949556755233162 0.03501624568973849 0  0.6959889116798386 0.03671339118337115 0  0.6969717703724234 0.03495917022007913 0  0.7987565413353237 0.05760261989420118 0  0.7009508189013923 0.03484307075072882 0  0.9213224151792648 0.08104662100231058 0  0.6025867653503471 0.01731510875453336 0  0.6182452281402011 0.006406350024943747 0  0.5793112096633235 0.01525307144298392 0  0.5774102206942406 0.01238418292083741 0  0.7436847469000549 0.05765751670683696 0  0.7427406677404462 0.05942697231578357 0  0.708891797496309 0.03455607267041644 0  0.7068909827124128 0.03462694884913314 0  0.7455256399552471 0.01071598239424681 0  0.7128845680267625 0.03442089220910068 0  0.7465751745672269 0.05240224467297556 0  0.669252897278777 0.006548907267670179 0  0.7228763780243914 0.03407503440216791 0  0.8949772292794967 0.09416798426535089 0  1.207611751301334 0.06921325211775238 0  0.8941715095430751 0.06993556867031385 0  0.869927242035566 0.09326956431099295 0  1.01194383136431 0.0384570578508673 0  0.8739472619324353 0.09313492130538398 0  0.8759348430203991 0.09307488477652308 0  0.7620305717260598 0.06746352195212696 0  0.7680658064323002 0.06730925174019818 0  0.7700572589318077 0.06724422600018856 0  0.7710225749760091 0.06548943928803139 0  0.7720540964491255 0.06717827425324797 0  0.7730203170993951 0.06542354979381125 0  0.7740520739681186 0.06710032271296712 0  0.2368387204634918 0.02767303947696782 0  0.7820779626367229 0.06684910990126076 0  0.8691562453243519 0.00917027539118441 0  0.8680087859421711 0.007532185962956445 0  0.7960703298887455 0.06640280668028743 0  0.9343479391095924 0.04953181209668478 0  1.199979500797653 0.04753982221032885 0  0.7248931171775332 0.03403973567419311 0  1.196898425254047 0.07268258707491448 0  0.9123784383682447 0.05025427464970288 0  0.9023839082891851 0.05058826800461225 0  1.773280810546702 0.03463327516460574 0  1.4006482675495 0.07324543089949304 0  0.8965381284872842 0.05770544984393672 0  0.8985387061993906 0.05763176476684521 0  0.8420026391847817 0.0384429953246849 0  0.9437536114116424 0.09308052799773461 0  0.944792403368397 0.0913890989382993 0  0.9457495646659503 0.09312647764533252 0  0.946788326507648 0.09143613493160968 0  1.075596341423227 0.03098108596409069 0  1.260851439309067 0.01714708956044225 0  1.264529737836677 0.02243488848604317 0  0.7464869049833442 0.01949492543809531 0  0.7454466206280089 0.01780512455832955 0  1.072172342542296 0.006926852732285061 0  1.21424065276079 0.09055840801336482 0  0.7940714051015721 0.06646837874166026 0  1.199400237265253 0.0338162818250578 0  1.107029335118725 0.0385252617339877 0  1.105069476497572 0.03871443341068952 0  0.7441664443883801 0.009184035776498931 0  0.5876828686078729 0.01710943013384607 0  1.18033353253798 0.02906017270905859 0  0.9188427946186207 0.09077540215681952 0  0.9178035897161473 0.0924805381077244 0  0.9004141705717801 0.05062412131657684 0  0.5318620696988623 0.03028326027303293 0  0.5281765531655578 0.02462822476799699 0  0.8739881169897112 0.007033918655864531 0  0.8936342929489275 0.05951201444826943 0  0.7538998432624124 0.0313935213733273 0  0.8036379765830508 0.05563755995263457 0  0.8961313621449062 0.06984460211235859 0  0.8971821811669785 0.07153123263467184 0  0.8992818644598168 0.07494394951584063 0  0.6889254598117202 0.09401495540711138 0  1.09492638302546 0.03914605692252018 0  0.6752204058522235 0.006370002456012677 0  0.8639176967307752 0.09346342313242846 0  1.226635110820407 0.08782088891351965 0  1.172915677404862 0.07615396645593668 0  1.171858971648753 0.07447432942251023 0  1.170916583714593 0.07621443588725846 0  1.169860040989974 0.07453971233342016 0  0.6572188854671335 0.006848718133402827 0  1.605253437179536 0.07389881361196317 0  0.8729684079053091 0.01748831840955149 0  0.9291339383519214 0.08067107115983954 0  0.9311559870159427 0.08068788150229629 0  0.947745671387715 0.0931654636520441 0  0.9487842603949425 0.09148215354019884 0  0.9497416028681039 0.09321130317805729 0  0.9507801542498628 0.09152914141846538 0  0.9517376814355369 0.09325048483810228 0  0.95277606487447 0.09157518422118022 0  0.849776905707385 0.02801999794766988 0  1.111477782911062 0.09357645044967072 0  0.5247260865880979 0.03042916601226655 0  0.5208800636402668 0.02446999897403405 0  0.9739210380882516 0.03809222515260583 0  0.6458957624461262 0.06091160473782802 0  0.6479094801722594 0.06083565918173196 0  0.6439346875018405 0.06103569179968342 0  1.219320320557558 0.04026828688787946 0  1.615129969953575 0.07339868914007076 0  0.6222214325069479 0.06150297318351098 0  1.177618646771595 0.03443340724476699 0  0.897496747637335 0.05593823496917157 0  1.189760490383881 0.07057225635785644 0  1.051173078933145 0.007050860523650629 0  1.053158766727275 0.006879307767219297 0  1.049229724807863 0.007228476141464459 0  0.8786603311733692 0.02571054920453106 0  0.6632823549882577 0.006692590178623199 0  1.032962950134946 0.03808101248480252 0  1.190687466399753 0.06569243658399555 0  1.237676627253689 0.06835967472913254 0  1.240015977315772 0.06397081021044052 0  1.380008097153015 0.07331885363778283 0  1.192864944299227 0.06910262128389405 0  1.101495801894007 0.09337786516694013 0  1.595376008901659 0.07410061046930728 0  1.245283070865445 0.06376210150549702 0  0.8579093408999141 0.09365786432651466 0  0.5853115969567296 0.009725275353838107 0  1.088495333184711 0.02890200709075207 0  0.5399583789535054 0.06578643660406869 0  1.034917873824075 0.03793674625365566 0  1.179898504688489 0.07769227742798353 0  0.5419685317795162 0.0364206978507628 0  0.6402533686196197 0.005696359738998513 0  0.2567310347005677 0.02680645545968427 0  1.774564131259886 0.0680876354701037 0  0.5741308619824959 0.08506107651119023 0  1.190529867720676 0.00689552279067302 0  1.192522651927581 0.006725679395632291 0  1.193663285350653 0.008275441667643983 0  1.194511236239236 0.006508238672234517 0  1.25088917662962 0.08249253844712534 0  1.096866605153064 0.03581730947973705 0  0.6224505067367367 0.07537327964733949 0  0.5862739808001252 0.08228876056782788 0  1.158412993704082 0.09303990373798585 0  1.105488100838286 0.09346874536289296 0  0.7081314795651813 0.006938568483837106 0  0.6339478003370509 0.09422695183770852 0  1.201034135291349 0.04923801926356924 0  1.202017111296772 0.04746860838679716 0  0.7418546945490938 0.09407308579853035 0  0.7108566317169114 0.09333802038582385 0  0.7474393011386097 0.01775314740252037 0  0.6102423434807041 0.006700526062851103 0  0.6092944224973542 0.008432940166178751 0  0.608239232120608 0.006770880609209389 0  0.6072949935898452 0.008500639758185768 0  0.6062391248634476 0.006825451510897176 0  0.605295794952685 0.008564953288264678 0  0.6042399646046817 0.006889200697318999 0  1.007970942156496 0.03855502064909619 0  1.157554971226951 0.03515450707301995 0  1.158618782879169 0.03683539383582422 0  1.15768740382084 0.03858816918565158 0  1.159663132063162 0.0385352459221231 0  1.211436831093422 0.06696210887377679 0  0.9242601181660512 0.07924152889441288 0  0.9537331415215689 0.09331534667320791 0  0.9547718754123771 0.09162525863727013 0  0.9557294796731101 0.09334284527402338 0  0.9567678093566243 0.0916698687767471 0  0.957725605615496 0.09337904717014867 0  0.9587637157918328 0.09171510967563552 0  0.9873529869250048 0.04947933643791158 0  0.6692053966792677 0.07237209363730666 0  0.6914367806332918 0.06949746499145501 0  0.6192976105014536 0.05978437091665668 0  1.281028731412015 0.07794017608511108 0  1.28514708854385 0.07135438888772859 0  1.288636151569557 0.07808105242700457 0  1.293387563918582 0.07123958814989398 0  0.8619494874039431 0.09350056904957219 0  0.5807278075527843 0.0590841183964836 0  0.5789445445205006 0.06192067507817473 0  0.8809896940019939 0.09463718840377146 0  1.202884098929611 0.04219643137759149 0  1.204153246584324 0.04399635436284544 0  1.201826776833506 0.04051965947564563 0  1.162486933777948 0.09312585555875158 0  0.9367480560150424 0.09466922929311689 0  1.217392840936779 0.09074671849300599 0  0.6142360834387163 0.006584934336675068 0  0.7121114683023171 0.006819939639457373 0  0.5939397811419497 0.05725316669533877 0  0.7358511966746164 0.09427016243779548 0  0.6900083316874452 0.0662770512112934 0  1.168881963895011 0.07625456868154962 0  1.167855193614869 0.07460184529336755 0  1.1668771488684 0.0763466266532587 0  1.165854327585873 0.07467209079100984 0  1.164912423695596 0.07643715571937514 0  1.163863570671637 0.07474555198104971 0  1.162920587719027 0.07650903443775139 0  1.161864452313027 0.07481220388775062 0  1.160922839701095 0.07657666988425739 0  1.159865760504589 0.07487916194389521 0  1.158924177434656 0.07664364914370006 0  1.157866908893351 0.07494600530417875 0  1.156925336159671 0.0767104999226615 0  1.155868036899378 0.07501283403508703 0  1.154926461652787 0.07677732684997846 0  1.153869153158417 0.07507965433478814 0  1.1529283651052 0.07686764469250053 0  1.151870400814938 0.07515039103417955 0  1.150929634661323 0.07693903412517063 0  1.149871564721674 0.07521862573188307 0  1.148929750648738 0.07697592168630485 0  1.147872522408663 0.07528069311717918 0  1.146930673965753 0.07703696118638145 0  1.14587358028062 0.07534575794040926 0  1.144931061211173 0.07708196482171156 0  1.143874565504811 0.07540864969269459 0  1.142932034327399 0.07714449439531135 0  1.141875636266174 0.07547410025600347 0  1.161977543130918 0.07819656096441398 0  1.140932424797259 0.07718959457595548 0  1.139876624175995 0.07553707238874904 0  1.138933398898485 0.07725215363717756 0  1.137877695549125 0.07560254126339906 0  1.099430246616787 0.009700653940102801 0  1.100271455008603 0.007895750303955767 0  0.8775320715691555 0.0240590105830802 0  1.096978329856156 0.01511192105585875 0  1.133306480745708 0.006744539289082769 0  1.131320201986682 0.006927482179019829 0  0.763228928305987 0.04318230264927565 0  0.9639610232902323 0.03901227463223686 0  0.9134521473623702 0.03304767332462055 0  0.9142446828773141 0.0312625586075918 0  0.9162231971977102 0.03109222363278442 0  0.6238145915572655 0.0252436831270746 0  0.6227460018848121 0.02355392658181849 0  1.195659607105938 0.008145689237143931 0  1.093174617741331 0.006834401972431476 0  1.091186934149845 0.006985355948571737 0  0.6541757549263779 0.005223696325366369 0  0.7278805389958347 0.03224296174292862 0  0.5299487941257719 0.07263985624357508 0  0.5264721878413963 0.07868550172917946 0  0.5225674896007564 0.07268345123706979 0  0.7299534307319628 0.03559718591112822 0  1.23280519600662 0.0350497183025343 0  0.6887614462065625 0.02484364901451439 0  0.6173144889833238 0.05984231085667864 0  0.02305360648986909 0.02986296370733429 0  0.6972396948558732 0.07476829841665013 0  1.097294666781351 0.01854732348429565 0  0.6767994790428595 0.0252429318922113 0  1.091278286439046 0.01909335776457967 0  1.100431300587239 0.02002681942545915 0  0.9502103350565402 0.01939588092635221 0  0.952195245162145 0.01922184378562337 0  0.7052982782505908 0.01219382163293276 0  1.10439813246391 0.01968723013669434 0  1.106382472965263 0.01952142861544541 0  0.9719249196935089 0.0381842085541903 0  0.7346964577955641 0.05628011330321882 0  0.7336309041595995 0.05457043736363046 0  1.113495524174334 0.02059931402988665 0  0.7704546989424337 0.04828628689276038 0  0.6708144158270106 0.02543808361427485 0  0.7112705743183403 0.01199808433039699 0  1.042334423170823 0.05282093871337803 0  0.9938645843805525 0.07002870316259951 0  0.9998442468403477 0.06982663107817369 0  1.115469302783177 0.09373092763777738 0  1.009816029049033 0.06949345766243377 0  1.019787562158332 0.06916029247222052 0  0.972629450974527 0.06209937539889167 0  1.040022367096206 0.03915826959723322 0  0.9626567540893892 0.06243448656773797 0  1.037746157669475 0.06855336991421526 0  1.032347343366598 0.05314058801623465 0  1.043722067154104 0.06835768620037572 0  0.9526815211192307 0.06276688811523658 0  1.049704495220562 0.06815167850926977 0  1.155981952923851 0.0784205587315584 0  1.059677271219211 0.06781740560591482 0  0.7005334388253222 0.08336297639497703 0  0.670608043123889 0.08434200869229304 0  1.022398713423836 0.05347631318898088 0  1.069649246659807 0.067485819999721 0  0.9387166875720987 0.06322373125972279 0  1.012429683635722 0.05380964950446414 0  0.7547279298831457 0.05900450780581338 0  0.7072277514559326 0.07446492766268704 0  1.002460353311942 0.05414299544553891 0  1.089583976906681 0.06682436765130961 0  0.9924905524220478 0.05447819921614924 0  0.6608517694287058 0.02576102496683415 0  0.9821872985980942 0.04791999945731376 0  0.6428612586047743 0.02635222385733918 0  1.103548453609519 0.06635822009812142 0  0.7172486696893507 0.01180189624087305 0  0.9807227676042922 0.06529251445503721 0  0.9796677354860155 0.06359857710633109 0  0.7024211148429111 0.05034908634333127 0  0.7044173149849109 0.05028022031962201 0  0.9721765309422741 0.04825904070475742 0  0.9622051106143465 0.04859118832085089 0  1.182216357392835 0.0550671864478144 0  1.113513840073043 0.06601959156603772 0  0.6810944793736462 0.03894343005305291 0  0.9522321182359681 0.04892323846557486 0  1.135360398948301 0.01867717403874206 0  1.133370220586807 0.01885108147435911 0  1.137350328598578 0.01850072997241207 0  0.924742016511747 0.06369249144083033 0  0.8799682531842921 0.006542418738585696 0  0.7237861200069645 0.09122812952277176 0  0.7228477093905068 0.09299362421400301 0  0.9008540824448216 0.09050870253935653 0  0.9019084452034791 0.09220529359562959 0  0.7081645397898102 0.07269057875252356 0  0.9168626137652212 0.03799157813803128 0  0.9149159261688836 0.03808593908447629 0  0.6822426581525447 0.06100740902078909 0  0.9422569012958035 0.04925514021929289 0  0.6711190958020539 0.03927675812765806 0  0.6214596211213839 0.04787425552760169 0  0.7100627365223359 0.03969922255815685 0  1.123500630370774 0.06568895399129257 0  0.7107530355181151 0.06048109545141158 0  1.094632835566221 0.08804551439537114 0  1.133490633876596 0.0653566257164587 0  0.8862425362055357 0.009411887196508019 0  0.8870856251979664 0.007600046740794277 0  0.2621284475613681 0.03499064550313541 0  0.2666728052693544 0.02634408092618733 0  1.108602381144351 0.08837473472742148 0  1.103625136186676 0.03363565094717 0  1.104466723674637 0.0318290014566716 0  1.103321263685132 0.03019531177288335 0  1.220356257851628 0.03077325208086892 0  1.216971418499664 0.03101447090554106 0  1.218757179261846 0.03389638113727331 0  0.8977995879775349 0.08887978297917419 0  0.9098767833506239 0.01601667049330255 0  0.9110219126080941 0.0176505331042104 0  0.9130095466775955 0.01747557722278655 0  0.912168144473212 0.01928392779910964 0  0.914155273455193 0.01910954658101716 0  0.6994811352260013 0.05219541663625444 0  0.9474218594801788 0.0214118696357818 0  0.9101731643952374 0.0399357406052851 0  0.9763755002163466 0.02059151127442045 0  0.977211966509044 0.01878138611845288 0  0.9538149981432922 0.08987635883598651 0  1.121787721917508 0.08003022434448141 0  1.120829394170107 0.07827522290314187 0  1.121871398658895 0.07650302292376605 0  1.119872266171766 0.07647720603758207 0  1.118831141959651 0.07822040153616311 0  1.117873937969718 0.0764323816421206 0  1.11683318824936 0.07817218543787863 0  1.115875213332102 0.07641958051822598 0  1.114835233607124 0.07813221891786695 0  1.113877220984072 0.0763902441665146 0  1.112837841947957 0.07808714570712949 0  1.11187964123282 0.07635599238125811 0  1.110840666251705 0.07804229883711734 0  1.109882624836862 0.07631009085239468 0  1.108843754894341 0.07799553502767986 0  1.107885396012318 0.07628217771204623 0  1.106847003035298 0.07795246514030056 0  0.893733179687059 0.02614114904107619 0  0.8948811436346906 0.02777864171979973 0  0.8968788578225003 0.02760564622666796 0  0.8960152385881242 0.02940992757757483 0  0.8940345448210155 0.02959075091346621 0  0.9993768544215338 0.02029093811927395 0  1.000202506312091 0.01846910771134589 0  0.681260463361876 0.06269169972286909 0  0.6802419122287986 0.06104144045618138 0  1.033259523804414 0.0479303760276986 0  1.107527097926508 0.0211558055677333 0  1.012428676507326 0.02087895663526399 0  1.013264068570096 0.01906906556595121 0  1.035428995279851 0.02057743859740126 0  1.036252253779504 0.01875523177273372 0  1.052455070622158 0.02081718826867055 0  1.053296120211069 0.01900974514846 0  0.9692732099738368 0.0194856650720596 0  0.968106578508491 0.01783844952137151 0  1.023292314567482 0.04826483727325695 0  1.005331797177003 0.01977571757530398 0  1.004179601117382 0.01813459446936403 0  1.013324163606966 0.04859890046497389 0  0.9798996131788751 0.07050650798573159 0  0.693707926196893 0.05928939247759558 0  1.003355306227672 0.04893273605073888 0  0.8782731236953309 0.01010963392205053 0  0.877125653895353 0.008471551439891421 0  0.6236107227353329 0.05126614105477562 0  0.6245538515529157 0.04950718998104808 0  0.7416791456054648 0.02486247267601498 0  1.175988300474712 0.0483449686687004 0  1.17504669519173 0.05010778754316731 0  1.140818475943866 0.07378090367264553 0  1.154810726865971 0.07331516041499679 0  1.160807330878759 0.07311466563182065 0  1.188807426715742 0.04271737625842627 0  1.186808543272919 0.04278419677928225 0  1.190806310156625 0.04265055567783396 0  0.7349708226804386 0.06659770969892707 0  0.7360281894950812 0.06829534788754488 0  0.7402576567538333 0.07508590064174642 0  0.7379084887631404 0.03191805061427266 0  0.7544815300369332 0.081542016255494 0  0.7434297571970885 0.08017881520791065 0  0.7198052959109513 0.06190604593718883 0  0.7178063261374499 0.06197287632526634 0  0.8502108188306161 0.04194525645733888 0  1.161610797392983 0.08790738978470217 0  0.8367979117147024 0.05972428705497056 0  0.8377394261052189 0.05795976143814138 0  0.6196467613443383 0.08432766344416331 0  0.7434503567967143 0.01787211928795723 0  0.7497739578489503 0.09036464429915728 0  0.7508313246242544 0.09206228248105294 0  0.8279767249279848 0.06521852619002101 0  0.8259778437229064 0.06528541361820743 0  0.7200518325228822 0.03936862319549007 0  0.8607991811738219 0.02945980185594608 0  0.7394319947868726 0.08031259006439163 0  1.152240023425623 0.02760385523949146 0  0.8582063428502439 0.0416777063173649 0  0.7405093203881925 0.01970189886958148 0  0.7830206642255915 0.06509571715804743 0  0.7840809071517569 0.06677858100966851 0  0.7236873538798718 0.05831014170958352 0  0.877253423368149 0.04277349289889327 0  0.8556135045267799 0.05389561077882887 0  0.8545561377122346 0.05219797259018633 0  1.15932909441416 0.02873922840748394 0  0.7437930136486122 0.06110699388717501 0  0.8688958634197569 0.06211625200912277 0  0.8708947446248234 0.06204936458091427 0  1.156413861266687 0.03062637788061282 0  0.8427945553299226 0.05952362477033025 0  0.6105938297471325 0.08289740058143907 0  0.8912311139468558 0.07176698171637624 0  0.8902895995569942 0.07353150733215982 0  0.8417371885153594 0.05782598658170506 0  0.863710186772743 0.0865520609318732 0  0.8442141744148043 0.04214591831481549 0  0.6233308459354328 0.0632034564390988 0  0.6241928479658598 0.06147438714164549 0  0.741077193361557 0.03701309870680109 0  0.7420198686821836 0.03524919303234127 0  0.8495010084875498 0.05063410925795703 0  0.6093055317575931 0.07426440765913719 0  0.6102471957674593 0.07249812055197308 0  0.85667087134134 0.05559324896745561 0  0.8557293569508146 0.05735777458428161 0  0.6176477678568536 0.08439475347280564 0  0.6165904895437745 0.08269710361478835 0  1.164696907083741 0.02131046081620583 0  0.8639712816173903 0.03455271642186292 0  0.7645759383281187 0.05184120840393579 0  0.8866540517288759 0.05458996101844103 0  0.6244263562215805 0.07185594579240942 0  0.6254010929647931 0.07366577885421983 0  0.768914484062359 0.06209467056206146 0  0.7414199719468414 0.04740091544853403 0  0.733160168667754 0.04071246444703849 0  0.7293217363107789 0.07718486338497993 0  0.8339733685432541 0.06501786390546639 0  0.8664335725185525 0.04833448421548405 0  0.8653762057040116 0.04663684602685242 0  0.8674909393331067 0.0500321224041199 0  0.8694898205381594 0.04996523497592003 0  0.8458508033495578 0.06115437553075821 0  0.8243265197900286 0.07573879246280621 0  0.8233850053996685 0.07750331807970397 0  0.866896982214713 0.06218313943730421 0  0.7759682457154865 0.06359378036804969 0  0.8670128346387422 0.06564530324278908 0  1.169690918718283 0.08463465959967553 0  0.8626528199581829 0.08485442274326861 0  0.8532523710514518 0.07303784285111133 0  1.184215141801603 0.05499740340182217 0  1.18409955943631 0.05153984726765004 0  1.164627347939305 0.009145134589326656 0  1.163478977072522 0.007507684024505154 0  0.866766434984411 0.08818281157267872 0  0.8697068303879767 0.08635139864726911 0  0.6174125958660057 0.0701812321710672 0  0.6164467217656724 0.07193266750110776 0  0.6163475191595802 0.06154828259306741 0  0.6153193820866412 0.0599965105351607 0  1.170673684786774 0.02078308160224732 0  1.162400165386113 0.01803555965681513 0  1.157571758597913 0.02020038940126609 0  0.8583368902708914 0.01567803407953817 0  0.8593942570874917 0.01737567226955894 0  0.8572795200357082 0.01398039800804775 0  0.8553136736987632 0.01406490885843702 0  0.8562276572842387 0.01228569814357703 0  1.186350435552993 0.02809761978601068 0  1.18553924087366 0.0299508729181486 0  1.186562981132826 0.09021359089803294 0  1.187732463273791 0.09192644845857889 0  1.185604041784802 0.08847653845853488 0  1.188644362382097 0.08681533109690112 0  1.024114639149518 0.02851688014261613 0  1.041147123718124 0.02874824101556757 0  1.004252040105442 0.03027001799225345 0  1.095072384630872 0.02745615680347258 0  1.094259911009872 0.02924370424571338 0  1.043698949742766 0.08855255667951825 0  0.7128671293935841 0.06387387733962224 0  0.7138083455685378 0.0621077225554006 0  0.8018754168381449 0.06262589895113939 0  0.8029383556827004 0.06432006684351992 0  0.8049325935366074 0.06425607154362044 0  0.8039912339187238 0.06602050058436837 0  0.8059893670273719 0.06595407908155493 0  0.8019912692621801 0.06608806275660897 0  0.9713520482036244 0.05347335317642331 0  1.044273224723884 0.04928924788237031 0  1.045260659957686 0.05097549647528674 0  0.9826073520914961 0.06174246531725039 0  1.068113974227939 0.02810147329995177 0  0.9982938432923502 0.03079548366091059 0  1.007079930972749 0.02828710801604063 0  0.9940185999557121 0.02770574945871908 0  0.9931771060515265 0.02951352495737648 0  1.195711782836393 0.02030319658900576 0  1.197492850803948 0.02012247784998673 0  1.08896618990489 0.015824973380956 0  1.08815030944749 0.01762920217212501 0  1.166375597448077 0.005489926461969707 0  1.057669117798379 0.08888619417037559 0  0.9710254754869965 0.02800012516248815 0  1.063655101275932 0.08903466431498154 0  1.105307813808039 0.03001964408660004 0  1.106453239962191 0.03165371036591354 0  0.6907547793899838 0.02477070693197279 0  0.6916960450437817 0.02301320899906455 0  0.9650664011005101 0.02852444509595826 0  1.069641999085933 0.08917730939231677 0  1.079382990285997 0.06023778974126711 0  0.9613801223283844 0.05380593387874478 0  0.9368450773354393 0.01537411851905253 0  0.9360039498684462 0.01717906477388254 0  0.9420680656074161 0.02882035665438672 0  0.9349613674105959 0.02771265125128381 0  1.002265866174329 0.03044510338627327 0  0.9321312381845654 0.02969642703040386 0  0.9301428634707338 0.02987083384722067 0  1.212931301998419 0.08232029334006108 0  1.215906567110401 0.08264471555978617 0  0.9514067561219095 0.05413854763007612 0  0.9392398548324656 0.03080486392770233 0  1.148755037333558 0.04060406308434535 0  1.590292436344682 0.06569926203447453 0  1.137655096057415 0.03922773393842714 0  0.6428432585298768 0.05927626693236117 0  0.6420154938084532 0.0611527739761269 0  0.6724002026015136 0.01156583020897618 0  1.02838910448893 0.03160717196445954 0  0.9414307600429371 0.0544708510684189 0  1.028692182171088 0.03504797048774649 0  1.027850334184689 0.03685611232362562 0  1.028937565396907 0.03846202583905116 0  1.112339807665088 0.06086815985689444 0  1.043076569653807 0.04067979927205343 0  0.9354446105788723 0.05467174849918141 0  1.758144714618238 0.02614746766403151 0  1.748383513339371 0.02622616184830529 0  0.9614003622691834 0.03231713838683879 0  0.9602565638616756 0.03068515116471665 0  0.6664299743055166 0.01176026149326314 0  0.9792696578826983 0.03073843402984345 0  0.7028782386592178 0.06420276864874626 0  0.7018233958984554 0.06250979538857064 0  1.122319570927464 0.06053396191838026 0  0.6716672784164182 0.02021588047785722 0  0.9214683807851174 0.05513671542949795 0  0.6033150616378414 0.008639973743843791 0  0.6021852606380531 0.007005651410834824 0  0.9014829979522088 0.05580559865257554 0  0.9074797305052527 0.05560502739630949 0  1.10608092782684 0.04036402537029529 0  0.6036395337416549 0.0190054910343726 0  0.601671653523581 0.01905625387998471 0  0.6056380142040954 0.01894416258666145 0  0.9597208769798417 0.09345086673461508 0  0.960759466853861 0.09176629803434533 0  0.9617161003063701 0.09352445062737477 0  0.9627551892370556 0.09181877348585156 0  0.9598025767033471 0.09001808770576877 0  1.083478368635131 0.0635598203010263 0  1.084529972992712 0.06525584320618397 0  1.132310800877742 0.06020504505302139 0  0.6819619949740586 0.03372427962586228 0  1.150496779931735 0.03363964041270955 0  0.691929265167986 0.0333938182966627 0  0.6719871492545858 0.03405473489954558 0  1.158733842472384 0.04028135476460955 0  0.6616946100638392 0.02054010566480843 0  0.6619971853832517 0.03438489481753102 0  0.7160932481079737 0.006701053126479857 0  0.7977285322503911 0.05595051674325609 0  1.032601089321085 0.09342103704496912 0  1.031643184009432 0.09171853532123599 0  1.030605610801519 0.09336200003536377 0  1.029647518813065 0.09166746924053623 0  1.02860970647199 0.09332069115022179 0  1.027651770454495 0.09162043485137433 0  1.026613925242986 0.09327431458411307 0  1.02565601019562 0.09157321481626686 0  1.024617957683294 0.09323571084550927 0  1.023660238075878 0.09152727174193312 0  1.022622163666148 0.09318996705302612 0  1.021664473401045 0.09148033900789433 0  1.020626195884194 0.0931514747144115 0  1.019668602471459 0.09143440623091748 0  1.018629994810989 0.09312205170995488 0  1.017672864858232 0.09139025756446985 0  1.016634460105195 0.09306612521804911 0  1.015677151452425 0.09134192662942836 0  1.014638547621864 0.09302564620170978 0  1.013681399928874 0.09129548558953399 0  1.012642769753045 0.09297950699184696 0  1.011685644763084 0.09124840357819997 0  1.010646811521217 0.0929408333954275 0  1.009689879404133 0.0912024713029731 0  1.00865102451068 0.09289507983668202 0  1.007694121199838 0.09115553822506195 0  1.006655065757562 0.09285646402093653 0  1.005698185782046 0.09110954080362717 0  1.004659251062525 0.0928107050485541 0  1.003702575180113 0.09106270122026809 0  1.002663426408355 0.09276732750798142 0  1.018712427407562 0.08968893010515079 0  1.004741722863097 0.08935895982888745 0  1.001707927248869 0.09101525446425375 0  1.000669422754129 0.09273676134957982 0  0.6516989652894878 0.02086954448678745 0  0.633708495790863 0.02146116511318215 0  1.130054674345784 0.03818443259178046 0  0.6455027935019453 0.05053757717053357 0  0.6444330060432406 0.04883294504864542 0  0.8559515950211303 0.09368399543138362 0  0.854889871356134 0.09203630959635707 0  1.069026217654071 0.03842275837010666 0  1.067310970314299 0.03854789662069777 0  1.585395063392696 0.07350905982764007 0  1.170713963988401 0.09347037604925217 0  1.168614617646623 0.09324448815406933 0  1.119462791096659 0.09382641104728935 0  0.8750039295330636 0.09482861325967795 0  0.7313524094715276 0.04769060773977873 0  1.208725317133607 0.06249567935221201 0  1.21138887601587 0.06222259784755192 0  1.20732855625582 0.08307725250569216 0  0.7377371063042362 0.05791129314295736 0  1.199755476721942 0.0819048968203331 0  0.7446506433707066 0.05589287510564531 0  1.136933780727405 0.07729699533565637 0  1.13587868212076 0.07566547336814396 0  1.134936180285357 0.07740219582197583 0  1.133879990846963 0.07573804247541996 0  1.13293575984166 0.07742303816306531 0  1.131983104028182 0.07573449503532234 0  0.5722234269042542 0.08836083865944389 0  0.7495929148092477 0.05401682854846571 0  1.105889242293909 0.07621598757710722 0  1.104850582201863 0.07790268078200278 0  1.103892749285401 0.07617293364112745 0  1.10285425311779 0.07785574314903371 0  1.103812152334912 0.07960571009829656 0  0.6177907151952113 0.02546953645849269 0  0.7048685133700645 0.09351963860749508 0  0.7027695213879849 0.09346648981132667 0  0.6791957173233083 0.006172885190728446 0  0.6141402357472285 0.03944969978285942 0  0.6131760433669021 0.04121667613471782 0  0.781115866632262 0.06859791701914103 0  0.596261779145299 0.08067407795389109 0  0.7397316819496201 0.05784413668731982 0  0.8008264793228599 0.06095074798229133 0  1.77910663699329 0.04310076925310674 0  1.139443317877074 0.09419137672102898 0  1.123522481740536 0.09388614556348636 0  1.125467521303636 0.09387637113465136 0  1.026991453149362 0.03857448584542475 0  1.025861654975931 0.03701642413433211 0  0.5192242215307311 0.07910299873356785 0  0.5234338277228578 0.08559586899613193 0  0.7239068574385182 0.0946942912521551 0  1.19444729811543 0.03221346313000072 0  1.076534266286054 0.02920014655618287 0  0.5148811820173906 0.07260769224637151 0  0.2505315646040744 0.01844649006618273 0  0.9637119395661726 0.09357196501211286 0  0.9647510056882194 0.09186711853516104 0  0.9657077738417246 0.09361947950859394 0  0.966746834615142 0.09191477543455071 0  0.919328391865964 0.08118517532179241 0  0.9182730862191102 0.07948674517760351 0  0.6672746330922095 0.07240220434358664 0  0.666281604295071 0.07412199124558085 0  0.890314623353585 0.03337442828318319 0  0.8894633546795463 0.035184232451663 0  0.8875432366581842 0.03549480648821267 0  0.891192089252437 0.03157661098253679 0  0.8927192482070213 0.06131173842322127 0  0.9022318371789642 0.07658555821324362 0  0.9032778034803407 0.07829969798711091 0  0.9052354905432136 0.07820456936083589 0  0.9043339569444517 0.07999457958764233 0  0.9062836933151704 0.0798966705821532 0  0.6027494927871869 0.09349851568906115 0  0.6018545489423016 0.09184354453754594 0  0.6008089872817759 0.093522572128378 0  0.5998672414997183 0.09190670975767307 0  0.7765694607723174 0.05144566444965632 0  0.7776263918522572 0.05314339851555579 0  0.7734634690606548 0.04983127376074662 0  1.001808766455756 0.03920043278022448 0  0.7499409957277919 0.09377459094361562 0  0.7518715951096837 0.09373754357660864 0  0.7528273566241801 0.09199166556896526 0  0.9507884238282159 0.09488757706652434 0  1.194868779344738 0.07260551027896027 0  1.245613126540003 0.014351561102341 0  0.5938763455686917 0.07665931340132254 0  0.5927193829645793 0.07865756478574683 0  0.683172553516652 0.006042830222870995 0  1.269606485122402 0.0838502145031704 0  0.8398892945981011 0.03892720234940859 0  1.149987123094571 0.07867546325743226 0  0.6240935023115413 0.006287962226523687 0  0.686425464867378 0.07469388237557396 0  1.196510926859383 0.006416665519389393 0  1.145510420320494 0.0284046627143268 0  1.129449666640611 0.0940661043264034 0  0.9371081839771109 0.04083636479339729 0  1.090519830075541 0.02892842518885451 0  1.091593449225599 0.03062783833761036 0  0.9407969666028861 0.03942617375173841 0  0.9429327007747235 0.03913538534758818 0  1.174913863395816 0.03616463665799387 0  1.174123474932701 0.03789894427602876 0  1.172073744493316 0.03801907484775262 0  1.297066896632867 0.0780785724002195 0  1.302087876861933 0.07091707631896656 0  0.08440086639564337 0.07821628817169268 0  1.007611621565875 0.09461543730176786 0  0.7463198533268214 0.01608851108220265 0  0.9677594435510605 0.09357736387086681 0  0.9687519774144239 0.09194733155515231 0  0.9697647019965215 0.09366736431968287 0  0.9707509328245874 0.091999438763421 0  0.9717098846173241 0.09368181440190122 0  0.9727388314288479 0.09204226042981992 0  1.199665763777022 0.06381877334440653 0  1.200631486703569 0.06206719748755685 0  0.9619920402493302 0.03911202274355574 0  0.9609302717963404 0.03749845636900934 0  0.5111307819656914 0.0797346280924186 0  1.235319934262816 0.03856849286005086 0  1.237452041183717 0.03458107939433439 0  1.10888787656692 0.07464020983850814 0  0.7459976250596068 0.09384240387552142 0  0.4135352654482332 0.07887018912728035 0  0.7538875729183867 0.09369303328896963 0  0.754828612395658 0.0919278860835739 0  0.7559880769334965 0.09355829614598102 0  0.7568448264967989 0.09185020836010045 0  0.7580016188197362 0.09348614915171756 0  0.7588490399647362 0.0917806459550385 0  0.7599531767252994 0.09344926137936621 0  0.7608409226636916 0.09171831264002953 0  0.7618830977386383 0.0934254835763397 0  0.7628271440857819 0.0916593691682529 0  0.7638730209252493 0.09331755772731631 0  0.7648224223239413 0.09158696599601518 0  0.7658788658258785 0.09325350162194018 0  0.7668218636504422 0.09151963116429357 0  0.7678785905853638 0.09319290654470694 0  0.7688209788014776 0.09145371789400716 0  0.7698775653392792 0.09312703523364299 0  0.7708199145890082 0.09138716217832471 0  0.7718772905006173 0.09308485565238213 0  0.7728189455505261 0.09132444801003832 0  0.7738761135070678 0.09301609312474669 0  0.7748178420152293 0.09125794360858835 0  0.7758749875556386 0.09294895701776576 0  0.7768167245708183 0.09119107857171629 0  0.7778740916104423 0.09288872049224048 0  0.7788156431425932 0.09112530335918774 0  0.7798730161849134 0.09282312691710226 0  0.7808145378036693 0.09105881694233334 0  0.7818719068608788 0.09275652196630514 0  0.7828134228298791 0.09099204342892171 0  0.7838721782241402 0.09273117824676022 0  0.7848125363648446 0.09093209893795735 0  0.7858713298438897 0.09267237192619657 0  0.7868115013606747 0.09086771551724221 0  0.7878709275516145 0.09262689664013642 0  0.7888105159479576 0.09080481411408066 0  0.7898699504041536 0.09256424223979132 0  0.7908094429912931 0.09073929652800723 0  0.7917908100585961 0.09239660705329601 0  0.7927953282443003 0.09065584611376977 0  0.7938530451187343 0.09258711537724032 0  0.7948026024332068 0.09062909747991932 0  0.7958640782247095 0.09228839729701376 0  0.7968049077857288 0.09053026140866335 0  0.797862845291527 0.09222257482355259 0  0.7988043406589895 0.09045822669906925 0  0.7998617994182495 0.09215500700756658 0  0.8008033259623575 0.09039036799266736 0  0.8018607101266357 0.09208784430168607 0  0.8028022294343533 0.09032327280513804 0  0.8038595999600747 0.092020876367302 0  0.8048011157886326 0.09025633733276359 0  0.8058584834614068 0.09195396751402941 0  0.8067999982346056 0.09018943832633898 0  0.8078573652559993 0.09188707458526091 0  0.8049169692139422 0.09371849179631732 0  0.8087988797447558 0.0901225480515699 0  0.8098562466101631 0.09182018576584473 0  0.8107977610255197 0.09005565991695769 0  0.8118551278526911 0.09175329798801846 0  0.8109136134643058 0.09351782358527506 0  0.8127966422494218 0.08998877231281097 0  0.8138540090671336 0.09168641047220111 0  0.8147955234591797 0.08992188484075012 0  0.815852890274541 0.09161952302206508 0  0.8167944046654189 0.08985499740156314 0  0.8178517714801943 0.09155263558835697 0  0.8187932858707891 0.08978810997053299 0  0.8198506526854079 0.09148574815874368 0  0.8207921670759343 0.08972122254144642 0  0.8218495338905081 0.09141886073013057 0  0.8227910482809946 0.0896543351132308 0  0.8238484150955727 0.09135197330183034 0  0.8209080195000353 0.09318338634699148 0  0.8247899294860499 0.08958744768496629 0  0.825847296300633 0.09128508587357394 0  0.8267888106911144 0.0895205602567184 0  0.827846177505697 0.09121819844532358 0  0.8287876918961767 0.08945367282847555 0  0.829845058710753 0.09115131101708375 0  0.830786573101236 0.08938678540024109 0  0.8318439399158126 0.09108442358885629 0  0.8309024255253232 0.09284894920569667 0  0.8329013067303799 0.09278206177747131 0  0.8338428211208756 0.09101753616063214 0  0.8349001879354383 0.09271517434925056 0  0.8358417023259355 0.09095064873241378 0  0.836899069140502 0.09264828692104402 0  0.8378405835309988 0.09088376130420402 0  0.8388979503455648 0.0925813994928278 0  0.8398394647360641 0.09081687387599602 0  0.840896831550619 0.09251451206461805 0  0.8418383459411275 0.09074998644778823 0  0.8428957127556744 0.09244762463642141 0  0.8438372271461863 0.09068309901959407 0  0.8448945939607345 0.09238073720821878 0  0.8458361083512492 0.09061621159138532 0  0.8468934751658043 0.09231384978001324 0  0.8478349895563061 0.09054932416317785 0  0.8488923563708709 0.09224696235179755 0  0.8498338707613674 0.09048243673494921 0  0.8387820979215068 0.08911923568736278 0  0.8487765039467929 0.08878479854633854 0  0.8427798603316516 0.0889854608309384 0  0.8508912375759284 0.09218007492357416 0  0.8507753851518529 0.08871791111809621 0  0.7909377760918882 0.09420544563201985 0  0.8269041819137445 0.09296834371275386 0  0.7809514408359146 0.09456781653943487 0  0.8169087701192483 0.0932727241941462 0  0.7837549768420018 0.08922870180033413 0  0.7937465761059861 0.08889921057787434 0  0.7737605269072393 0.08956183196295162 0  0.8077415129465904 0.08842490970997703 0  0.7637663700107847 0.08989498345493938 0  0.8177359190562613 0.0880904717816214 0  0.8237325626714882 0.08788980949631231 0  0.834784335511372 0.08925301054379313 0  0.7710114858548012 0.09483053333006991 0  0.8418934150057198 0.09417971750924399 0  0.8499613533958454 0.09387152833189717 0  0.8519041633762319 0.09384078733099191 0  0.8459592208012141 0.09403691406499678 0  0.5925981998852656 0.063539606637578 0  0.9761212565146092 0.08104594598343964 0  0.6872277940914771 0.005954893924186977 0  0.6891499922248612 0.005954671832925599 0  1.174647402668596 0.03270125837244787 0  1.173527133984677 0.03100388841979593 0  1.13344483973713 0.094163011691157 0  0.8265805042642904 0.04981718356608314 0  0.8285113436489024 0.04945434274727132 0  1.190665835534741 0.03119047744511629 0  0.8319597923398895 0.09454658739431694 0  0.9124143638834505 0.03130954626338943 0  0.9567859442883871 0.09497164684868172 0  0.8542276328559347 0.01229459615391854 0  0.8551847204677041 0.01059092091784104 0  1.26138914360818 0.02810023405835178 0  0.6130892755214611 0.004938922633812534 0  0.5875832373490881 0.05469797483523564 0  0.8439545851790654 0.03551967701270804 0  0.6280839991680394 0.006174525847637465 0  1.600313583591978 0.0820324008419034 0  1.131352415604754 0.03976702225666229 0  0.7097008335251587 0.09508202318687436 0  1.226076901577756 0.03256326252448644 0  0.7260635479602764 0.006400893089102811 0  0.7282723405004601 0.006346780258229967 0  1.268036348078583 0.02780795459922342 0  1.271352401630908 0.02177566362716284 0  0.9981053224802411 0.006573501217262955 0  0.9961815895768149 0.006724073314933789 0  1.000088647011345 0.00637519602672542 0  1.001230030106572 0.007974121346589879 0  0.6652956367663682 0.07253616412953032 0  0.8353571349811914 0.04422067987168288 0  0.8343489541097324 0.04594963363250035 0  0.8363218238623867 0.04242563158915857 0  0.7610712345846573 0.09510272970153999 0  0.6833838475434761 0.05931239508202013 0  0.8728383968035227 0.005370043757175324 0  0.8449239839573293 0.03345706508690709 0  1.153436755381217 0.09464628043010623 0  0.5700682364166696 0.08527590335594301 0  0.5680549498294303 0.08863757656631582 0  1.184480710889066 0.09364908436734744 0  0.5984941565509722 0.08003378259195616 0  1.101840064219533 0.0761915567173808 0  1.100848666443054 0.07781947062787255 0  1.099834362794689 0.07609836564918779 0  1.098849665038736 0.07776681430567091 0  1.09788982248684 0.07610001297670622 0  1.096862233635566 0.07772818445025487 0  1.215599265514473 0.03395607587553289 0  1.213839901349536 0.03125239555128775 0  1.215885200798376 0.09320543257845584 0  0.5658206892439942 0.08509214232903933 0  0.57563268977305 0.01534120976865476 0  0.5736742554788693 0.01225975292606839 0  0.5761007151649834 0.008726352768809785 0  0.5717217731417061 0.01553920637625078 0  0.569618862435373 0.01227035024529618 0  0.9781576207132475 0.08073276935936106 0  0.6063596488749566 0.0580351001548041 0  0.6074719415991577 0.05962422737861639 0  1.046661170592794 0.09362586915826078 0  1.074856981147241 0.03613404970050723 0  1.075840699347803 0.03785712520689842 0  1.077821608301434 0.03779545071644898 0  1.1952159758356 0.004847652968458101 0  0.8629516912305482 0.09508060949021194 0  0.9120093628170807 0.03642342905820768 0  1.265599758340774 0.06636098385613499 0  1.130918570929214 0.07746766923966167 0  0.8009160659491813 0.09375872516175543 0  0.7036852707955029 0.09511536600690558 0  0.6320748862350267 0.006060981685220631 0  0.7957094114182188 0.05613449101742735 0  1.021333943213218 0.09483917201036619 0  0.9736910705992975 0.09380954301954168 0  0.9747308771510943 0.0921023645689425 0  0.9756868861598196 0.09385705978621189 0  0.9767260631856832 0.09215198152241247 0  0.9737741300470528 0.09034953894091013 0  1.033993363772245 0.03955955796761693 0  0.7784625747357504 0.05143897312288663 0  0.7795550874675571 0.05312049622635335 0  0.7786704820444919 0.05484924345908738 0  0.7806673802862878 0.05478492328576845 0  0.7814339186970891 0.05309960911137286 0  0.7826236734985437 0.05482198740672695 0  0.8359575547500006 0.09441281253787545 0  1.143439644573101 0.09440585431622361 0  1.165879732601945 0.07803909960189491 0  0.07472019791538448 0.07827723454991296 0  0.06938945567239183 0.07042022002575843 0  0.9198704995563867 0.08914389916603828 0  0.5172089411606856 0.0311679481907114 0  0.5129111922260647 0.02449047236608735 0  0.5090477458133956 0.03132089762589065 0  0.5045744320148364 0.02446362179462483 0  1.604070382388861 0.02242924459688581 0  1.613653147677557 0.02247934452177855 0  0.6909100133749155 0.0938369411102985 0  1.050304016194158 0.09360364787011806 0  0.5988728424540101 0.09352659690458018 0  0.5978296818048729 0.09197598097049825 0  0.5968426015729702 0.09381403336158553 0  0.5957309948073322 0.0919289704896001 0  1.257314684165907 0.01317486280694262 0  1.133751736296857 0.03473380719155182 0  0.7399398509804076 0.09407943547313072 0  1.002074673017151 0.006207742305261645 0  0.6970688170100153 0.005517724540331255 0  1.38618508618002 0.08143968753392763 0  1.14743848974978 0.09450202550386284 0  1.203619181116466 0.04900746255227249 0  1.204140839422245 0.04728357669544758 0  0.7967615796670664 0.09415828907787298 0  0.6881697416058606 0.07492517429174977 0  0.8671638885733117 0.009344959648763008 0  1.190870110553314 0.07550055769755344 0  1.224411874589099 0.09118825583359422 0  0.6362215993330282 0.00580641674433973 0  1.008981579205818 0.04037065746035429 0  1.001624375701756 0.09447299998925066 0  1.195999670080611 0.01314174486578381 0  1.194840109729866 0.0113712450987798 0  1.770034506426751 0.07711584302973229 0  0.9776826995291442 0.09390457727830767 0  0.9787217704411593 0.09219985074285676 0  0.9796785107794634 0.09395209492255364 0  0.9807175634661186 0.09224742881241987 0  0.7319735965685334 0.006140092428256248 0  0.7340432713778605 0.006057000003786646 0  1.274890655350088 0.02729866120152325 0  1.278702842805545 0.02119735686958255 0  0.5837848724762734 0.06454984433495273 0  0.7622365204222954 0.04190039337295767 0  0.8717941571081406 0.01586899598530309 0  0.4048170696280983 0.08032946982208802 0  0.3977748477253987 0.07299613666865819 0  0.8569316697405613 0.09521264133796338 0  0.8507696609298876 0.02281461356000809 0  1.594304599468351 0.02156683816274288 0  0.9708022259882499 0.09517758545207546 0  1.202819851903647 0.08358858321961284 0  1.073624231939924 0.03773468258765349 0  1.07485469836457 0.03958929631772472 0  0.7011130334442829 0.005416026945518426 0  0.7031009983088669 0.005351284573222828 0  0.900964025030313 0.09386214720603162 0  0.9029599129701953 0.09377777704179846 0  0.9039039013465466 0.09211839133525745 0  0.9049562904377307 0.09371758076604837 0  0.9058999251354545 0.09204959330052381 0  0.9069523780260231 0.0936517646578547 0  0.9078959510450019 0.09198289633696116 0  0.9089514373125122 0.09367819048167977 0  0.9098924387195928 0.09193194813316159 0  0.9068412134345221 0.09031056633545363 0  0.9109455109510343 0.0935557199447969 0  0.9118881314211845 0.09185877760196631 0  0.9129410766535397 0.09347880722246989 0  0.9138373938737454 0.09181845590614318 0  0.9128224782731263 0.09011174983526898 0  0.9149112165001581 0.09351521834989979 0  0.8333266122557884 0.04410192141713127 0  0.8323776067446489 0.04605896972548994 0  0.8334031398284325 0.04771649111266914 0  0.8313952252180028 0.04777393230638163 0  0.8520195860014236 0.0192322078993095 0  0.8017584551453988 0.05575567086440248 0  0.9167956167435637 0.09048738201098933 0  1.083998962899823 0.07567396040472511 0  0.7552564817502483 0.03329094213397336 0  1.306533041088166 0.07976860379836502 0  1.311088522979138 0.07115283458228078 0  1.315674929148531 0.07857837985950167 0  1.320283168998317 0.07056793577587998 0  1.324855753234312 0.07852182332721866 0  1.329782058580048 0.07058089238693582 0  1.30690154977888 0.0639154421727082 0  0.5251117893647104 0.0173849777534054 0  0.02749852742397169 0.02085201396147235 0  0.750997796500849 0.09530596099100816 0  0.6063581393020009 0.06876106070168482 0  1.199566316323363 0.06025444034323129 0  1.195541440503381 0.06032050633465526 0  1.193508064605158 0.06040582280062534 0  1.77871232868125 0.05940729952068996 0  1.134037912467382 0.03789966833131852 0  0.885947762148845 0.006069375090970072 0  0.887929816340524 0.005807193783023775 0  0.8890751062562281 0.007427597022831856 0  0.733771141596355 0.09476752923967438 0  0.6318521841308596 0.09472612547916964 0  0.6309071504962207 0.09268498456205394 0  0.9943144128562761 0.04014917559795587 0  0.992068962507738 0.04005271921237539 0  0.9963918094928415 0.03942969256173545 0  1.060337903305473 0.09456195967055821 0  0.9817505492521172 0.0938700478393415 0  0.9827260643687479 0.09227336936745231 0  0.9837590557669573 0.09398147816811581 0  0.984726111197873 0.09232794534143476 0  0.9856859433993487 0.09398189353468703 0  0.9867111539513749 0.09236878565799202 0  0.6921396589527693 0.07140132127280387 0  0.691268301365958 0.07290799670054615 0  1.156521604863588 0.03367785106895385 0  1.182335608460581 0.02900980259059936 0  0.8979454200518038 0.02942332817746887 0  1.050026881954118 0.00539770913788618 0  1.146231742334375 0.0788131926537142 0  0.6882598865288707 0.06434528340796387 0  0.6892418195640573 0.06260792987923143 0  0.6884538131921447 0.06094538778352783 0  0.6905099163434274 0.0610267881221191 0  1.191638921148961 0.06395409879341045 0  0.6033103467750596 0.0708144834787157 0  1.011352649405989 0.09471128717727312 0  0.8299609111348272 0.09461347482254269 0  0.7383164565635066 0.005750078325206889 0  1.740190068307937 0.07815198463075471 0  1.73499426224023 0.06946490468266865 0  1.730076804896499 0.07849053875430281 0  0.6092714879701944 0.07066223341482816 0  0.611255869881048 0.07067045071681172 0  0.6122458095497939 0.07244412537196412 0  1.003255379721938 0.04074608777478389 0  1.210010511931549 0.06022602627920344 0  1.212757519231137 0.0598558796230492 0  1.132232060827843 0.07904754954075785 0  1.092059937465233 0.005088149023460834 0  0.7528618573202268 0.02960047496698955 0  0.7508486754231067 0.02977454618129408 0  1.073973438700616 0.03447474226448362 0  1.027981212435309 0.0399699655482975 0  1.127184786954098 0.07505281770177669 0  1.12905601108833 0.07517371533585568 0  0.6683143449011305 0.07093784110958011 0  0.8512706964131371 0.01711783050438119 0  1.0250786936778 0.03885022952685566 0  0.7277757420596963 0.09491116555716454 0  0.7299001362116193 0.09449407636710162 0  0.8056377678417468 0.05535946378853951 0  1.064575810133667 0.09443694796425456 0  1.125173063751929 0.07451715366595464 0  1.214120314514892 0.06232538869912904 0  1.215487550168453 0.0594949866402763 0  1.081941822632154 0.07563250632281812 0  0.8509154678723894 0.09534351386981196 0  1.078637737346793 0.02907539966016464 0  0.5916580272086067 0.07652333539838369 0  0.5901667515973995 0.07821821912959086 0  1.089303542571591 0.02714631218624311 0  1.098791814111575 0.07464757572222482 0  0.9207730069547604 0.09434172339361918 0  1.725073431269223 0.08799155288506157 0  1.720971714219157 0.07796032232142477 0  1.015389358059632 0.09476630603601634 0  1.124580056275011 0.09531772479250866 0  0.8885944935295829 0.03704766875841635 0  0.8903231447688942 0.03702697723014704 0  0.7869270390139588 0.09432047262669165 0  0.04694526912480395 0.01996792859448613 0  1.095907220513276 0.07600808062169981 0  1.094869820674065 0.0776733640072782 0  1.093912026721375 0.07596367076598029 0  1.09287431021513 0.07762388799030319 0  1.09383234716446 0.07936947869404599 0  1.173344468211789 0.03967400311664475 0  1.175245176966133 0.03955031303417889 0  0.645129235252861 0.06288022136973839 0  0.6132362673892269 0.07061583410661189 0  0.5186617036457472 0.06562842527615448 0  1.153386460705921 0.03226120073372703 0  1.77984475249363 0.07575469277117121 0  0.9139995330500184 0.09526366297722345 0  0.9630010812904026 0.04050538292262286 0  1.183886114328043 0.07771103716983899 0  1.281576481805857 0.02770795806353728 0  1.286842132244898 0.02077184816840525 0  1.16944376018242 0.09502389833451738 0  0.646206716563705 0.005483928100955507 0  0.7517873443333933 0.02799685414280416 0  1.068569421873394 0.09449508557691222 0  0.942227458329185 0.04090757339827436 0  1.234860764690042 0.06424239555485207 0  0.9600215937426579 0.039328080991766 0  1.086432546264225 0.02875750052467053 0  0.7520947057410219 0.02604841657248819 0  0.7504147851332219 0.02516563318986368 0  0.7499543626188905 0.02328074008005789 0  0.7486681320264401 0.02472240842458042 0  0.9219992816920082 0.08568353403497805 0  0.923122769942755 0.08403143344448245 0  0.9876617404917333 0.09414216924723855 0  0.9887017858185962 0.09243400087379118 0  0.9877443305142137 0.09068080433370831 0  0.9896575455008194 0.09418968842627655 0  0.9906967285140409 0.09248447004903311 0  0.6900228851874521 0.09566299931494465 0  0.9247692688594513 0.09440723731358093 0  0.6081909522308023 0.0580799557023874 0  0.6094162072973694 0.05976002090044889 0  0.5738736765089425 0.09157643043240707 0  0.09407408399181447 0.07886177394242289 0  1.141936918836818 0.07899341251827693 0  1.195911088326868 0.07461185694254165 0  1.197998782913684 0.07437770687686546 0  0.8684352434160966 0.01112527252862976 0  0.8679888241526188 0.01303875989214901 0  1.200569254322377 0.03539211772383444 0  1.135458079815322 0.03227570451859833 0  1.13650530362567 0.030603784836076 0  1.138352566302056 0.03063708382223453 0  1.137368716966194 0.02888001661084751 0  1.13539604260566 0.02890842394301403 0  0.6360508540415838 0.0944356990564853 0  1.205129068446559 0.0420495428734277 0  1.206533314802009 0.04421382684070461 0  1.212490586623395 0.03429055180424315 0  0.8909896378175032 0.09445173615616999 0  0.5772682105711143 0.05885742963785411 0  0.5753032219815841 0.06192435334773183 0  0.5733940444234326 0.05861448241962673 0  0.5713185898393798 0.06199249614783627 0  0.5684911805295757 0.05833033354902348 0  0.5670138356441282 0.06216253780301876 0  0.9847655078380456 0.095795910249757 0  1.15963027162727 0.03521194272076132 0  0.686929053468789 0.09420342180658103 0  1.202681127748624 0.02022938977242009 0  1.20052603615416 0.021180847773856 0  1.199960554972435 0.02318866261844744 0  0.9268012048525109 0.09447206680410633 0  0.9277939333531955 0.09272722105534867 0  1.097029419712258 0.03917175721558 0  1.072559312840237 0.09454708894009653 0  0.6882384654207963 0.004176258880301422 0  0.8531659086241431 0.01065200692452796 0  1.201893358473259 0.0324886717169118 0  0.748499404377081 0.01576125136139711 0  1.168363262552253 0.005333854527559904 0  0.9080118060736316 0.09546313238720873 0  0.6174265508222255 0.07369851021674441 0  0.6154584379617727 0.07372033042257628 0  0.01737924775076309 0.0213078285834565 0  0.7410126713133185 0.09591874711692089 0  0.6501926770018348 0.005354235299882955 0  0.9287637830912198 0.09448661728761429 0  0.929785882661984 0.09276949958683992 0  1.02561012758598 0.09506787788660034 0  0.8889816340644581 0.09440128535462181 0  1.609275723899882 0.01370554193011893 0  0.8953399702845624 0.03147156447577091 0  1.120873778940723 0.07465260286308523 0  0.5794050866068222 0.08156833050548061 0  0.7217239445335704 0.09476657812487713 0  0.7208189786605548 0.09304196215917268 0  0.8558208669886485 0.005302919820262611 0  0.9159951717508663 0.09519722564890387 0  0.9916533502088444 0.09423720803023897 0  0.9926923742762909 0.09253248978078157 0  0.9936491545564751 0.09428472770824119 0  0.9946881522260969 0.09258009317785623 0  1.215869198402191 0.06823872013256635 0  1.183405140269665 0.03076684056638036 0  0.563650369805607 0.08915694812354659 0  0.7549850381359038 0.02935122062066497 0  1.204274003160612 0.03692636126302879 0  0.8899329037939383 0.005587205853169337 0  0.8910646389102006 0.007244558916494361 0  0.8919295059532339 0.005396532898439714 0  0.8930539122329942 0.007066666299304571 0  0.893923087283125 0.005245065847389773 0  0.8950357722288906 0.006901585990441633 0  1.219479256307286 0.0614088447786805 0  1.005439617557355 0.04046992209943799 0  1.200517905433697 0.01644870705536276 0  1.199731757886756 0.01824073165011728 0  1.745333915846415 0.08731969826179115 0  1.200720234770322 0.03057576989515841 0  1.198744628202477 0.03056618488360284 0  0.7640394482319393 0.04132029432194808 0  0.6204595356177219 0.07534999633552428 0  0.6932988619801279 0.06967452209813912 0  0.8805588922994438 0.004845872194923702 0  1.029656593030933 0.09516297012847533 0  1.137881384873427 0.07908223558155231 0  1.32048878152036 0.08572192432392246 0  1.262505280169599 0.0113811352998846 0  0.6064357827246631 0.06140101629982692 0  0.8827984774943168 0.004514044346142709 0  1.194100738858859 0.07479768414092398 0  0.4232326226878476 0.07938621198249488 0  1.195026681608002 0.03058717743818258 0  1.333798449560914 0.07895773789800239 0  1.339652758615176 0.07091803985389168 0  1.343753889322254 0.07911020138933744 0  1.349519241555454 0.07055646482511832 0  0.6844259691298921 0.07494708197380297 0  0.683360262212988 0.07306457599951729 0  0.6823702287255766 0.07470821621754212 0  0.6813542096590495 0.07305008481452024 0  0.6804333792533255 0.07474137241614773 0  0.6793689358338919 0.07306063903306315 0  0.6784324505110818 0.07502897719218397 0  0.6773743061669508 0.07312249083112934 0  0.6783489505915737 0.07135384167685374 0  0.6763813564504652 0.07482361531723319 0  0.6754186474680612 0.07308191912182549 0  0.6743462339060932 0.07449766464352685 0  0.629987964221144 0.09438076020101172 0  1.775947721601872 0.08468557915792457 0  0.681385644748741 0.07650650314485431 0  0.8025434715872107 0.05383834769885277 0  1.189203043227179 0.07672230935216509 0  0.7769884421562707 0.09468179473558802 0  1.201533950629606 0.06008940422255953 0  1.214889774438608 0.02775808193484013 0  1.211917394778512 0.02881320789869609 0  1.353673243075694 0.07904597155884509 0  1.359006535097573 0.07029538796884552 0  1.363495674058 0.07894824521985733 0  1.354564168962339 0.0625942393809531 0  1.36925345833892 0.07112538964043631 0  1.222720236317889 0.05367391287431662 0  1.219106916934443 0.05446563264622319 0  0.8888705331919202 0.003780753086977 0  0.9307665027353318 0.09453799832249835 0  0.9317825817102335 0.09281653114909216 0  0.9327334698518853 0.09456493528866884 0  0.500513917949669 0.03209795005567781 0  0.4957486089243892 0.02479542579678024 0  0.4916597465855148 0.03260357508112399 0  0.4873898073625331 0.02530775415818647 0  0.8524379834266393 0.01572187660871993 0  0.633401649880562 0.0961809650147068 0  1.197462407890292 0.007883808387517175 0  1.198209115023994 0.006303172181620337 0  0.769577124082875 0.04645535455031648 0  1.189552511729573 0.06379031882895708 0  1.192794210630343 0.07651936921380173 0  1.033294676169781 0.09507355701268834 0  1.035292699986573 0.09520625010645284 0  1.18966313717385 0.06726967641498384 0  0.7463320528303902 0.01287246871308936 0  0.9040108444241177 0.0955424081072215 0  1.208285880964694 0.07179401188957509 0  0.4992347758505473 0.01742098904760175 0  0.9956449588486685 0.09433224771059404 0  0.996683275667167 0.09262723295608452 0  0.9975749616206524 0.09440609232804596 0  0.8535703280576626 0.005136463629587153 0  0.8922182006114487 0.03323373625094134 0  1.091880438007556 0.07577699239981667 0  1.090872691126193 0.07755301176157675 0  1.089831867437187 0.07584250363193407 0  1.088867422928029 0.07752053148717769 0  1.087983531616855 0.07571602557865936 0  1.199142075649836 0.01479169231078229 0  0.8084906941587016 0.05285218666043726 0  0.809990785638353 0.0543279681134763 0  0.8120083461486518 0.05397802310908825 0  0.8079380340719844 0.05516447192795629 0  0.8126404218734387 0.05200493628897857 0  0.8141277282221157 0.05342934457278056 0  0.8161260176239528 0.05287731368412597 0  0.8157778001571425 0.05510294987788972 0  0.8175922654164594 0.05427097523232657 0  0.8181627905927803 0.05220662280898173 0  0.8195090602374746 0.05369984853720573 0  0.8351471838411523 0.04067927526240494 0  0.8409979742179883 0.03420513001274768 0  0.8418392048138175 0.03612832277549578 0  0.758898100559627 0.03427268671934521 0  0.7583101953662578 0.03622204418206792 0  0.7595622209153996 0.03778763864914196 0  0.7576596097385946 0.03813225648192237 0  0.7569841789781228 0.03466216798565978 0  0.7618002072354911 0.03779119303290242 0  0.7605293158707368 0.03936009936678033 0  0.8469852068173541 0.02553258991876295 0  0.8491397009753444 0.02557836530001537 0  0.82827848735162 0.04540245194948581 0  0.7681900604775418 0.04308003288503458 0  0.766306865154194 0.04380540957223837 0  0.8207545466357453 0.04932361124787315 0  0.822353611941452 0.05040857213287875 0  0.8204110735210189 0.05135688192656897 0  0.8245231568469927 0.04758383027786493 0  0.8384274600495418 0.03750190661773343 0  0.7715886728026184 0.04536680241575559 0  0.7874003438105048 0.05202043066104135 0  0.7880310351679485 0.05393532346561528 0  0.7900334266740268 0.05436794362979728 0  0.7886933180006105 0.0558678801391022 0  0.7867335228357109 0.05540510469164575 0  0.7905310599387818 0.05627054049404929 0  0.7922116194818269 0.05481277241093972 0  0.7859006525118002 0.05343547176216098 0  0.7978382282091583 0.0532486363338142 0  0.7754799349224984 0.04747869571725073 0  0.7832852670039584 0.05071130607063781 0  0.8688588608110872 0.005778464144367064 0  0.8667310999683835 0.005758292503641892 0  0.9852256789159513 0.04954800716192446 0  0.9894305318024859 0.0528658825129048 0  0.628483927935638 0.09563060959805841 0  0.6268808701656633 0.09453672636022081 0  0.6250923828959412 0.09501336016708517 0  0.6254998962113728 0.09315958992427589 0  0.6236171382900838 0.09377530917991561 0  1.279050409563558 0.09136473601341107 0  0.5821411524264323 0.09539278639646376 0  0.5805569849267074 0.09230457125928851 0  1.225760921872967 0.005209675836190416 0  1.227614716406899 0.008763989877682503 0  1.223643802902098 0.008533324530256459 0  1.231726447618284 0.009131942303369622 0  1.225409220663295 0.01213100990492075 0  1.221598485882668 0.01175214066032079 0  1.219965368069513 0.008356383007120043 0  1.218003662004295 0.01136954550289413 0  1.216453381447999 0.008286394249624508 0  1.214585685846875 0.01116410794523099 0  1.213205088119035 0.008427243836420628 0  1.211478992513055 0.0109065535930733 0  1.210151641239946 0.008460964527010154 0  1.208721561816098 0.01068855516392674 0  1.20738070851497 0.008335312149214107 0  1.209937684811846 0.0132305498550505 0  1.208929511635287 0.005874609933128693 0  1.205951365333754 0.01083785634202115 0  1.204743910636001 0.008218327972360155 0  1.202436603122085 0.007883363644035588 0  1.223119576800516 0.01522710668973237 0  1.229526768681435 0.01323941026848522 0  1.214479554097075 0.005120374260115736 0  1.232837917459659 0.06876271965805299 0  1.22765959180119 0.06913483082240193 0  0.5904021372742074 0.004189566742079863 0  0.5890351765409497 0.00663603576357606 0  0.5917988101760432 0.006658021558294591 0  0.5353014984284109 0.008209984924169449 0  0.7835808347484962 0.05288096961091401 0  0.8829784030818282 0.09459017087469676 0  1.760215128500208 0.07970148742690104 0  0.5933599738044244 0.05448399188594279 0  0.5942289513576761 0.05204773288307843 0  0.5928795389043702 0.04987681287794914 0  1.206868058195172 0.07886034448940116 0  1.213464620163851 0.05688924529845932 0  1.192387937985129 0.05866878469484357 0  0.5033041298889217 0.09015187571807992 0  0.498603500429274 0.08228333598155303 0  0.4897995856734525 0.08190432906128249 0  0.4946178593291612 0.07376633655514149 0  0.4841703717382389 0.07394921399659604 0  0.4795335020682346 0.08188025209167381 0  1.203650207283474 0.006166519322693558 0  1.201599502537132 0.0062825515173014 0  1.296266893514458 0.09053464977794839 0  1.219211199500142 0.08079542579723235 0  0.566731012178082 0.09231126616079295 0  0.558792987186184 0.08920272508459093 0  0.7352648188175455 0.09619744431106349 0  0.8283700379233159 0.04744198973982993 0  0.5316141480679375 0.01438003822901533 0  0.5202062188402581 0.01013535652287122 0  0.07989707489674584 0.08711593625899849 0  0.5736416783787939 0.005158037242500076 0  0.8435300034031427 0.03092011634848334 0  0.8448321362022906 0.02928337079247035 0  0.8469281453413221 0.02923857402246164 0  0.8455504969108393 0.03147694322465536 0  0.7936015568020665 0.05305266732293208 0  0.7473639294177694 0.009488399367971603 0  0.7465389883821659 0.005300968030545266 0  0.7446129263581672 0.00557548272225261 0  0.7430802672488072 0.004439937908701055 0  1.192789512333943 0.07204557069413398 0  1.217180893409045 0.03704731319639619 0  1.047937431771014 0.005712636499794675 0  1.046659662994516 0.004546605323897028 0  1.046031017769101 0.006025568226825311 0  1.242327733860623 0.05915791176134332 0  0.5992557399842776 0.07082898413589694 0  1.116884730154635 0.07467631658574342 0  0.577263475727659 0.01829037229493157 0  0.7414193587906226 0.005269420708044006 0  0.6003707662395651 0.06151653077431319 0  1.071130780421715 0.005271987392695148 0  0.5424331798483557 0.007403940737985065 0  0.5461582414807706 0.01263130747610432 0  0.5519064644311111 0.01153143831594455 0  0.5496332545584005 0.0171010084855733 0  0.6214682103817353 0.07714880894729671 0  1.217544566223405 0.07725389469348339 0  1.212427278597118 0.07946347325971048 0  1.281367595680956 0.06444676197856575 0  0.01741734068320615 0.03917483736760269 0  0.02387806638062354 0.04686365778780689 0  1.278835187091174 0.008936800216537628 0  0.7792651448799505 0.04955961860030257 0  0.5977684373147834 0.003691092461266979 0  0.5966672064512628 0.005670544463590995 0  0.5988981123015626 0.005682063130617869 0  0.5979135134633514 0.007876648909593423 0  0.5955675567842514 0.007602748691801569 0  0.6001699387067928 0.007266000874492072 0  0.8245075309131766 0.04964482843125084 0  0.6872946736109216 0.07647055528825555 0  1.296645728535472 0.009599857440899525 0  1.301056422196351 0.01795431254987626 0  1.310562761063381 0.01936648064806318 0  1.303980306824515 0.02668539118947771 0  1.295582095727063 0.0240435361021308 0  1.026397991476566 0.05334312497631236 0  1.016429135964584 0.05367656071736876 0  1.006460011842505 0.05401000916884677 0  0.9964905058511409 0.05434361156648799 0  1.201737976077682 0.003455850809571918 0  0.9782159683232914 0.04806395995433189 0  0.9682487037023251 0.04839751753018696 0  0.936185453463106 0.03914621404854958 0  0.9340923228042222 0.0392524795569744 0  0.9582769793515513 0.04873033041055586 0  1.207594622899099 0.0469347076047586 0  0.9483033695809256 0.04906345120700854 0  0.6184323494707757 0.07550034724964541 0  0.7847194153111298 0.0551070613933426 0  1.040339983374107 0.05289582275779166 0  0.5030718428799861 0.07630886071468465 0  0.9383270807072438 0.0493965707435464 0  1.181260737198507 0.02719624418017344 0  0.7561157819753 0.03120337300142448 0  0.6013582757317879 0.06334843348922116 0  0.6024152802913187 0.06158093380185438 0  0.6030585911047291 0.00519935656672206 0  0.5436972351063585 0.09277538838440227 0  1.256312079594053 0.09280436727816124 0  1.259431502656326 0.08755726296385927 0  1.244405535774497 0.09331414094241422 0  1.241151102145674 0.08934561654177332 0  1.246803386212946 0.0876196267624885 0  1.236069679589725 0.08982681508922644 0  1.221920145115037 0.005084464496908737 0  1.244773015804127 0.006157897647847426 0  0.5844877001200929 0.00441215259737592 0  0.5832335041431229 0.007168159130151491 0  0.5797668302373815 0.007546870688921875 0  0.5647129904397022 0.005708776080759694 0  0.5622518538811235 0.01020833503202095 0  0.591240414832175 0.09597253606662515 0  0.5898445142944863 0.09348348265726533 0  0.5925054450247447 0.09379616378113631 0  0.5870093492543547 0.09326808483488254 0  0.5887495765730112 0.091128218617999 0  1.208796762437192 0.09590257771984917 0  1.210114053723298 0.09332005568823057 0  1.207539214251646 0.09366896797236964 0  1.204863171219938 0.0937840373402508 0  1.20870952811787 0.0914798802408258 0  1.21137024397234 0.07170388679271839 0  1.196410070692324 0.05833285578938432 0  0.5291779015202746 0.09101721054436276 0  0.5341529609853479 0.08616747715558917 0  1.270329380251624 0.09167763966385638 0  1.233995563840451 0.09433518957459111 0  1.23178595097207 0.09054396146732399 0  1.225425532627462 0.09485762401443609 0  0.5543401860064516 0.006507714101400275 0  0.7327664829263766 0.004617952075574376 0  0.7300376144113376 0.005299547099506943 0  0.7349718344771233 0.004349008678063185 0  0.7291120993963913 0.04080886591595938 0  1.201284329069238 0.02487474069156533 0  1.316620085578341 0.01051581560483273 0  1.322323876297064 0.01918494756132725 0  1.332225448893594 0.01844670291894146 0  1.327134228128074 0.02691460702062233 0  1.205679268149888 0.07220283191400498 0  1.752165219583071 0.0179468105405959 0  0.9427871889333097 0.09478596359657179 0  1.234414138696715 0.005671138962674268 0  1.236616922632893 0.01047653135334701 0  1.24243972689781 0.01038888672487578 0  1.219484629160021 0.01470596205863836 0  1.220901118758853 0.09152214049230586 0  0.6144162357827144 0.07556649543341709 0  0.6088075185492121 0.02403955411811904 0  1.212842890902239 0.01359295080544915 0  1.210891523809084 0.01577526090820006 0  1.207790664628169 0.01529096190908089 0  0.5676288316725424 0.01600631802244069 0  0.7678932576328608 0.04503560455023697 0  0.7292750036877385 0.04431024021934589 0  1.104066798166252 0.04048192525571733 0  0.5940726999087167 0.009667832907627055 0  0.7334718533432543 0.0510753414973612 0  0.7344022633554521 0.04930504494843176 0  0.7325470132225311 0.05286965170309724 0  0.7364493354127115 0.04926792145488648 0  0.7374052504325106 0.04751856510312125 0  0.6583371569263787 0.008565147560872809 0  0.6592493131699735 0.006814674740729791 0  0.6574089611132949 0.01033322468946316 0  0.6553998221086768 0.01041059621599188 0  0.6083229016293559 0.06874358601591414 0  0.7579139546720794 0.06414179604124215 0  0.9972009966983811 0.005013836533165384 0  0.6612765353106514 0.006774066073187302 0  1.198911804251433 0.07622685592432646 0  1.187182785881168 0.07595291171591668 0  1.047031479493638 0.01608083217027662 0  0.5930179329525925 0.004053136856192092 0  1.183351437487736 0.0602367156104558 0  1.029994902650047 0.01586004229942995 0  1.180217529054152 0.05513565536602356 0  1.17923396677422 0.0272421179650918 0  0.6603193645120601 0.005118617425891076 0  0.4093838583586349 0.08792879465412859 0  0.9159804687592713 0.03979985431935806 0  1.006975982871816 0.01613356881144261 0  0.6002905049816361 0.0688682610630646 0  0.6170759922922024 0.0376133849251301 0  0.9939439060499238 0.01557320077037359 0  0.6191583627153031 0.03754788637576031 0  0.621121653271302 0.03749348762301675 0  1.080492077282249 0.09461981844907086 0  1.078512411401372 0.09459589261386006 0  1.082508061992809 0.09467666566305527 0  1.077620938498704 0.09648041294076717 0  1.076534633179536 0.09472259581380842 0  1.194245745066497 0.01308203986123491 0  0.749504223071394 0.01784105113024761 0  0.9709295608132422 0.01584813718839366 0  0.7755697742365972 0.04957912558390013 0  0.06523934073103864 0.07932018959412858 0  1.203749061485313 0.09635394561800924 0  1.202555672206207 0.09449264873010106 0  1.200429932977217 0.09460552476663367 0  1.201314278481302 0.09277579906460773 0  1.19931943701222 0.09286510416189561 0  1.20013705479821 0.09076418160758268 0  1.198350546203763 0.09465130275635426 0  1.197135331922289 0.09264593676574048 0  1.196354156464947 0.09469462776272522 0  0.5963709670249072 0.0960413733516224 0  1.206835441285141 0.003859317160284603 0  0.6072632225484655 0.07063212843569965 0  0.6043625206716949 0.06889596371951065 0  1.101425897069767 0.009516555434516323 0  1.102257269054973 0.007719339782406435 0  1.101120758727686 0.006181945828932404 0  1.103099322002373 0.005929258411891001 0  1.104242197613629 0.007543319052229683 0  1.105106177844455 0.005699455720464014 0  1.106231072303363 0.007358848083306438 0  1.105422018365532 0.009167423987043134 0  1.107122682758606 0.005495310167553037 0  1.10822179187932 0.0071724519265166 0  1.103783391221636 0.003705418550616455 0  1.109092231180778 0.005363242064200351 0  1.110252328315022 0.007004212937824585 0  0.6807963345207894 0.02510201399881616 0  0.684780442420888 0.02497098172170244 0  0.6878116499165152 0.02661724544631949 0  1.196224569683181 0.01507820789541831 0  0.7077007925780776 0.09508927862119576 0  0.6896324186096958 0.0592928702462638 0  1.77401713977683 0.05070821455862484 0  0.6779668920999526 0.03386964284825422 0  0.8550295285912209 0.007244532243576362 0  0.6879364417979463 0.03353917526076331 0  0.664842620120057 0.02563002803143097 0  0.9419656902936178 0.01665991399802668 0  0.9411277691432266 0.01846894113966506 0  0.6548547885769683 0.02595821864418237 0  0.6508569452179856 0.02608955374616776 0  1.219160830157469 0.0879433463533021 0  0.6468591019112637 0.02622088880185338 0  1.18325660137416 0.05676676932659752 0  0.8789880949462551 0.09471352987320406 0  1.19753672103002 0.06022762916574002 0  0.6368644936450377 0.02654922644052351 0  0.6328666503385604 0.02668056149596866 0  0.6288688070320687 0.02681189655141653 0  0.6499971819472483 0.03478718449953225 0  0.6480105077797507 0.03484818683795025 0  0.6248709637255699 0.0269432316068754 0  0.693258214971719 0.009128772199764311 0  0.6921732153990117 0.007449614035955903 0  0.6931135974042264 0.005686439197566309 0  0.6951034947959474 0.00558260586797027 0  1.17609737976725 0.05180509328187861 0  0.6217936140640942 0.02531771234136074 0  0.6207336343255117 0.02363021955508866 0  0.6002828762986423 0.07269749982587055 0  0.6539952850590882 0.03466363281691409 0  0.6943024824727611 0.01083384438830049 0  0.695386294266048 0.01251394022873671 0  0.6679865156254442 0.03420044741901934 0  0.6181173779581256 0.05817939488530091 0  0.7311384616976819 0.0407631513119313 0  0.6579930943464368 0.0345312641594747 0  0.5471120742456981 0.08789766095065495 0  0.5531467087187837 0.08849870760521189 0  0.5507773702294229 0.08285786349935917 0  0.5913837580598849 0.09138156861337732 0  0.923883232820736 0.09638911460701567 0  0.9228088221613868 0.09452350991681505 0  0.9198433161509589 0.09641131826283889 0  0.9183652337205018 0.09446219042108492 0  0.6992342381492934 0.07469461052859425 0  1.192497268137527 0.06215489099173892 0  0.4816240322194434 0.01009718386954441 0  0.4766846841791478 0.01858636875331189 0  0.4673114828976321 0.01885839045249557 0  0.4714673934930816 0.02690773557426046 0  0.4625686199638211 0.02728639141702834 0  0.457566502077253 0.01896490879878331 0  0.4527715353931311 0.02731329153437182 0  0.4476941895453238 0.01901816695780893 0  0.4427701115521361 0.02758136373488575 0  0.4474275166449215 0.03560719573328324 0  0.6098640488943313 0.02573771301228467 0  0.8900215695388981 0.09627039531407293 0  0.8869371961145542 0.09468372601585712 0  0.8930370653684463 0.0944710441631709 0  0.8944420328297228 0.09610724232104303 0  0.65440188675428 0.01215264632745571 0  0.6524129506544742 0.0121970293905916 0  0.60468512323271 0.02069340498227719 0  1.197550864544676 0.02877956756459876 0  0.7032286899347238 0.07457787005945074 0  0.6014490745348877 0.05973210881409583 0  0.6044191882261865 0.06139187759419555 0  1.346520621789779 0.08884448806411745 0  1.095565785647057 0.06662145733489058 0  1.09954685589211 0.06648436771152461 0  0.6726043495717458 0.08428008108215136 0  1.109532145561709 0.06615510185801239 0  0.8800191579920821 0.09644241638842034 0  0.7490691433245004 0.02653363784314714 0  0.7471329725604848 0.02599863904771492 0  1.119502867737832 0.06582090116176058 0  1.755293796892214 0.08866336296231353 0  0.9686393699328676 0.06223127421908839 0  0.958666104044403 0.06256432579144144 0  1.197977399003053 0.02350734903785973 0  0.9486918405866973 0.06289611829077121 0  0.9447031069589233 0.06302511666461388 0  1.365753656294217 0.08856346270813532 0  0.6071154201355093 0.005121936827001215 0  1.129492847587714 0.0654900388057796 0  1.230763443836363 0.03116115191281281 0  1.003835973462838 0.06969279523833941 0  0.9347237795478929 0.06335768972614123 0  1.079619570097845 0.06714821296334636 0  1.081613228342227 0.06708085776117642 0  1.082676162581339 0.06878110339899474 0  1.075632863090089 0.06728638953097071 0  1.065661012419236 0.06761985144012436 0  0.6927432424529281 0.02470870488193875 0  0.6936869698445081 0.02294814160334424 0  0.6947364967351112 0.02464355305561677 0  0.6956785551975757 0.02288275824607522 0  0.6967242550973474 0.0245817551695024 0  0.6976694574882656 0.02281776657848202 0  0.6987178535387955 0.02451413904706519 0  0.6996610839592448 0.02275196556412489 0  0.7007082726291982 0.02444950317143908 0  0.7016525105089082 0.02268638423749829 0  0.7027020763373044 0.02438494388766475 0  0.7036443726190484 0.02262096921170717 0  0.7046964207083305 0.02431391860735186 0  0.7056371537909496 0.02255395423199983 0  0.7066857863307288 0.0242505192025695 0  0.7076283724404118 0.02248883019171809 0  0.708678715293523 0.02418494426684439 0  0.7096207718536653 0.02242316403020145 0  0.7106696223820319 0.02412161065024249 0  0.7116142302356296 0.02235701072106238 0  0.7126645891072756 0.02405400091781132 0  0.713606477044888 0.02229155070024024 0  0.7125488447655652 0.02059865685503644 0  0.7037480368599607 0.02608704231398261 0  0.7146567762018018 0.02399015591787141 0  0.7155999794907004 0.02222645564456825 0  0.7166526959345327 0.02392282786735458 0  0.7175972193809302 0.02215735997956984 0  1.013808106946261 0.06935977181180805 0  1.055689669509369 0.0679549079331514 0  0.930732326069023 0.06349037079402042 0  0.7186471466152813 0.02385834635879942 0  0.7195900736837892 0.02209330626554432 0  0.7185307625464837 0.02040084353265928 0  0.7206446878732748 0.02379147734429564 0  0.7215845654406707 0.02202892691302232 0  0.9931398537774888 0.04147805383570678 0  0.9913682799815422 0.04223973792797096 0  0.9899242346212029 0.04051573697109852 0  0.9906964984029714 0.03857707091964645 0  0.9887812401962536 0.03871885113294016 0  0.9877129179786177 0.03688676735128478 0  0.9868503598339811 0.03891935885754895 0  1.023779786039283 0.06902688262170192 0  1.033752396849212 0.06869342314250873 0  1.029763357233484 0.06882781098170752 0  0.6898045623000187 0.02654451932308987 0  0.9467798642895554 0.09484456196697255 0  0.6073879698905751 0.06322127464130711 0  0.6084328477867234 0.06145247586530948 0  0.6105067082199291 0.06139889771440359 0  0.6117302746772746 0.0596461704346093 0  0.6125207218315479 0.06147246643804591 0  0.6216969430253758 0.02186000113829435 0  1.145480023256519 0.06497058876489023 0  1.143478524668596 0.06504049738164304 0  0.6993679889289176 0.04872943886839277 0  0.9898754389514594 0.07016071229762122 0  0.9878803454283325 0.07022164482685983 0  1.108373244303532 0.01933766147478223 0  1.107231233618082 0.01770409392402949 0  1.71475594617383 0.08659176302926073 0  1.706644246139533 0.07969259497903239 0  1.697493418035092 0.08252420937188525 0  1.700006733357054 0.07345848060627194 0  1.690663596702596 0.07673547296436682 0  1.70841127388069 0.07041646058662215 0  1.689100025842663 0.08455787304529611 0  1.680911570096052 0.08047528874501775 0  1.670290990691462 0.08003878648555056 0  1.674787290943455 0.07098988151681665 0  1.665158273913592 0.08886079024470636 0  1.660211963342767 0.08040530254214946 0  1.700379762141863 0.06333928958096618 0  0.6850799251186277 0.03880953577491084 0  0.5983216003073272 0.009670507481474072 0  0.6890707796040833 0.03867193533888438 0  0.9039223474002136 0.01655744954460641 0  0.9019338582935076 0.01673708386988016 0  0.6930512286691179 0.03854349193096127 0  0.02493224412686618 0.08946269038516652 0  0.02994807086233426 0.081014254642091 0  0.0398719234993929 0.08100412231707252 0  0.03444751828095222 0.07268404596045441 0  0.02514266293271259 0.07236585365456244 0  0.04441060788382905 0.07154859012418417 0  0.04898651482489944 0.08128925459885535 0  0.02990642202125198 0.06388990203027767 0  0.02006294520855208 0.06392020285584039 0  0.02079127242811898 0.08033334617542023 0  0.7226465021616434 0.02372175352455719 0  0.7235853705325457 0.02197127526172413 0  0.9279143232795127 0.09634210233288171 0  0.9007803226081703 0.0151053304580016 0  0.8999437042263516 0.01690937061139679 0  1.764153163491739 0.05121952297945888 0  0.6751072430096934 0.0391436794128783 0  0.703475517324778 0.05205121977336825 0  0.8651449824620966 0.009946308666415059 0  1.115490745144989 0.02041985411131695 0  1.116335437185312 0.01861380116675758 0  1.117478803833125 0.02025624657879117 0  0.6943219809276183 0.04717829615174347 0  0.6923280401586152 0.04724116512258622 0  0.6913862415453844 0.04900788542181387 0  0.6963162106158027 0.04710950308982804 0  0.6903336826950881 0.04730736273088443 0  0.6893919793116033 0.04907507682235029 0  0.6883367721440584 0.04738242252524686 0  0.6873975040329677 0.0491428767203205 0  0.6863435611703868 0.04744419993878483 0  0.6854035393623199 0.04920948763631853 0  0.6884519457410329 0.05083678099722459 0  0.6843507474800257 0.0475076902784785 0  0.6834102009773966 0.04927541038908986 0  0.6823573738414794 0.04757947087383989 0  0.6814163817425061 0.04934324414915134 0  0.6803644876464643 0.0476464960772045 0  0.6794230967147983 0.04940947188330486 0  0.6783697128871339 0.04771263745828084 0  0.6774289641367697 0.04947694176585854 0  0.6763758192772882 0.04778134471945826 0  0.6754352253615995 0.04954438884765629 0  0.6784829370238766 0.05117132349426567 0  0.6743826101214442 0.04784787314356048 0  0.6734416664720243 0.04961061670947126 0  0.6723869222979646 0.04791744047985875 0  0.6714478355122844 0.04967746212333378 0  0.6703950124290239 0.04798075047379648 0  0.669454079400252 0.04974437077846817 0  0.6684010502762876 0.04804709521172344 0  0.6674604171676007 0.04981054363904314 0  0.668515056800522 0.05150474173612428 0  0.6664066794460217 0.04811378249958188 0  0.6654663079458152 0.0498776763646254 0  0.6644117845517182 0.04818085533500233 0  0.663472018102058 0.04994427129701681 0  0.6624166667212262 0.04824762421957582 0  0.6614776900785001 0.05001094436398475 0  0.6625345653473373 0.05170544773950311 0  0.6604209706398615 0.04831366777374733 0  0.6594826945950968 0.05007766461923461 0  0.6584251660130139 0.04838076869513432 0  0.6574877075940647 0.0501444046377817 0  0.6564320874521528 0.04845112430478962 0  0.6554920818163786 0.05021250148368089 0  0.6544354351906077 0.04851660328728698 0  0.6534957276769212 0.05027924943054296 0  0.6773181181360475 0.04601298054019388 0  0.6872833417411599 0.04568333781279386 0  0.6973640412773536 0.01243543298404615 0  1.118614924951289 0.02190069162706825 0  1.119458734653033 0.0200837177632368 0  1.088965113640446 0.07406126920771575 0  0.9147960507439445 0.09010326815561211 0  0.9177960704049254 0.08885873676459968 0  0.6524333862315785 0.04857644585997587 0  0.6514967295699834 0.05034158108581203 0  0.6525627548736497 0.05204051136466298 0  0.6494957471207763 0.05040815287215552 0  0.6485680907415833 0.0521747582023594 0  1.184232308914254 0.02837394919478517 0  1.185212581983188 0.03190339768314796 0  1.183521081272755 0.03292529417378538 0  1.187013742600799 0.03269951821519389 0  0.6982966859393931 0.07646899513415674 0  0.685218895583746 0.05918879488941454 0  1.205259247327642 0.06972218305464521 0  0.9287355362731435 0.06355958545093315 0  1.77511181618485 0.01033701954892245 0  1.78030029357868 0.01870896612368907 0  1.790807530779801 0.01775001398108635 0  1.784988559556386 0.02744788976533089 0  0.8922093529754227 0.008883458857434457 0  0.7914788326320048 0.05281301427490338 0  0.671666088027924 0.08604091118222421 0  1.136505418828264 0.02031599837371952 0  0.6686184286264669 0.0844139878390423 0  0.6746037654749895 0.08422239740769207 0  0.02481752026995808 0.01034806251807608 0  0.9133164492738907 0.02092136218265462 0  0.9113325123864842 0.02110037150947919 0  0.9153007125141303 0.02074363707889459 0  0.9161430258466862 0.01893459474326125 0  0.917292253382184 0.02057023972114699 0  0.9181312591486487 0.01875989771200196 0  0.9192782054550441 0.0203927528208503 0  0.9201186094460989 0.01858454157817149 0  0.921265813142341 0.02021978611240063 0  0.922106243513484 0.01840982899507837 0  0.9232511065880139 0.02004308079807098 0  0.9240930443383016 0.01823467448095953 0  0.9229479476814484 0.01660105609722035 0  0.9252399415025037 0.01986911059959961 0  0.9260804115705229 0.0180598478758455 0  0.9272288300202587 0.01969525186263183 0  0.9280677776700844 0.01788511771684049 0  0.9292158858382644 0.01952021985608023 0  0.9300547810299804 0.0177101910366391 0  0.9311993310903535 0.01934274033801291 0  0.9320392508955153 0.01753269357236116 0  0.9331901081843661 0.01916598820875586 0  0.9204312927800198 0.0220351757827344 0  0.728985433251675 0.09621874582829204 0  0.7025365766005525 0.0832910552781304 0  0.03332054762003862 0.04651859214963684 0  0.7054723515337431 0.05198115099898741 0  0.7064132422308573 0.0502141687740961 0  0.7074692295528072 0.0519115458102624 0  0.708409819672194 0.0501464547111391 0  0.7094661975558836 0.05184215178056223 0  0.7104065840985353 0.05007978249996357 0  0.7227251044572777 0.08952766327969325 0  0.991964435894688 0.01575375657799723 0  0.9911229258850442 0.01756063611907992 0  0.9899626626867005 0.01591877719099681 0  0.9891346800979466 0.01773440405482175 0  0.9879928451745741 0.01610394697977682 0  0.9871511226830183 0.01791092951637883 0  0.9860017456778866 0.01627063703647446 0  0.9851647853641016 0.01808480099171831 0  0.9882953390889796 0.01954315539343177 0  0.98401720671347 0.01645188326005253 0  0.9831790779268996 0.01826078695437698 0  0.9820281236157422 0.01663178323782234 0  0.9811926965769687 0.0184368057307982 0  0.9800364151929691 0.01680204165656736 0  0.9823377150038526 0.02006867801126281 0  0.7212408577038671 0.01166676618474099 0  0.9371520466567482 0.01881608616301737 0  1.771322447568182 0.01842690841348594 0  1.274691591806652 0.01543631157455967 0  0.9470890045242868 0.01793552578754777 0  0.9439547814488476 0.01648407042591378 0  0.9513654167503545 0.0210288392188261 0  0.9533410218189159 0.02085414715130103 0  0.9541814971407803 0.01904692905687573 0  0.9553287988250806 0.02068055387234809 0  0.9561680644564929 0.01887213491904824 0  0.9573185012500731 0.02050355684644635 0  0.9581548328641425 0.01869685904007525 0  0.9593028492559107 0.02032715130360962 0  0.9601408175043999 0.01852156365369052 0  0.9570090884735063 0.01706437402252122 0  0.9612890095180364 0.02015617032727928 0  0.9621269289749101 0.01834718484388462 0  0.9632790988608575 0.01998356488725661 0  0.9641137122777137 0.01817267382418566 0  0.9652796624030933 0.019818097340613 0  0.9661137059009832 0.01800748802961436 0  0.7027634161493919 0.06074723889941212 0  0.9545022117824238 0.0224942586011421 0  0.9604631842536262 0.02197017317523802 0  0.7114634594920821 0.05177637942277206 0  0.7124042514480399 0.0500129042531684 0  0.7134612950572851 0.05171015966012046 0  0.7144022971655988 0.04994474940996724 0  0.7080649683483622 0.03976939688292166 0  1.220704906368078 0.03683720260944915 0  1.156488630929512 0.09298315679281333 0  1.157124786789279 0.09479892364584697 0  0.7059487565653699 0.03638547070030616 0  0.7048906698715496 0.0346929379831323 0  0.7058642215535392 0.03292943980476359 0  0.7154596758700795 0.05164322992191889 0  0.7164008104037093 0.04987765897920923 0  0.7174584014942643 0.05157632939182747 0  0.7183996653730915 0.04981066211789696 0  0.7194573081184623 0.05150944062492341 0  0.7203992413933452 0.04974626817365782 0  0.721456541814111 0.05144318871351709 0  0.7225161792090716 0.05314005352640874 0  0.723455934233203 0.05137637823642548 0  0.9978985177093922 0.09637440251093594 0  0.8190452552432997 0.05564534511887714 0  0.9760329858827047 0.01712423842417014 0  0.9780354640018523 0.01696149034635519 0  1.098624229477062 0.08813990671432978 0  0.6383385759276686 0.005684954670629691 0  0.6356947463057189 0.003853509331655051 0  0.6564707163296872 0.01209717529526619 0  1.089837089167096 0.07927022042980517 0  1.099816477302417 0.07951641257530531 0  1.102614376318536 0.08823364721078603 0  0.7052245484126751 0.07450539205904458 0  0.9227468747947272 0.06375436272045351 0  0.5999003600997487 0.003486725223006961 0  0.601026414808196 0.005350310392041536 0  0.7061633706894714 0.07273905914141175 0  1.08758885627242 0.06689744644484846 0  0.9848390938891473 0.01462732321298053 0  0.7087558492499644 0.06054766873728674 0  1.104771461322232 0.03527640590094283 0  0.7004221966373785 0.05042854058034127 0  0.6604586852742012 0.01195473640670597 0  1.783785971567123 0.06708633842151029 0  1.173906290999569 0.07784071969455889 0  1.10980194815022 0.07974707556148029 0  1.103055043529179 0.03884424059478857 0  0.6422642646578842 0.005557781554717305 0  0.6414377337008239 0.003755567945276227 0  0.6443042103877284 0.00544664113817079 0  0.9947488504308473 0.01374057893800544 0  0.9816677549218497 0.06350289160075995 0  1.112598055508484 0.0884725157700441 0  0.6926582301348337 0.06105167163755183 0  0.9308949044135874 0.0159003400362609 0  1.077392418519818 0.0603057243263373 0  0.9990275702057192 0.01682891335714985 0  1.001008190179289 0.01663557798912522 0  0.6651267277402432 0.03947676443914756 0  1.087844591012968 0.07922232303737385 0  1.138496208873996 0.02013985604457232 0  1.13933986968322 0.01832596276056006 0  1.140487437825551 0.01996409888269724 0  0.7226106720158318 0.08606875967468425 0  0.06026973918653838 0.07202300335798284 0  0.7091208712739167 0.04146546888355798 0  0.9828381887165401 0.06865476441924788 0  0.9838911033389481 0.07035272160736067 0  0.876673219373564 0.02572446808720619 0  1.087604410494846 0.08960599336473465 0  1.088642949400292 0.08790056624498704 0  0.658545538126543 0.05183986211927195 0  1.113796114012641 0.07984065434309551 0  1.086562274900634 0.0913108278091624 0  1.085519153319934 0.09301168690678169 0  1.087516594023224 0.09305360859108915 0  1.086545330239027 0.09476699219487718 0  1.089517390708521 0.09309714687100309 0  1.090553319596567 0.09481739370082592 0  1.141635293855048 0.02160512924169877 0  1.142478609791925 0.01979095481347707 0  1.198930447400738 0.0726528314237916 0  0.7217820351070486 0.09129381921591451 0  0.8769900362169734 0.09478373267437493 0  0.9269223375324719 0.01625129025596133 0  0.8873906552633508 0.01104987578047079 0  0.8865464342488256 0.01286223786576007 0  1.028016708886101 0.01604070132613434 0  1.027175546776695 0.01784797213278655 0  1.026017767429192 0.01620888495424547 0  1.025187613852916 0.01802198167672798 0  1.024045249480211 0.01639103299292033 0  1.023203708705891 0.0181980937494668 0  1.022053448752571 0.01655747024929731 0  1.021217252494724 0.01837191234007206 0  1.024347990278297 0.01983025171262047 0  1.020066475590123 0.01673591418028658 0  1.019231178104704 0.01854744946308798 0  1.018087992087523 0.01691653231512798 0  1.017246569153047 0.01872356259161284 0  1.016085872481691 0.01707714971004443 0  1.018390646201443 0.02035570418916311 0  1.116590955259082 0.0885670114251228 0  0.7281813259234142 0.04260536654298723 0  0.7271023165760171 0.04088806196326016 0  0.7085251477947729 0.05361076969907308 0  1.012078541014771 0.01741224229926967 0  1.014082789133786 0.01724832407933826 0  0.6341387351456245 0.005566193369018421 0  0.6482397408930266 0.005399423996554621 0  0.7140560066412097 0.03956833248481592 0  0.2720719003289656 0.03449731723853462 0  0.2766015500834654 0.02563905484510893 0  0.270569170692928 0.01770374695018864 0  0.2802570457477814 0.01736396881190364 0  0.2864359292319688 0.02555501590531896 0  0.6114178824264009 0.06325030782133602 0  0.8938066021578349 0.08901667397272517 0  1.155524010055404 0.0912245801702353 0  1.154561820697295 0.08947503160036276 0  1.155605310624416 0.08776530756099379 0  0.6298342164749746 0.05799202163373007 0  0.6288921096937501 0.05975688787341138 0  0.6308906015487574 0.05968938777683487 0  0.6299480258505495 0.06143907645327282 0  0.6319468553926263 0.06137060602001777 0  0.6279802638717717 0.06151509667748252 0  0.6290879380072845 0.06320417638142579 0  0.6328884394864552 0.0596196987962862 0  0.6339461005056382 0.06131958055466882 0  0.6330040125606862 0.06308770424939351 0  0.6351528483654929 0.06307378961884609 0  0.6360281892770578 0.06128775944685526 0  0.6763800517702437 0.01143629380195241 0  1.117791303423314 0.07993278213133863 0  1.139710238429335 0.03917641760662422 0  1.002191577016865 0.01826690800212744 0  1.002992981477168 0.01645553561636234 0  1.004988086792341 0.01630613199260487 0  1.007804181462202 0.01431856226705007 0  0.6593631487957208 0.04661046195159536 0  1.199722093078522 0.003306859173204289 0  0.9791989640890451 0.01860726181290044 0  1.020883910242112 0.01491003213757428 0  1.120584565630823 0.08866140587706092 0  0.8839576877753381 0.006263129199257792 0  0.6933634381593038 0.01259769676510644 0  0.6913611737851471 0.01266894666954137 0  0.682470459456488 0.05103684054145384 0  0.722293094871659 0.01336706152316212 0  0.9957272656028088 0.09087543770090879 0  1.001360954856048 0.02011319280414618 0  0.697320187427858 0.00356405308035554 0  0.6633561077239467 0.04647692723764825 0  0.8779351047529064 0.09300901195090852 0  0.7240684504676205 0.006468440615027712 0  0.7250623047639246 0.004716345119231486 0  0.7220733828603116 0.006535303872595977 0  0.7210152747495937 0.004757985233211132 0  0.7187670016230248 0.004945834788574249 0  0.6803587612479495 0.01130652450515495 0  1.015250493740899 0.01889244451562516 0  1.14271290970507 0.01107995538529671 0  1.143556175300678 0.009268158084480744 0  1.145546840256799 0.009092300384039301 0  1.144389640776405 0.007349986502054184 0  1.142395374712665 0.007508687439923634 0  1.14638755424171 0.007263323077294053 0  1.145349620877301 0.005505186842118361 0  1.147536522030311 0.008913373495977879 0  1.148378365228993 0.007101542145695861 0  1.149525571982209 0.008739459192931674 0  1.150370766009896 0.006947183209047619 0  1.149220391301862 0.005294229748435332 0  1.147286532335077 0.005469862650906235 0  1.027280077463967 0.04813151203360935 0  1.141398618134484 0.09431537515315613 0  1.143577259458802 0.09640078090897403 0  1.140721580384731 0.01125663022655092 0  1.139573184612185 0.009622264434755962 0  1.141562054693498 0.009424450221501226 0  1.140414046742311 0.00778672958149302 0  1.14124466812981 0.005936855203391639 0  1.139267961038905 0.006161646974307579 0  1.140089268463309 0.004607272693226835 0  1.138126780131553 0.004541303925996345 0  1.14319297898076 0.005178811058759098 0  1.144604776296067 0.003787304476370307 0  1.137286669871806 0.006419184972845814 0  0.6553680686987725 0.04674492378000561 0  0.6725027042847889 0.05137062082132958 0  0.9917356565059384 0.09078039694124306 0  0.6673473020432469 0.0463430847510975 0  0.6911262351559226 0.005820507463117196 0  0.6562974109874913 0.005171225924818029 0  1.066128972659162 0.0282767940749939 0  0.7183008178772674 0.01349865678304235 0  0.8882327972567015 0.00923666577955356 0  1.030792841273972 0.0140274138864158 0  1.014918457858804 0.01543141972482522 0  0.7291552955829355 0.008088379133536916 0  1.138427126651995 0.007992918225956403 0  1.135298230654403 0.006616832540047688 0  1.134140940223729 0.004900365337725391 0  0.6442941885944103 0.06474103420380664 0  0.647116050810349 0.06270549768627277 0  0.6490426000734018 0.06248894789079776 0  0.6499008919760912 0.06069862940253025 0  0.6511142044472501 0.06239152476154414 0  0.6526148583889853 0.06385756967776303 0  0.6530697127797318 0.06207182085659332 0  0.6543681108056829 0.06354902422955576 0  0.6550120826149217 0.0617216079015396 0  0.648312312294608 0.06449562450299466 0  1.127452653111262 0.09401810147250417 0  0.6456343335834829 0.003577685406948944 0  0.7163041542208133 0.01356730173535944 0  0.715256051964532 0.01186373857475711 0  1.142654787766909 0.03735064408442889 0  0.8913709960259493 0.01069866132604913 0  0.8941990567695336 0.008708031248072363 0  0.8961839497741638 0.00853124077672642 0  0.8970104552089253 0.006752828648907095 0  0.8981701512583236 0.008355779788237892 0  0.8989970146676743 0.006609055778213755 0  0.9001584433239477 0.008188048094854699 0  0.9009858221256761 0.006467352638036755 0  0.9021465612862045 0.008018938150688543 0  0.9029768688938871 0.006285681391765364 0  0.9041341872716391 0.00784151318727579 0  0.904965224777911 0.006127734666766116 0  0.9061212220920647 0.007667775925318697 0  0.9069532167896796 0.005931727044872853 0  0.9081058956394649 0.007484447439070454 0  0.9089401923114007 0.005766106445432109 0  0.9100889128644459 0.007302919862945493 0  0.910990484903486 0.005384026356810082 0  0.9120812499630149 0.007105409247691951 0  0.9112408648486836 0.00891774085036573 0  0.9132235894690225 0.008732891358681947 0  0.9140613480402436 0.006939808467653808 0  0.9152072331013921 0.008557382442491716 0  0.9160473622081096 0.006754291612943397 0  0.9148934067815859 0.005023378656820536 0  0.917236747964581 0.005025206902319671 0  0.9180993067696923 0.006648617051310543 0  0.9143776391093053 0.01038396869206725 0  0.9172138202015243 0.008402403535521252 0  0.9192027432917826 0.008216762696967687 0  0.9200334761075664 0.006451117565441479 0  0.9211787401311576 0.008014807652167211 0  0.9219973319324917 0.006165531712942837 0  0.9208304746153185 0.004549391937340354 0  0.9240315072294305 0.005284546116194393 0  0.9231644310546234 0.007781588731292653 0  0.9252306190417314 0.007157898684616205 0  0.9263745517432783 0.008992483070344823 0  0.9272940607256747 0.007190799079965893 0  0.8973353597451097 0.01016875588825713 0  0.9223308150111436 0.00964978358998168 0  0.7025891511370445 0.02092848326215018 0  0.6545579895690897 0.05197377661531216 0  0.6986079149157574 0.0210593573265939 0  0.7141021802493508 0.006769949709492663 0  0.7150739423864534 0.00493217159768776 0  0.9013129423266988 0.009823577913628272 0  1.137524702308199 0.09419563830857014 0  1.138500113053222 0.09596628537450849 0  1.035073507194568 0.01711560486133734 0  1.037052894005346 0.0169195884135334 0  1.038242108202769 0.01852343644851157 0  1.039029905265692 0.01670506075986816 0  1.040223586099967 0.01829529163429683 0  1.039433070484233 0.02012539040044954 0  1.041412693847338 0.01987081810443758 0  1.042199069115002 0.01805102412112089 0  1.04340139818302 0.01962378270931693 0  1.040574090507913 0.02174568754965708 0  1.044192248370545 0.01784932431660635 0  1.037419688458337 0.02036385109365337 0  0.9788833420885393 0.01516138365753559 0  0.9817566256375555 0.09054279310008748 0  1.017311618138591 0.04846536285936132 0  0.9649555023467382 0.01636620513530138 0  0.9669460936893134 0.01619553586242893 0  0.968940336539422 0.01602528402311623 0  0.9717587384530346 0.01403183852743952 0  0.9052889688434909 0.009473883009988592 0  0.7379333358086457 0.09445774186274664 0  1.135515903460028 0.09434224871348672 0  0.0929919607449656 0.04342716247253085 0  0.09753481209613854 0.03456497240464054 0  0.1074780444274359 0.03406283421150503 0  0.1020747401613081 0.02570624368752545 0  0.09214294544708328 0.02640009158105369 0  0.1120318981401901 0.02553433615305294 0  0.1174230804882681 0.03361625934926549 0  0.1219748295261058 0.02509636057743265 0  0.0977364091006498 0.01759148985808332 0  0.1273745130965525 0.03313671738497743 0  0.1319424004484777 0.02470029116102477 0  0.1276362296232712 0.01738246910097662 0  0.912133239445026 0.03987644834268816 0  0.7180428606590414 0.006663753444266196 0  1.130475165168467 0.008702238416855076 0  1.129330785063035 0.00707393023680528 0  1.130505223770432 0.005279251694616833 0  0.7101214217109734 0.006884616260907958 0  0.7108533387505065 0.005165754529533042 0  1.072894864090629 0.0396894870215632 0  0.6698585561022391 0.02721267902834732 0  0.9777646715163515 0.09044745121147506 0  0.643411697740671 0.06994528800002481 0  0.644428577602165 0.07166597751573361 0  0.6424378678759466 0.07168160720182587 0  0.6464264245724096 0.07164626685808448 0  0.6454039846862236 0.07334765900545549 0  0.6473934174427216 0.07331403724027372 0  0.6484151645790162 0.07161761110996451 0  0.6493866636468802 0.07328302442869775 0  0.6504094045023368 0.07159479780436462 0  0.6514271961529015 0.07327068336841036 0  0.652412139672628 0.07157745639360413 0  0.6534523451658798 0.07328073467838095 0  0.6544135519230485 0.07156316714840813 0  0.6554079529587248 0.07324165464123866 0  0.6564029581951416 0.07154056815069998 0  0.6574419771109954 0.07306612084480385 0  0.6544592084410362 0.07485469010482508 0  0.6843359111417027 0.01117606539393699 0  1.132067057390057 0.05329046761905704 0  1.133007187550263 0.0515275354197316 0  1.13500428877356 0.05146077622980819 0  1.133947446712247 0.04976530931784463 0  1.131011020766232 0.05159433661323408 0  1.135944119943349 0.04970302249278184 0  1.137000917815955 0.05139450970353976 0  1.137940407771788 0.04963654155128495 0  1.134888029710833 0.04800361508575035 0  1.132893026302851 0.04807062429880547 0  1.13899848856522 0.05132733066656296 0  1.139936619805514 0.04956413999192753 0  1.138879750486123 0.04786818790848578 0  1.140875543726207 0.04780061798098633 0  1.141932269107375 0.04949501557826706 0  0.8866983698187645 0.00407149660759279 0  0.6997616634137596 0.02622353844164713 0  0.7242912379655252 0.01330128557280989 0  1.130069720189157 0.05335713019183235 0  1.129011924685386 0.05166230594976608 0  1.127015626624577 0.05173017362155814 0  1.127955115887083 0.04996830526075541 0  1.125959758835243 0.05004111362310338 0  1.12689830406499 0.04827457413954554 0  1.125020272254064 0.05179845795861748 0  1.12396476811971 0.05010960808585004 0  1.128892820682986 0.04820673892223066 0  1.12995178392357 0.04990530549392864 0  1.131950355904459 0.04983869042356032 0  1.123023941826039 0.05186590689140591 0  1.121967437696746 0.05017732646626862 0  1.122908762504973 0.0484097113869634 0  0.9169845431936698 0.01712570525369304 0  0.7097223207623832 0.02589237314074955 0  0.6957744355433935 0.02635353389949685 0  0.6394042387063998 0.0767373730509448 0  0.6383486321535102 0.0750602283711829 0  0.6363491743005947 0.07510816837095591 0  0.6403821478290457 0.07505621403002619 0  0.6373274268250928 0.07340666073496016 0  0.6352991440104618 0.07343483547711351 0  0.6343512296286261 0.07517590678592523 0  0.6332952265136764 0.07348651508686449 0  0.6343051981524421 0.07174090189683888 0  0.6323516367109536 0.07523968195164657 0  0.6312953635646399 0.07354963178527527 0  0.6303524537080019 0.07530485092156863 0  0.6293059169970112 0.07361004117409585 0  0.6303222858322861 0.07183943666992088 0  0.628366189786019 0.07537652892674779 0  0.7123188763477584 0.0136950925406463 0  0.7103237013925447 0.01376924443082007 0  0.7092806392732187 0.01205988180164989 0  0.6713371381463374 0.04621273862359 0  0.8839248756001123 0.09281341683391491 0  0.6652728891898776 0.00664747929018593 0  0.6672634985619588 0.006615407251460257 0  0.6683317316480837 0.004995702479152277 0  0.6654837666155218 0.01351670094926356 0  0.2406083726505899 0.01880981703212514 0  0.7137097002569253 0.02576123545258524 0  0.667123735001024 0.03941060930096399 0  0.1077121512151706 0.01750828043156559 0  0.9609815175557185 0.01671437654892154 0  0.7065721060967602 0.02079683212412797 0  0.9072267427967671 0.07813337386012537 0  0.9082819393489018 0.07982997709624293 0  0.9073405679325625 0.08159365634662377 0  0.9093384432939415 0.08152696079401729 0  0.9102795921067519 0.07975705850040538 0  0.6946257340964047 0.0211904453983857 0  1.105612741744465 0.0334664972460726 0  0.08759213498668905 0.03509415983372563 0  0.08219574080462513 0.02693413827861936 0  0.07764115569163955 0.03560679021589791 0  0.07223788412428031 0.02724376324516439 0  0.0776999837492193 0.01856016945435642 0  0.06803146624219483 0.01873594030011885 0  0.06247882201525379 0.02778586799327494 0  0.6758351107278867 0.02702828120284866 0  0.6747992509019822 0.02530968174869606 0  0.6778332753626251 0.02694919078437988 0  0.6718428537027199 0.02715687424652822 0  0.6688330268904199 0.02549942077842684 0  0.2322965792618137 0.03649016992235623 0  0.226893967844413 0.02818867370241643 0  0.2169465149939327 0.02860700704482497 0  0.2214840153561375 0.01973143882156723 0  0.2115462555977435 0.02022902353006683 0  0.2071758916550886 0.02917736695383167 0  0.2010532238706012 0.02127003283550108 0  0.1931229633368973 0.01458772768030499 0  0.1918117681896651 0.02347067194745731 0  0.1854345041103095 0.01764797387648015 0  0.1820986834018302 0.02612246792083893 0  0.2137639187649977 0.01047497843047135 0  0.8928244639568086 0.01578842950641562 0  1.073633228083118 0.08927134907001569 0  1.010728598624061 0.08950154574332428 0  0.9820978974504337 0.02875577547417612 0  1.145367430981429 0.09447728067729309 0  0.9183603405357506 0.01004400849380165 0  0.142741042963379 0.0409210226336346 0  0.1373354485225851 0.03266034096858949 0  0.1472832475810752 0.03208699056524585 0  0.1418927186669632 0.02396802544103317 0  0.1518463696423172 0.02372317067855809 0  0.1572372815695093 0.03166267380375504 0  0.1617988384580288 0.02335401752066849 0  0.157556720389913 0.01651879391168195 0  0.1723542375901023 0.0395959781764374 0  0.1669045834631097 0.03137746482363098 0  0.1716987329177704 0.02379434724660708 0  0.1826086537712424 0.03744591468514846 0  0.2027426733795016 0.03809144863761978 0  0.2874438276457315 0.04230027616862812 0  0.2973989184275955 0.04181580831556647 0  0.3019428925864709 0.03295369897737922 0  0.3118849162430553 0.03245119032941083 0  0.3065148648187195 0.02411253119095747 0  0.3164500174482706 0.02408450820405891 0  0.3218295495858213 0.03203024570748954 0  0.3264883458130879 0.02371831233964575 0  0.3102675414603854 0.01624982607076847 0  0.2965650685144945 0.0250423278328131 0  0.3317966436187332 0.03156814723202482 0  0.3364443180137501 0.02276387643973997 0  0.7061421524909275 0.006996202222824662 0  0.7068743669730444 0.005244882732679555 0  1.00734289178655 0.04879920399771336 0  0.7151126281505851 0.0412666260575084 0  0.6631276665630729 0.03954456296184813 0  0.9677859069160701 0.09021013665619336 0  0.291992547263164 0.03345348234757488 0  0.3471433558371061 0.03930280105388021 0  0.3417568227189019 0.03100115617007961 0  0.3515566786693189 0.03054751709137643 0  0.3465088704622536 0.01998005509117534 0  0.3566223796442802 0.02153599518795368 0  0.3637917635344765 0.01179968340807253 0  0.3666310321058069 0.0223853845130221 0  0.3385447736658076 0.0124809063403158 0  0.3729084248475284 0.01545630757526141 0  0.3761090770718216 0.02470072949476131 0  0.3568717191089733 0.03894597296874965 0  0.7176996378890417 0.02562998716442706 0  0.9088191764378148 0.03129018777294329 0  0.9077506996928268 0.02965913892337756 0  0.9058199042867791 0.02969343345336781 0  0.9064633480865691 0.02805087688804154 0  0.9046873972349714 0.02804507873640071 0  0.9094816931981163 0.02961696685388648 0  0.9038179990010824 0.0297636616549215 0  0.902761559780189 0.02806661117838644 0  0.9038671595272993 0.02641904731327946 0  0.9021128598047655 0.0263220953132503 0  0.9009108717211123 0.02788310127687743 0  0.9403055917270067 0.02029020626664072 0  0.6714570418152439 0.01332186597302523 0  0.70634437668384 0.01389117945555772 0  0.7043494701449271 0.01396729098109793 0  0.7033035490338618 0.01226850675346261 0  0.7013191782476497 0.01232483057534753 0  0.7002802072771324 0.01061999337617755 0  0.7003761435694363 0.01408482421193066 0  0.6409238881830537 0.09228141935793546 0  0.642116789849157 0.09386381523848226 0  0.6441356701209684 0.09378624879805475 0  0.6401419543367377 0.09390284661280288 0  0.6381588997577198 0.09399844647610606 0  0.6369553992763946 0.09243283383521024 0  0.9144712394240022 0.02256446043693312 0  0.6772081115975797 0.006277612026592415 0  0.8491676991478142 0.02190101395556834 0  1.137650964885928 0.02195566896913688 0  1.134514503278196 0.02049179273400799 0  1.132524778830392 0.02066227395257801 0  1.13136673144965 0.0190259411831173 0  1.130527091807539 0.02084474999457575 0  1.129364525363139 0.019215527173774 0  1.127377655377982 0.01941152092426906 0  1.128203078743914 0.01758824717358859 0  1.130220590573077 0.01739292315115638 0  1.126219852969499 0.01778653054666036 0  1.125388043813573 0.01959702123318547 0  1.124243089086193 0.01795009714384013 0  1.123113395932751 0.01629818050842468 0  1.122268905542478 0.0181068519663372 0  0.6712415568222866 0.006463320377147728 0  0.6732318662726151 0.006441678758973464 0  0.6742556800978192 0.004913838382888773 0  0.7168804214997331 0.03428744561448362 0  0.7178562013649442 0.03254465045289851 0  0.7148820704049142 0.03435702460674726 0  0.7138559708863175 0.03267299364764554 0  0.7108880396783115 0.03449178591117268 0  0.7098640971763974 0.03280687239085532 0  0.7388472087138386 0.09248144720561428 0  0.9104947538538971 0.02291573963774649 0  0.6811838031894192 0.006107843307890284 0  1.014720099793282 0.08959650085883572 0  1.131447457213096 0.09411463032424476 0  0.6611293459827976 0.03961124392159725 0  1.022128935890056 0.02869255322712356 0  0.7070086236262525 0.03807638516608197 0  0.6474069344030298 0.06990300013346065 0  0.4542096350004963 0.08959668739062356 0  0.4492232279690798 0.08119238627905649 0  0.4387674499492493 0.08099419675222226 0  0.4591998810063296 0.08126730794128222 0  0.4693308933868192 0.08168561376912518 0  0.4742771270586567 0.08981847252734858 0  0.4341296703862877 0.0901265127259276 0  0.3767659962553886 0.03623335361132887 0  0.664528245558206 0.05163862103176476 0  0.6665212318721587 0.05157173164322237 0  0.9637940644018191 0.09011462610882627 0  0.6286639641874919 0.05283255512836384 0  0.6276088050718154 0.05113457362082346 0  0.6296069530619065 0.05106877989851136 0  0.628551899881423 0.04937509633157903 0  0.6305314380559179 0.04931236652940611 0  0.7041528389468243 0.007059969444404629 0  1.122745814554828 0.08178479857873099 0  0.68182120630757 0.02682941857671838 0  0.07395138862795626 0.06163650984618593 0  0.6990561129629307 0.005459016585109744 0  0.8969738635969002 0.09410126639651274 0  0.8989662591700741 0.09389890297758942 0  0.9000358317067203 0.09561112768447738 0  1.165763016819326 0.04175453351635949 0  1.166705628863931 0.04003840365932236 0  1.164705889114942 0.04008699531449792 0  1.168794084442458 0.03991484320735238 0  1.167890702319904 0.03826546365382467 0  1.133669892962546 0.02230282046128019 0  0.8931861846031252 0.0314127746679969 0  0.9244082705822915 0.02168894587075854 0  1.135610048655264 0.03542356804067547 0  0.7328201638070166 0.09273171101303652 0  0.7317129441178084 0.09454416247140365 0  0.6792644806981767 0.06271435443826863 0  0.6782452720997492 0.06099991411192539 0  0.6772691126940644 0.06272336350295132 0  0.6762565625068581 0.06107968209255677 0  0.6752752487730677 0.06275031703639516 0  0.6742506269341551 0.06111700297615908 0  0.6773923542256264 0.05941307230709517 0  0.6732790319780763 0.06277294899781048 0  0.672253189438239 0.06106285747403975 0  0.6712837332083765 0.06277968159130781 0  0.6702712986303063 0.06114953244093094 0  0.6692911183958726 0.06280758474804768 0  0.6682789287305166 0.06107238711102363 0  0.6714008698802636 0.05951203141711173 0  0.6672972917929029 0.0628112405159362 0  0.6663700375938932 0.0612338213878316 0  0.6653169939065864 0.06285116358423688 0  0.6644007149515208 0.06082865276514828 0  0.6633288555041701 0.06280259008838247 0  0.6622956917350831 0.06108650801625717 0  0.6613170766265062 0.06284974857445294 0  0.6603888772107598 0.061194609753187 0  0.6593345584635062 0.06288833742283487 0  0.6585781904773049 0.06133691750635487 0  0.6614537085082253 0.05929307171205257 0  0.6573690428934124 0.06292462879886594 0  0.6683086414193589 0.06452555900440227 0  0.674293786025401 0.0644730057328563 0  0.9347608821218741 0.09463191558454209 0  0.9319168042033796 0.09640658219175013 0  0.1228349907821102 0.04192279156902513 0  0.9337792327262249 0.09286357901174894 0  0.6691222366412173 0.03934288598064355 0  0.6701740011016066 0.04104284563232349 0  0.8768776213223689 0.09131116371668957 0  0.6265528979970977 0.04943783112362844 0  0.627495949421631 0.04767245295493058 0  0.6254970164290027 0.04773777810446687 0  1.130001594416844 0.02611349803136315 0  0.6858175261942107 0.02668504357914516 0  0.8719373395854496 0.09320104169584668 0  1.126497040872156 0.0922486963690026 0  0.9283866762900854 0.02133921424368483 0  0.7247252167991247 0.08946536517553053 0  0.06398643819073502 0.06257278904535571 0  1.147298126421879 0.02854916645631943 0  1.149350487076389 0.02846424605557735 0  1.15042612397762 0.03042847192654306 0  1.146293072798893 0.02683500878731923 0  0.6983143785815462 0.04702975996783672 0  0.6852560284537691 0.006118619516234422 0  0.6705085127856057 0.05143748368486156 0  0.6695698948175528 0.05319509086313121 0  1.137584553551299 0.009800232178827296 0  0.327244319703906 0.04032837765137887 0  0.9308202978924379 0.09106055822836964 0  0.7012323671879805 0.07465230434116113 0  1.634084834161892 0.03839850568179198 0  1.638770292559834 0.02959631540204748 0  1.648735210141691 0.02925093307989558 0  1.643209210508139 0.02042073777114625 0  1.633983320019694 0.02136305850856053 0  1.637745018544965 0.01157395153636231 0  1.653206424921804 0.02022752456091368 0  1.658663379432783 0.0288679164272103 0  1.662834345691182 0.01983898538794065 0  1.668569758469745 0.02851079119807493 0  1.673342895748432 0.01975815029003695 0  0.7051270820789602 0.0416046025737208 0  0.9108913292460038 0.03476790289887059 0  0.714518556018382 0.05341173700869359 0  0.9943219716257742 0.03114617927509224 0  0.8853980212761012 0.01122396762956004 0  1.58905101823436 0.03115249353797434 0  1.583807694533153 0.02318833315620485 0  1.573730662692608 0.02372558197903563 0  1.579286941831917 0.01460950024468193 0  1.618850409816714 0.03039394168292857 0  1.623923189122932 0.02106024360089508 0  1.628954755080279 0.02992588508535632 0  1.121624052863982 0.08695453256518568 0  0.9783638508551722 0.02041810031279816 0  1.121538215449019 0.0937554209929224 0  1.127644846797631 0.01067952693039412 0  1.126499966667541 0.009046687179170681 0  1.12451301348348 0.009222392062687261 0  1.12535478517712 0.007414366338474844 0  1.123368234695877 0.007590054730675021 0  1.12420183861508 0.005874383794542509 0  1.122214193483295 0.006043171953360012 0  1.121380798697073 0.007779531577406993 0  1.120223688532375 0.006233750107815447 0  1.119394052105413 0.00795966817075571 0  1.118240479379539 0.006383852128709474 0  1.117408661479018 0.00813148358539794 0  1.116286150540141 0.006509220494965235 0  1.11542833286731 0.008297810819822242 0  1.114286527956135 0.006672672386494197 0  1.113441312555346 0.008469514275445393 0  1.114584404495673 0.01009816165233682 0  1.1171795633284 0.004878253881752538 0  1.126248856327135 0.005479779498191315 0  1.112262917497234 0.006849522120607462 0  1.111419801893471 0.008640752482843494 0  1.111129409358444 0.005212004683638018 0  1.108080376571174 0.003590333080133519 0  1.11855473921848 0.009751015255377402 0  1.128487827580071 0.008873920061561447 0  1.127351639337222 0.007223240960475257 0  0.8879164806914296 0.09272706100833727 0  1.140657095192722 0.03741779557635494 0  0.8987470943117062 0.08711248353149206 0  1.120086236628483 0.0536930925051209 0  1.119030342522152 0.05199884245082548 0  1.117035597883684 0.05206587924380508 0  1.117974858198078 0.05030508950237465 0  1.115980657510224 0.05037740613850288 0  1.116919663780503 0.04861145033523786 0  1.115041102169133 0.05213363965630632 0  1.113986376379829 0.05044531911363581 0  1.118913779454213 0.04854443587486951 0  1.121025271662929 0.05193148522764463 0  1.113046156597683 0.05220081184635578 0  1.11199175619509 0.05051222162354232 0  1.112931187449217 0.04874527335731484 0  1.114605113104199 0.06772930792179201 0  0.673113346416859 0.039210681377429 0  0.9192233721212184 0.04137530099103221 0  0.9181723206550066 0.03967352386576599 0  0.9201129877287084 0.03958563993078559 0  0.921215833078926 0.04130113165063988 0  0.9221274826504008 0.03952496231642533 0  0.9241401486073766 0.03948241044071429 0  0.9229426291158683 0.03771117322496968 0  0.92521640150776 0.04117160910331574 0  0.926094770955043 0.03936219578413704 0  0.9271875626421557 0.04110749342750444 0  0.9281108317126998 0.0393099844597542 0  0.9302063555573118 0.03926701797974742 0  0.928800827473278 0.03739480923807317 0  0.9322478337668759 0.03834032953409639 0  0.9319115314646217 0.04038811713886653 0  0.9059139264203744 0.01638733244121948 0  1.129162252270384 0.02792739819669939 0  1.127166243868668 0.02809758393772352 0  1.126322940177823 0.02990633020664953 0  1.125176535746641 0.02827274271250639 0  0.3869129979306462 0.03733282906196746 0  0.3916954987624057 0.02861139704637188 0  0.4014258279627261 0.02801908596570841 0  0.3961839279302489 0.01957876409581496 0  0.405925885466436 0.01915614995743302 0  0.4113234138834297 0.0276038087467401 0  0.3859724257118553 0.02008800819315108 0  0.4067743142084974 0.03634941913244924 0  0.4166929666665709 0.03587822956231977 0  0.4212374794350242 0.0271356460828704 0  0.4266118781622788 0.03536938436004179 0  0.4311428679189567 0.02654459763189137 0  0.4263083204576504 0.01844464496514309 0  1.051681382807553 0.08874087606032421 0  0.6990266234499496 0.03835039732141993 0  0.698085648727212 0.0401124329186001 0  0.6970339084268909 0.03841329992017915 0  0.9974518779600789 0.03260342761674204 0  1.133195493801901 0.03970821517727035 0  0.7045308093837716 0.05375150666716189 0  0.8920413163230272 0.02976743006790962 0  0.6642919368391962 0.07420128607333878 0  0.6632403708280538 0.07258184833706093 0  0.7069889456802467 0.06753116228064429 0  0.7060477926139324 0.06929226474499049 0  0.6776439388872603 0.02002107155313491 0  0.6771017993440296 0.03907723228283169 0  0.6946635154549182 0.05754370142089802 0  0.9818946161260256 0.07043598255714645 0  1.713854676774783 0.03565217451529769 0  1.708560234695547 0.0273466803625396 0  1.698588531931611 0.02755957916117852 0  1.718521346600746 0.0270270431048944 0  1.70240478136346 0.01879480200645757 0  1.692452318372216 0.01904265705075504 0  1.688474210649815 0.02793928612845053 0  1.723801432665205 0.03533525513168342 0  1.728476882511141 0.026538210096761 0  1.72249315060126 0.01830415909616166 0  1.732193521084933 0.0180413951938076 0  1.738296623702006 0.02655356312785721 0  1.683903395184156 0.03668397198008197 0  1.678598322911326 0.02828588761930977 0  0.7308076723359236 0.09276112575596554 0  0.711694479066181 0.05871049577134681 0  1.559032425312047 0.03233474627065523 0  1.553770972893391 0.02431336854455159 0  1.543808562673277 0.02467738914636651 0  1.549494167449303 0.01712114940383946 0  1.563741692011372 0.02408361882933091 0  1.569000987316487 0.03200174606972798 0  1.539101898020438 0.03307744884243886 0  1.533836069101808 0.02478284845692186 0  1.529124684920309 0.03339996844349547 0  1.52386892617483 0.0252990324362845 0  1.513903714492904 0.02560933641166508 0  1.519541652222395 0.01772691193116224 0  1.509201950417125 0.03415353787170671 0  1.50393745789464 0.02596271546156222 0  1.499224690027351 0.034507158573272 0  1.493956677868023 0.02602512808466587 0  1.483997864683273 0.02649786202281428 0  1.489596042759976 0.01776119229880032 0  1.499585917552262 0.01775654375790803 0  1.479298900672752 0.03515256812620493 0  1.474032930623904 0.02687404629914196 0  0.9061705396237644 0.07643552636693668 0  0.909223755014234 0.07806543429579718 0  0.9112217528265504 0.07799925511197547 0  0.9122771003430323 0.07968993563082882 0  0.913219220303972 0.07793293308743128 0  0.9142746066101317 0.07963035086200342 0  0.9133329516265072 0.08139449323777082 0  0.9153300805470461 0.08132876396222088 0  0.9152175710290319 0.0778670526359718 0  0.9101657381486339 0.07630219735394976 0  1.117466178390321 0.09377874083751842 0  0.7204988861866483 0.08267774755783602 0  0.7056973693854808 0.08836644529162532 0  0.7130994212272781 0.07079510293781816 0  0.7141566343653657 0.07249232827166779 0  0.7161547417248475 0.07242559155642551 0  0.7152137237559059 0.07418966495911609 0  0.7172116545052971 0.07412283848515638 0  0.7162710791269382 0.07588778366483441 0  0.7182684186177113 0.07582004158351761 0  0.719210139374039 0.07405614694569287 0  0.7202680433349824 0.07575421679469974 0  0.7142740099164084 0.0759563319533996 0  0.7121573639787619 0.07255819333011326 0  1.014416830143036 0.02070518387741226 0  0.9173673132287377 0.03272918936162275 0  0.9182121336320332 0.03091874197197722 0  0.9202001714525874 0.03074426370852651 0  0.9213455957919297 0.03238220615296436 0  0.9221870295967243 0.03056941229092495 0  0.9241755350626817 0.03039482913053466 0  0.9230328160936333 0.02876036492761753 0  0.9253231169232059 0.03203705167377652 0  0.9261655271504052 0.03022206571442438 0  0.9281549119533645 0.0300465852946698 0  0.2246086389976685 0.08959720364832829 0  0.219618289493114 0.08095588685880696 0  0.2295957209392613 0.08095473791657902 0  0.2096418105969317 0.08095576893327114 0  0.2144698135852502 0.07223648163743718 0  0.2043632684876478 0.07235875581193943 0  0.1996066802795524 0.0810334072294715 0  0.2345888425437605 0.08959660995725963 0  0.2396374771220469 0.08071213189199618 0  0.2496348671918771 0.08069647625773436 0  0.2343667410896878 0.07185881568479457 0  0.2545634756972015 0.08954568927878612 0  0.2597253338981362 0.08061378294202479 0  0.2645652283272679 0.0895245580330076 0  0.2697240388040235 0.08056750641719926 0  0.2794949691029284 0.08093347371285693 0  0.276081515938973 0.07243856013436338 0  0.2843119320360614 0.07325032944632549 0  0.2906645586012016 0.0805090362605291 0  0.3009769574343207 0.0768349655330299 0  0.3039372113288358 0.0676794360173531 0  0.30976252146375 0.07593346129621438 0  0.2244765905544686 0.07221381352498356 0  0.2388040447635515 0.06275458187690257 0  0.2443067754930771 0.07180114223576457 0  0.2846947647329122 0.08951229242581252 0  0.2944826642522738 0.08956406590587017 0  0.1746971637292785 0.08959812753005592 0  0.1796877149977693 0.08110829277455806 0  0.1695396314318143 0.08122921354329993 0  0.1896615727120587 0.08106467974181993 0  0.1845061650619784 0.07270872658540274 0  0.1946541168111816 0.08961916399033229 0  0.1646868102668393 0.08964382305430324 0  0.1595263634583278 0.08110477716675554 0  0.1497125855259261 0.08125556873490224 0  0.1542563761667894 0.07339562660547767 0  0.144748172570514 0.08964636249114419 0  0.1394999499190989 0.0814351213727271 0  0.1347237861137072 0.08968528821677046 0  0.1294699575952482 0.08119654049448673 0  0.1197462588848122 0.08139577591445095 0  0.1241235178574737 0.07394070388646734 0  0.1147973575616628 0.08966929365691419 0  0.1094975264265856 0.08257785342221102 0  0.1048141762877846 0.08977780158229873 0  0.3843001300064112 0.08961776631363297 0  0.3889530922130326 0.0801266640138696 0  0.3788258972867742 0.08108141566496886 0  0.3742591675098704 0.0896226284270535 0  0.3692605815719995 0.08098241860562452 0  0.3593659073085691 0.08118655751394714 0  0.3642515750572713 0.07206866188370288 0  0.3743550040242985 0.07232040355874195 0  0.3543876652065692 0.0896346599177695 0  0.3493974505086593 0.08122535133848532 0  0.3444039968225429 0.08964827653972357 0  0.3394142982981174 0.08100830433236925 0  0.3294335182820118 0.08132941587134836 0  0.3343363683241575 0.0722175651733734 0  0.3457257128248215 0.07280394910316013 0  0.3244420606741724 0.08965849152557714 0  0.3184239942845452 0.08119490018491618 0  0.3142854121199066 0.09014521458269338 0  0.05425112682860854 0.08975790334427119 0  0.6397520057128698 0.08712333821713925 0  0.6406940372804244 0.08536000163186772 0  0.6426921680190749 0.08529433745789669 0  0.6416359888734788 0.0835965289416708 0  0.6436314722494115 0.08352846515016835 0  0.6396360175255161 0.08366111285822921 0  0.6446888123462748 0.08522821109297662 0  0.6456304089173243 0.08346651122871579 0  0.6466861641609905 0.08516165412845367 0  0.6476255825542332 0.08339572257433016 0  0.6485612585296957 0.0816330620745383 0  0.6496211345368227 0.08332545237124098 0  0.6486866577157335 0.08509065577697929 0  0.6506822104274961 0.08502409539036367 0  0.6517340527712765 0.08672237372313675 0  0.6526790019803727 0.08495990724537787 0  0.6477412668367721 0.08685722566310741 0  0.9498232509319811 0.0897819429613808 0  0.9112247690328915 0.04164100728279552 0  1.078684817135366 0.06891404255473527 0  0.9849426546952595 0.07205279262343059 0  1.128009354338468 0.02628777219014489 0  1.469321294430145 0.03550835502707997 0  1.464056056951582 0.02703293032239993 0  1.454095771302194 0.02743669688381344 0  1.459695086813969 0.01852299560973988 0  1.469683126593748 0.01844868006339774 0  1.44940905793506 0.03614428313009577 0  1.444132406077708 0.02779520407387538 0  1.136742582772154 0.01161002502846212 0  0.916405034531838 0.04665200586149446 0  0.915463989918389 0.04842608900999926 0  0.9134047118477246 0.0484913520726116 0  0.7091035737255159 0.07092737154431056 0  0.7197841038990039 0.09136131726624194 0  0.7188433869625348 0.09310165659991637 0  0.716847963181382 0.09315680114046421 0  0.7177238785123474 0.09482959056357718 0  0.9073613451493907 0.02145964676601553 0  1.123671297656664 0.0110304256417383 0  0.6437470088779125 0.08699144039713924 0  0.6514007141410372 0.06986944386496204 0  0.9653693423030283 0.05367308387051562 0  1.141060263557602 0.02691337343384491 0  1.1419514958823 0.02855870894901708 0  1.140249659177426 0.02868265340900476 0  0.9176981492553353 0.06218469924570323 0  0.9167570501402527 0.0639484550677373 0  0.9147589805550054 0.06401535284436227 0  0.9158159876101777 0.0657122451822619 0  0.9138179833884992 0.06577913742662841 0  0.9148749535487334 0.06747606235570569 0  0.912876751501747 0.06754308216456834 0  0.9118197008619149 0.0658460886421723 0  0.9108783411566816 0.06761014315754511 0  0.9098207979683048 0.06591301284680837 0  0.9088795712377955 0.06767719537026204 0  0.9168723593281596 0.06740945656620513 0  0.9187543543437304 0.06388196744295957 0  0.9139334636576379 0.06924134757417651 0  0.907821909330461 0.06597978355977624 0  0.9068797823699045 0.06774489892021369 0  0.9079377097208441 0.06944202441114508 0  0.7127511677974405 0.06040848434700213 0  0.7147498841022943 0.06034201082028257 0  0.7158071757816835 0.06203979792653437 0  0.7167487948265199 0.06027511267444034 0  1.047690522660081 0.08864897759342871 0  1.024699025625066 0.08983286330822843 0  0.8988842626783118 0.02772470314396781 0  0.9018008696896049 0.08874255315794552 0  0.6643245930360736 0.06455974127374846 0  0.9103106305017186 0.095185912417934 0  0.7439488708647857 0.09428281276545807 0  0.9178131711814075 0.06564576953733611 0  0.9198092484653577 0.06558253729903234 0  0.9973738060471516 0.04913303056776831 0  0.6756712782184381 0.08592005245918269 0  0.676624898054805 0.08415935401236378 0  0.6786160072535643 0.0841076614238538 0  0.9458314552682837 0.08968708167284267 0  0.6895067403980001 0.05253020398981404 0  0.6875122757685511 0.0525962147217402 0  0.6864572941894771 0.05090425621664497 0  1.110110602003255 0.05402708555345975 0  1.109055951221672 0.05233310282854287 0  1.107061015481788 0.05240011456043924 0  1.108000953959594 0.05063949691966924 0  1.106006577787287 0.05071209585934562 0  1.106945501685419 0.04894637011112979 0  1.105066976628108 0.05246777843340556 0  1.104012538312046 0.05077991827142215 0  1.108939361195681 0.04887960251177936 0  1.111050210077372 0.05226644810538536 0  1.103072568421659 0.05253484906082909 0  1.102018300929898 0.05084681306523021 0  1.102957610065621 0.04907976808097367 0  1.109996205418096 0.05057918038189464 0  1.117629016925283 0.08685941009980191 0  0.7074597032867841 0.08138144928315121 0  0.6588526453254472 0.025826871691539 0  1.054440981679734 0.02064190900174782 0  1.055281968490795 0.01883444866782895 0  1.05413727699961 0.01720233681967843 0  1.056123035012069 0.01702706868369417 0  1.057267883818338 0.01865917965143027 0  1.128916439448743 0.036605431122134 0  1.128060384147404 0.038341569778418 0  1.126927691393385 0.03677580331174642 0  1.126077552142825 0.03857998885648799 0  1.124179292449731 0.03871624909289344 0  1.125479305698918 0.04024553121504858 0  0.9196950557484471 0.0621186696410474 0  0.9159306788191184 0.0691754365966481 0  0.9179268216982309 0.06911065475771552 0  0.6365794451730091 0.08202954205382412 0  0.6376368543979178 0.08372709628182769 0  0.635637964203224 0.08379408978945412 0  1.104619053164298 0.06806156551853244 0  1.105547960884853 0.06629027952363678 0  1.10262424667707 0.06812808413309701 0  0.6739713380376317 0.03399168240378782 0  0.9209608397663605 0.01677602143056742 0  0.6813064466993608 0.04587609244242444 0  0.9162753767638008 0.07955528589385079 0  0.907793847024281 0.088541471673207 0  1.113472892721201 0.09368330061486388 0  1.119789461561084 0.07998139726166764 0  0.6802785432106104 0.06441965874314337 0  1.039160998428636 0.02892352403024685 0  0.726727740154494 0.08940125183547583 0  0.7165033725584516 0.08281078132880206 0  1.121803274310982 0.07276482718774532 0  1.118866999189394 0.07462472827055641 0  0.6635907736208251 0.05339618666284195 0  0.6940976699493455 0.04024562476071249 0  0.8985144714184123 0.08018970915727142 0  0.8965176068740892 0.08025536940573134 0  0.6775432284493121 0.05292912827606591 0  0.676488952338322 0.05123875521182897 0  0.9161595081386422 0.07610126295606115 0  0.6489099977850177 0.09201191514889887 0  0.6479506511221673 0.09376303901862895 0  0.6500004077711559 0.09365399974425699 0  0.6960680328093017 0.06961003848379826 0  0.9394746978632312 0.02211224856352121 0  0.6804767246968155 0.05110374467939689 0  0.683524489723027 0.05272872667890219 0  0.6839441078878832 0.03366140589041153 0  0.6736600199880869 0.02015151070115795 0  0.9753404821682233 0.0533402190152807 0  0.7065214894399716 0.0831430698976296 0  0.6816273718843912 0.01989094205552369 0  0.9322757981121541 0.008818838397360213 0  0.9311234590305945 0.00721186571919131 0  0.9331105114946414 0.007032880526483371 0  0.9319434928525079 0.0053416215122966 0  0.9300128279084505 0.005480519326038075 0  0.9339343642101465 0.005212646989402932 0  0.9350947153704168 0.006862138280558453 0  0.935912392230933 0.005068333081077998 0  0.7047615072091653 0.06068361679864328 0  0.7017074235739262 0.0590459834808776 0  0.7057023140276886 0.05891737859361648 0  0.9236898165412023 0.06198878422357695 0  0.9256863467752057 0.06192964484109398 0  1.113634813739152 0.08676421622343031 0  0.9382385327239687 0.04248226433224104 0  0.9390691936988608 0.04066981607977363 0  1.115793108291135 0.07988674212356377 0  0.7078151437650632 0.06231220816362303 0  1.003215781570635 0.007801438034564286 0  1.004060892484473 0.006041541626969566 0  0.6939488391465363 0.03331825552041583 0  0.6591310479965927 0.03967654794033311 0  1.109640305353266 0.08666806765542523 0  0.7125093349714829 0.08294400689379838 0  0.7135653194178817 0.08464011457451565 0  0.9323615048698508 0.02098934581274627 0  0.9343472409879527 0.02079834658547308 0  1.122968959785291 0.03713201763006228 0  1.122298305906916 0.03882389652672158 0  1.120335558320476 0.03897853702854656 0  1.119016618851701 0.03746769535226488 0  1.118240892908303 0.03970079187883296 0  0.6934957254129304 0.05239710540446717 0  1.109525303167227 0.09355346633540319 0  1.110558200645509 0.0951034443746735 0  1.098636644948422 0.06826586659977177 0  0.7360958551517719 0.006084645501578173 0  0.9125322837718178 0.05716184448258761 0  1.100138042502187 0.05436065368133897 0  1.09908347706952 0.052666938731191 0  1.097089042092336 0.05273376427906168 0  1.098028727000134 0.05097346687693383 0  1.096034714422476 0.05104609250344712 0  1.096973666476482 0.04928031239150067 0  1.095095178929764 0.0528013860840298 0  1.094040863888211 0.05111386725156201 0  1.098967407912894 0.04921365277679692 0  1.093101224386096 0.05286833026932397 0  1.092046868838356 0.05117487542572875 0  1.092986056969211 0.04941355910715072 0  1.091023211711098 0.04946900067861987 0  1.090058275465698 0.05123838868245554 0  1.089003090856819 0.04954940349668154 0  1.088061027158233 0.05130671292478726 0  1.087006172716643 0.04961963228423916 0  1.089985647284414 0.04777411431549985 0  1.086065936042872 0.05137419636788199 0  1.085011540572408 0.04968095565081582 0  1.085950510965762 0.04791993038571446 0  1.083956901589625 0.04798646076012738 0  1.083016680909219 0.04975287806359426 0  1.089114578346837 0.05299989344146836 0  1.101077463372627 0.05260035079705023 0  1.100023447828402 0.05091356389782149 0  0.9382257332118877 0.008319844359168915 0  0.9402114689702536 0.008145064712194353 0  0.9389970550957534 0.006566427530553724 0  0.9409652308271764 0.006424109849817771 0  0.942182506936145 0.007984567553172346 0  0.9429478785801171 0.006284538862910701 0  0.9441657595242351 0.007817936781671237 0  0.9449358620719439 0.006144180365213887 0  0.9370338253146202 0.006720547363834851 0  1.119970711486336 0.05024441055694646 0  0.9418395884049502 0.0895922808962792 0  0.9542958663954204 0.03121060508110868 0  0.9551378423373834 0.02940269577284479 0  0.9249716036570892 0.07061044135597613 0  0.9553968530795074 0.05400592270888521 0  1.107805284116833 0.07970212326477595 0  0.6577149325110888 0.08652726662994296 0  0.6566602586396058 0.08483424846062813 0  0.6586548784221522 0.08476788976661094 0  0.6606495045233773 0.0847016911223101 0  0.6595905928460828 0.08300066294122445 0  0.6615843627204869 0.08293297324638235 0  0.6626437408300722 0.08463442147572479 0  0.663578758583246 0.082865990670316 0  0.6575955060155469 0.08306596645595665 0  0.6556019853607636 0.08313625283405585 0  0.7054659835314789 0.08144763387065714 0  0.9582700860198529 0.03086072905795077 0  0.959112183890647 0.02905236123719582 0  0.9522194541922935 0.04200016673453772 0  0.9511645137131512 0.04030655501781083 0  0.9531592853961426 0.04024005881190598 0  0.9491706931087536 0.04039803055077952 0  0.9501094685544951 0.03861275057912084 0  0.9482301684172759 0.04213796984967916 0  0.947175899686033 0.04046941323402563 0  0.9461962521625897 0.042186471494895 0  0.9452765311527369 0.04047698010920688 0  0.9463205072146172 0.03874353591181484 0  0.6763498778788244 0.07136764695357971 0  0.6743814095856295 0.0713702700447395 0  1.439446232682882 0.0364938935839361 0  1.434164563401247 0.02804452672480056 0  1.424296433585059 0.02842235309261665 0  1.429685144286162 0.01944155554502945 0  1.439502099310724 0.01918409735192696 0  0.9564013759317573 0.01018507539734553 0  0.9552569891008048 0.008552950975087403 0  0.9532713614898196 0.008727895932085887 0  0.9541138932019334 0.006934944879602113 0  0.9521285695929924 0.007112193160975271 0  0.9561025467009407 0.006793693006853493 0  0.951286016035895 0.008905534760252241 0  0.9501419082250729 0.007273855631849563 0  0.9511268199541334 0.005126870986601606 0  0.9489974863845398 0.005638626427862553 0  0.9481562178337259 0.007446010277301266 0  0.9552495297384308 0.005194409603059427 0  0.9496891250515657 0.003792319702079524 0  0.9469786588819614 0.005587842610245872 0  0.9461707251143188 0.007620304847407288 0  0.9572434302197192 0.008385966377829714 0  0.9592284862042285 0.008204363344637977 0  0.9580888143052572 0.006625915616889752 0  0.9600771441587876 0.006482663260873924 0  0.9588269819140119 0.004765113233029309 0  0.9612153479293828 0.008042761545608857 0  0.9620593903380454 0.006269873248741939 0  1.10635572324934 0.06106832180420463 0  1.66396341581149 0.03734708857132872 0  1.114634809045904 0.02225078498552426 0  1.112644814195824 0.02242221476518094 0  0.939542811978302 0.03424425325590854 0  1.151692780723911 0.03878057689657359 0  0.6763606155628823 0.07728613038946923 0  0.7068269302104295 0.09342126167720988 0  0.9582029858538089 0.04180071942292651 0  0.9570782635321301 0.04015042104459957 0  0.9551421036559011 0.04018084969264504 0  0.9560931498710842 0.03841328963525458 0  0.958059934103473 0.03869182692841733 0  1.094643332805263 0.06839579258611345 0  0.9776731116900801 0.06366051858141736 0  0.9786147080808152 0.06189153698792309 0  0.9005054974768913 0.08012781524478663 0  1.123914589417123 0.07647436759569094 0  1.117793927465923 0.0728643181396334 0  0.9643443956836014 0.009485248934663416 0  0.9651857534267712 0.007678254751364529 0  0.9671712873398085 0.007503291459752204 0  0.9660270097730301 0.00587130358360106 0  0.9679431567286155 0.005556657920316815 0  0.969182289771205 0.007275616653197856 0  0.9699640814028611 0.00534691593175387 0  0.9706921137397901 0.003506655442113618 0  0.9718579856520192 0.005037242096002899 0  0.9711603355127219 0.006971554742606787 0  0.9732786685020862 0.006504051197938393 0  0.9743698512961394 0.008370281271893662 0  0.9764123245578664 0.008451068259597527 0  0.9754643064830577 0.006692727456233066 0  0.9773800025918609 0.006812123198762345 0  0.9783987272868304 0.008430712629353427 0  0.9791187651404414 0.0067750642765813 0  0.9763973128846997 0.004922368972876187 0  0.9640463705013733 0.006101313713840466 0  0.679098795415782 0.03900898599414202 0  0.6801484518230902 0.04070977799979775 0  1.124030431948202 0.0266386862072065 0  1.123187999075254 0.0284466460679639 0  1.121199575242164 0.02862004479012581 0  1.122343090275988 0.03025548480671396 0  1.120357628545428 0.03042889282580549 0  1.124334107142972 0.03008121807616663 0  1.108611736139016 0.06792705797761542 0  1.166935723802293 0.0469146317463754 0  1.167992714711222 0.04861226220190573 0  1.165994004571253 0.04867910605581128 0  1.167051081794707 0.05037672339410871 0  1.169991608320338 0.04854550443385658 0  1.165052096118903 0.05044169580665715 0  1.166109350239416 0.05214112699997905 0  1.168108235607423 0.05207436323682144 0  1.163994824951523 0.04874572059737003 0  1.163053145201368 0.05050813705410256 0  1.161990670340646 0.04881516440897168 0  1.161025623586309 0.05058667812591464 0  1.162102629662103 0.05227702618769443 0  0.9233127103200837 0.08091788439049562 0  0.922398481394523 0.04644986775143267 0  0.9214580164244344 0.04822340787639917 0  0.9193997333984429 0.04829204220149692 0  1.102365067140714 0.06120193425701351 0  0.6924408160467925 0.05070275295102536 0  0.9672742352295747 0.01965097104571625 0  0.9644451899691472 0.02163135082884472 0  0.6613433323475099 0.07600764527703117 0  0.6622883571748918 0.07426643678022563 0  0.6612283694351687 0.07255356114748333 0  0.6623073397195844 0.07108160835437188 0  0.6602885447277668 0.07431335706260263 0  0.6594137035634591 0.07611714691941575 0  0.6795368834233202 0.05286159142308679 0  0.8982575285130806 0.02052583317690753 0  0.8962667097066521 0.02070149565364586 0  0.8951206755579656 0.01906521381373905 0  0.8931284680838154 0.01923925826673759 0  0.8939726030592594 0.01742654247206263 0  0.8959638390868203 0.01725243419249869 0  0.8971121459017523 0.01889216299876839 0  0.9283891002200957 0.04624876129852235 0  0.9274491217629705 0.0480211390405476 0  0.9254525085982716 0.04808811482591595 0  0.950321188772111 0.0315602362392287 0  0.9511632000690319 0.02975306329645162 0  0.9483337242905474 0.03173617128231185 0  0.9471879912305324 0.0301033600200438 0  0.9793287542278806 0.05320750270866637 0  0.9099361752445525 0.06937501251797962 0  1.11179909958628 0.07979479773293389 0  0.665692207090149 0.08625736179564843 0  0.6646372716796876 0.08456615814142829 0  0.6655761135507101 0.08280359506401928 0  0.7014741819385799 0.08159469349695481 0  0.6994698841078641 0.08165715835196403 0  1.455598283246592 0.08959652698542628 0  1.460589300885569 0.08095346367455659 0  1.470568690237114 0.08095263390633306 0  1.450609885087448 0.0809522961789633 0  1.465578986066206 0.07288653210561846 0  1.475198948136191 0.0726135339153433 0  1.480487682658631 0.0810019299975219 0  1.485117942160653 0.07131081958040014 0  1.470141650366056 0.06396936369311843 0  1.490451630052189 0.08079320269570626 0  1.49544236761931 0.07260107992222781 0  1.455600882640265 0.07231102344803252 0  1.4456225623242 0.0723102202526288 0  1.440631138720036 0.08095026496566744 0  1.435645581813051 0.07230767879470598 0  1.430653359645404 0.08099222308198334 0  1.42565675563515 0.08959435568634161 0  1.420662584513014 0.08099611242270498 0  1.415664803472993 0.08962035077700299 0  1.409606469583471 0.07973959301244571 0  1.416330676911688 0.07204023130705671 0  1.445617710527911 0.08959579378367757 0  1.394736067503939 0.08850970474864468 0  1.515494397421018 0.08959682578917266 0  1.520485256052412 0.08095336685491664 0  1.530464872181263 0.0809526310859294 0  1.525474975123237 0.07270691208794407 0  1.510505419082483 0.08095257863668812 0  1.535190429693672 0.07252826106567326 0  1.540400018484897 0.08098780256241091 0  1.545117800366105 0.07281208465056484 0  1.529829425632008 0.06528656045711255 0  1.550366729167133 0.08104148714714263 0  1.555351381824151 0.07271463700283257 0  1.515179040681702 0.07295400059456544 0  1.505129336392745 0.07264700012053719 0  1.50042806331294 0.08103052898292146 0  1.500517273147172 0.06366821176909396 0  1.505496109828346 0.08960975392950521 0  1.565406503085319 0.08959652753281577 0  1.560389073997971 0.08103356681177745 0  1.565174914581663 0.0725049904251711 0  1.559870677993297 0.06493130068540434 0  1.570198313722381 0.08108536210440843 0  1.575094114355429 0.07307949557628544 0  1.575167478003138 0.08975987432503993 0  1.635285176711403 0.08959774763211106 0  1.640272881644252 0.08100520143326144 0  1.630271629485565 0.08121687279795931 0  1.650187677036223 0.08082740637750432 0  1.645201915711575 0.07233347071050512 0  1.625361321444343 0.08978303570418011 0  0.6823381437496829 0.0713181325690341 0  0.9069945934638154 0.071208153486979 0  0.9884348349277287 0.05461880082339502 0  0.9883854029435564 0.05116487499043534 0  0.9863305894584264 0.05122400324810612 0  0.9862740800598166 0.04777614069609387 0  0.9842388157630367 0.04780189783516122 0  0.6803414451187222 0.07133112409087758 0  0.9269683941940148 0.07054581097989093 0  1.090656220329176 0.06853328600684358 0  1.091582975375878 0.06675790268633375 0  1.088642380489183 0.06861094887172121 0  1.085587114004583 0.06698100195408249 0  0.6424470540586846 0.09651269958053181 0  0.6983484274955379 0.09651359793085132 0  0.6995168375525345 0.09486217449609646 0  0.670398469278104 0.09651272326540505 0  0.6694002614114664 0.09479865832097224 0  0.6674037722960846 0.09481285807480556 0  0.6682477136077085 0.09308949292660375 0  0.6664054545977277 0.0965175560203928 0  0.6654072429715294 0.09481604984450372 0  0.6634107045069539 0.09482754400852031 0  0.6642550541028513 0.09314069841598722 0  0.6624123916460714 0.09651999751236179 0  0.6614141721956781 0.09483070326353955 0  0.6594176337799091 0.09484185176201296 0  0.6602623526624731 0.09319152847445179 0  0.6584193211821825 0.09652238252890435 0  0.6574211014437418 0.09484534913045009 0  0.6554246549722389 0.09485593318131119 0  0.6562422241535388 0.09328255590316467 0  0.6713966623326698 0.09480112687595249 0  0.6733930437696829 0.0947897488964147 0  0.6723948026959076 0.09305488205637734 0  0.6743913699500772 0.09651361928339225 0  0.6753894408078792 0.09478789478995367 0  0.6763878529772711 0.09651346943180239 0  0.6773859242473785 0.09478435258698995 0  0.6793823706988082 0.0947835534253704 0  0.6783442134701573 0.09307764802809515 0  0.6802524531685779 0.09302958988118817 0  0.6813574563434148 0.09477915533727568 0  0.6823048220193331 0.09301979282986939 0  0.6828776230149178 0.09109092549408769 0  0.6833334042018208 0.09479149394690678 0  0.6841204916962226 0.09284815390675552 0  0.6763348346583103 0.09304925429066271 0  0.6771994013876447 0.09129566924624725 0  0.6803773101839141 0.09651180685893458 0  0.6843708316140606 0.09650491233135015 0  0.6544263632742658 0.09652468886679699 0  0.6533391565309558 0.09501963243086382 0  0.610502523288409 0.0965126104606375 0  0.6115006162217114 0.09478245397630326 0  0.6135710887928828 0.09482379936089072 0  0.6126985763211008 0.09308675235541854 0  0.6106605683874494 0.09310850866585652 0  0.638434959503576 0.09667120251110652 0  0.6943139493690147 0.09652109275678186 0  0.6955257686081057 0.09487691274502938 0  0.697585754895243 0.09489442005671045 0  0.6145043260359608 0.09653724548519113 0  1.099136615131922 0.006372751289620603 0  1.098009050379766 0.004623816984866222 0  1.095762992103915 0.004922330032195309 0  1.095121670995501 0.006685682494773509 0  1.113739582124529 0.01190694608830818 0  1.07882535060792 0.0807457775016846 0  1.077868721917246 0.07899393297066219 0  1.078906478973102 0.07733391530745225 0  1.076910376780015 0.07731486386069522 0  1.075873039675165 0.0789586011157298 0  1.074914836902537 0.07727418054898477 0  1.073877593430134 0.07891428381026568 0  1.074834437495045 0.08065250158429239 0  1.072918936301261 0.07724968211637229 0  1.071882146064271 0.07887117040595965 0  1.070923494368976 0.07720679107658759 0  1.06988678696178 0.0788251996036735 0  1.068927639014568 0.07718205891502336 0  1.06789138454416 0.07878177023399303 0  1.066921641859096 0.07711752248876497 0  1.065894293678868 0.07873214048788782 0  1.064940133712875 0.07695750829847393 0  1.063901011394174 0.07866555015254517 0  1.062919878495423 0.07684507966098469 0  1.061901912943777 0.07860407994865103 0  1.077914266045953 0.07550847594133119 0  1.060920782613964 0.07680620162450269 0  1.059905378643592 0.07855570531591843 0  1.058931543006609 0.07677633536036152 0  1.057910919638992 0.07851103290001138 0  1.056952619686624 0.07676388410466284 0  1.055918531203865 0.07846986205236978 0  1.073908296876812 0.07552156509659597 0  1.069966068575592 0.07543908401707368 0  1.06623346107711 0.07500445709812856 0  1.061894105101349 0.07492634771563915 0  1.05495440102322 0.07672353931000013 0  1.053925480994892 0.07842706550719854 0  1.055949786457688 0.07499688407950433 0  1.056875006879747 0.08022206477327376 0  1.060867420226918 0.08031854324434994 0  1.064856965183661 0.08041809690047362 0  1.068848390289796 0.08051043134043559 0  0.9741525110392444 0.04133894724250106 0  1.106636852075376 0.010800269139829 0  0.9252016289777061 0.07751406521110282 0  0.9262508436270968 0.07913249240669809 0  1.107537553987707 0.093457927056353 0  0.6952453576483935 0.07483941450704071 0  0.6933367627363169 0.07495257645069162 0  0.6923161620467203 0.07665994920723798 0  0.6912941003002244 0.07472858150268137 0  1.003107618208955 0.0286373292324076 0  0.9022373816879031 0.02017649280452325 0  1.109513572124546 0.02096871425418617 0  1.028690387462986 0.08992883783778924 0  0.9833595197243007 0.009542510305137093 0  0.9842009180313784 0.007735622215427289 0  0.9861864149362832 0.007560624154458032 0  0.9850744334969017 0.005943757478729427 0  0.9830361864877317 0.006282155683886526 0  0.9871125447048943 0.005351276062584706 0  0.988171625334184 0.007385428432889736 0  0.9856508321146974 0.003979572385611234 0  0.9891641165371904 0.005667453641566927 0  0.9906257592875928 0.003799455507724915 0  0.9910947772788883 0.005908169464591988 0  0.9923619546238096 0.004637035062550018 0  0.9928873133481299 0.006560210313014412 0  0.6460644309664626 0.09376919529964844 0  0.6471353683412294 0.09532726011964072 0  0.955022597426647 0.01723943086468551 0  0.7022922405283207 0.07635198350108524 0  1.110344512470865 0.06093507047693131 0  1.004493797379089 0.02158449689331116 0  0.6843340691335518 0.07130078911628249 0  1.077148626565448 0.05339996790085683 0  1.076094033161312 0.05170658814139602 0  1.074100237346946 0.05177310692869633 0  1.075039496646762 0.05001327243594812 0  1.073046018089654 0.05008606065902975 0  1.077033593743212 0.04995286752331424 0  1.07398503446847 0.04831998566284516 0  1.072106583597456 0.05184063459154324 0  1.071052392176113 0.05015376934042649 0  1.070112717344272 0.05190759447066351 0  1.069058580576329 0.05022061806609835 0  1.070051616858695 0.04845173101012908 0  0.8925852747156892 0.02450303475112551 0  0.9681669366935011 0.04150378752367996 0  0.9670367264956883 0.04000302287049683 0  0.9690661613381564 0.03988686424595093 0  0.6934505651327604 0.09485016070896984 0  1.10759892981137 0.03328649729656402 0  1.108440953343842 0.03147910194354281 0  1.110429851806379 0.03130895182421917 0  1.109283029561938 0.02967205900300878 0  1.111273409110471 0.02950168711880775 0  1.112418918949509 0.03113556278884972 0  1.11326243502298 0.02932929877292961 0  1.114099547026197 0.02751680004057587 0  1.11524774305335 0.02914969332478826 0  0.7367230872665702 0.08906838070080932 0  0.7157929814735258 0.0914887128175525 0  0.714850648940357 0.09321512475769235 0  0.7128512548651652 0.09325941188359309 0  0.7137253575021917 0.09490510264413549 0  0.660330889269408 0.06460181930021489 0  0.1526940717057619 0.04043903174017157 0  0.9781439358061881 0.04113729065118812 0  0.9790477047009537 0.03937888566905449 0  0.9810478388158181 0.03929628409073081 0  0.9770435044155118 0.03951391551829379 0  0.9821243650615542 0.04099819916451875 0  0.9829823113568681 0.03921187307369566 0  0.9840536512763022 0.04093780666172642 0  1.090344383356145 0.008775722465152042 0  1.089201124329214 0.007157083689821188 0  1.087266181420506 0.007342510570778569 0  1.088055214360547 0.005508673108938713 0  1.085940559676287 0.005835719561960644 0  1.084209036440339 0.004614137869746906 0  1.084137184910874 0.006484525389266273 0  1.082555267577731 0.005436128743088684 0  1.082398229627398 0.007287476550425647 0  1.080824164680562 0.00634097322886845 0  1.080702820430747 0.008154961094479088 0  1.079009204290047 0.007145865096532728 0  1.088143072521076 0.003517501932281774 0  1.098375707530578 0.06133527905998013 0  0.7122888190816135 0.04655916783141437 0  0.9701180391263002 0.04146811241214154 0  1.067179125728476 0.05373276263668465 0  1.066124714266371 0.05203934100753897 0  1.064130818816335 0.05210592864394162 0  1.065070238580593 0.05034600720463257 0  1.063076617642262 0.05041908176053884 0  1.064015596788556 0.04865283071927113 0  1.06213714818382 0.05217349831350244 0  1.061082964461323 0.05048684067251098 0  1.066009197184492 0.04858631944206396 0  1.060143286772201 0.05224046683974529 0  1.059089153519575 0.05055369616071877 0  1.060093843291416 0.04878493138959394 0  1.068118840922724 0.05197424369027274 0  1.067064510292814 0.05028733870032918 0  1.140565435603293 0.08913909182144246 0  1.141609575997705 0.08743072345849678 0  1.143608738747296 0.0874794350791735 0  1.006345264177313 0.00924925168112274 0  1.007186305549066 0.007442364524696002 0  1.009171717540104 0.007267330426170062 0  1.008027409197213 0.005635465077447157 0  1.010012739796455 0.005460408200493807 0  1.011157056913117 0.007092225583418034 0  1.011998048200405 0.005285318334412088 0  1.013142346769319 0.006917098336817371 0  1.013847330997972 0.005144217526464622 0  1.015109037162301 0.006792136496657407 0  1.006042075033888 0.005810515588792643 0  1.008429910170938 0.00367444900313265 0  1.014284035886141 0.008557437325522653 0  1.074695967047546 0.06904958662460001 0  1.01741808592999 0.0100061704878202 0  1.018258406255106 0.008198978384901787 0  1.020243897669733 0.008023939925935489 0  1.019099316607788 0.006391981226544261 0  1.02100934276083 0.006269885728912137 0  1.019782748475415 0.00467994360092208 0  1.017828850535745 0.004881028308413434 0  1.022216799646021 0.007857661043098908 0  1.022960338868671 0.005688586493200227 0  1.016269159401824 0.008383765185768166 0  0.9632004646136063 0.007858318263768324 0  1.057209722062236 0.0540655820334047 0  1.056155307143047 0.05237215393874498 0  1.054161418057029 0.05243873174678837 0  1.055100835643028 0.05067880943160858 0  1.053107223257136 0.05075207660997975 0  1.054046208352751 0.04898561285320413 0  1.052167741957029 0.05250633083788606 0  1.051113562264911 0.05081986988688126 0  1.056039821697454 0.0489191073815079 0  1.050173860364877 0.05257331842231151 0  1.049152123229056 0.05085237500436117 0  1.050113708487937 0.04909970646228914 0  1.058149417982861 0.05230711763950178 0  1.057095102164568 0.05062040579003307 0  1.076445183767532 0.01002496914913795 0  1.075300897256658 0.008371007260308507 0  1.077407370427591 0.008182951901928033 0  1.076137204930423 0.006684647676478899 0  1.074160185382134 0.006807905484550068 0  1.073316226813432 0.008557520322269412 0  1.083130914074919 0.05320003888264591 0  1.081136560897289 0.05326675922659322 0  1.080081860400514 0.05157340035404281 0  1.082075895405025 0.05150681910152929 0  1.081021869796723 0.04982058431163428 0  1.07902765578241 0.04988849450158429 0  1.080020136521756 0.04811860166948154 0  1.078088041645296 0.05164086232661761 0  1.025359531166685 0.009305705322867272 0  1.026200536658191 0.007498706276022964 0  1.028185989248315 0.00732364476643719 0  1.027041666769935 0.005691805724891677 0  1.029108631363303 0.005464428017881965 0  1.025088521241397 0.005822014798530611 0  1.024306934560896 0.003816433168917019 0  1.030185362348235 0.007141810456393295 0  1.024200022084867 0.007608922692967189 0  1.054301321523243 0.00849040730740494 0  1.055142338203709 0.006684137193700193 0  1.053848465761805 0.005081205184820662 0  1.05577435685732 0.004968706557547008 0  1.057099058100447 0.006590077636167388 0  1.064724039532362 0.06939466370005057 0  0.6524003176049122 0.09666334281284324 0  1.063387694664415 0.009417551913968921 0  1.0622432763026 0.007785701537451921 0  1.060257834331229 0.007960802056471355 0  1.061098922025147 0.006153883005621088 0  1.063094740729001 0.006097352960616033 0  1.061939911985578 0.004346997844598149 0  1.059815839077335 0.004688840572541047 0  1.064230450751731 0.007630316938872003 0  1.065134040708453 0.005911133522791719 0  1.066225175256671 0.00745659519437984 0  1.067111627418488 0.005602898995715297 0  1.069131765759787 0.005402135195464123 0  1.065808560867189 0.00382119053339166 0  1.067360534000692 0.009070795068017142 0  1.0472405095502 0.05440555292628606 0  1.048201956224663 0.05262852330964905 0  1.049396759774458 0.03148975782581256 0  1.048251526916704 0.02985533008825018 0  1.04626535855112 0.03003023421201542 0  1.047105781376228 0.02822240178445836 0  1.045119611492249 0.02839746527066391 0  1.044278756976548 0.03020544713463161 0  1.050237403465363 0.02968077887601429 0  0.9843857540901705 0.0320190902839691 0  0.9852276120105494 0.03021327159008162 0  0.9872145648249904 0.0300380575477362 0  0.9860708439179779 0.0284054610166836 0  0.9883593248026351 0.03167075161695396 0  0.9892012690108656 0.02986299518478206 0  0.9911879752176519 0.02968790578146949 0  0.9900436421733425 0.02805515251162506 0  0.9923333784793045 0.03132078543468706 0  1.053370189849066 0.03114345825572045 0  1.054210846199255 0.02932871638631656 0  1.056197081031162 0.02915336720312989 0  1.057341865247847 0.03078410108326343 0  1.059328462082471 0.03061051596654759 0  1.060169889221584 0.02880273830903613 0  1.062154918029852 0.02862783720921428 0  1.063306340482802 0.03026695187928604 0  1.107643391173142 0.08662023089950788 0  1.106605956411475 0.08832813066064824 0  1.048035472477886 0.0422493506102174 0  1.047007503696179 0.04052000234917395 0  1.048976406159891 0.04047305875901633 0  1.050965154742858 0.04040979946826607 0  1.04792033603095 0.03872805604948584 0  1.052019340082913 0.042114321438906 0  1.05296415886143 0.04035093900569884 0  1.051906954712154 0.03859597674875603 0  1.053921811455758 0.03851660271391261 0  1.055098680061832 0.036408055163378 0  1.055849032917586 0.03851841795300988 0  1.057023574376612 0.03701585499301489 0  1.058705384062369 0.03790513702076763 0  1.060443535977456 0.03705735772741978 0  1.060255583403549 0.03900248099202668 0  1.062050019737172 0.03813119277328534 0  1.058535994332902 0.03982684613465508 0  1.062026684864038 0.03617740578790805 0  1.063861242998207 0.03710104731959659 0  1.063524927319006 0.03912189160902815 0  1.060090305544962 0.04083313614358312 0  1.050812966766122 0.03676221790593641 0  1.049902537656538 0.03863937427277556 0  1.046830295338439 0.03699797630490025 0  1.065981719434443 0.03692625640644273 0  1.054914379225864 0.04030318258563942 0  1.054012646894471 0.04205045330723105 0  1.037276665088348 0.05473943610965957 0  1.038278463581162 0.05297561553452407 0  1.039279202198055 0.05120972292779703 0  0.679328460092505 0.06961245793590101 0  1.052522845555318 0.06286647933283956 0  1.053458809256113 0.06110568904705471 0  1.069961806339225 0.0415741963098407 0  1.070715919194817 0.03964007488016568 0  1.066482414974745 0.06239985511282005 0  1.067422486612878 0.06063907156445426 0  1.069414088087773 0.06057213881804153 0  1.056511365481009 0.06273289085218375 0  1.057451327317534 0.06097219094012845 0  1.05944325983043 0.06090528487864296 0  1.04853431267945 0.06299941932738215 0  1.049470586198214 0.06123886962250449 0  1.12084985083566 0.04160246237949985 0  1.153795883932514 0.04216512661846228 0  0.970313894280824 0.008919701501976466 0  1.054752751150521 0.06972768619167646 0  1.038563465087158 0.06333246113388527 0  1.039503271144689 0.06157169078868262 0  1.04149625716588 0.06150488815685516 0  1.0425516786491 0.06319891625326825 0  1.044545919385253 0.06313258774333402 0  1.045482397680628 0.06137206021550335 0  0.9414619189328887 0.02193724487668823 0  1.034575338366079 0.06346518254481366 0  1.035511790673792 0.06170507643879591 0  1.030586848599478 0.06359839778821134 0  1.031523775894058 0.06183824470479586 0  1.026598053656085 0.06373204459817114 0  1.027535288168767 0.06197151891172981 0  1.113813253591301 0.07294895652175504 0  0.948561690472751 0.02303543290405455 0  1.022609741348142 0.0638649925918837 0  1.023547058510564 0.0621046258893348 0  0.6735565309995249 0.05305959453864423 0  0.9604389801609869 0.055566056026329 0  1.045858053991808 0.08169146245878002 0  1.046896860535768 0.07998714395533923 0  1.048892213919377 0.0800345756321305 0  1.047942643739886 0.07833414425856403 0  1.049939483288639 0.07837119377975006 0  1.045911768236329 0.07829239802812672 0  1.050889075382192 0.08008882876442812 0  1.051936414563171 0.07839955685642043 0  1.044896734636844 0.07994918362885352 0  1.042905357236149 0.07989373262328645 0  1.043906193159549 0.0782173430441363 0  1.041944821563775 0.07820505581980372 0  1.040909877400187 0.0798555655273647 0  1.039955680728484 0.07814385218223158 0  1.042895399073763 0.07666784817370539 0  1.038915556344782 0.07980726519951627 0  1.037961119159481 0.07810190501878533 0  1.036920481057934 0.07976060337396354 0  1.035902564686154 0.07812140093738633 0  1.034914688533687 0.07972418111099146 0  1.033892557816334 0.07800916779477421 0  1.032915309219275 0.07966745034350237 0  1.031956123222359 0.07802384798910772 0  1.030929213615483 0.07962868044763205 0  1.032953804272623 0.07622745383254949 0  1.029976978633317 0.07791913959329924 0  1.02893817169505 0.07957298021744605 0  1.027945800263738 0.07775724393649813 0  1.026943999909456 0.0795107233311725 0  1.027899798473187 0.08126531283724694 0  1.025904536062851 0.08121589259540429 0  1.024948348281933 0.07947397867525782 0  1.023909002006218 0.0811699632927278 0  1.022953100187993 0.07941779096603739 0  1.023992347883409 0.07771118539149291 0  1.021997085770429 0.07766348039385688 0  1.0209568877106 0.07940976303391105 0  1.031889027744373 0.08136116433471638 0  1.039871826821055 0.08154963415886314 0  1.028855995577961 0.083015786358446 0  1.053840412482905 0.08188102926190122 0  1.052886245855972 0.08013433997726092 0  0.6713190233122937 0.07251922639730934 0  1.075978707688428 0.04825345557210355 0  1.024865051613832 0.08292087894550709 0  1.021913411161277 0.08112761842616968 0  1.019918015551852 0.0810796699692319 0  1.018961510246656 0.07936923094976053 0  1.017922397789175 0.08103373797343053 0  1.016966977696571 0.07928119185480216 0  1.018328274695986 0.07766404345392937 0  1.01601207111561 0.07751797659418508 0  1.014969920560443 0.07929739057525398 0  1.018878422662279 0.08277853802330562 0  1.015926553468027 0.08099158533409152 0  1.013931145744559 0.08094143282593966 0  1.012974650775758 0.07926033709138551 0  1.011935815959268 0.08089261616704312 0  1.010978869229842 0.07923420743796018 0  1.012017305721202 0.0774616207541837 0  1.009940408760801 0.08084668362070335 0  1.008983512096972 0.07918827732363204 0  1.007862416461446 0.08073760216070563 0  1.0069416218253 0.07884625674911003 0  1.008383908165595 0.07747471571676758 0  1.004908592909709 0.07839438248425724 0  1.005495520110158 0.08044000139224311 0  1.003515273220907 0.07983958952956051 0  1.006815947747038 0.08243250951332823 0  1.010896254398554 0.0825838273948438 0  1.014886959388337 0.08268211734075132 0  1.032812990701672 0.07046709538329479 0  1.000672204427893 0.06459805540257135 0  1.001611026736035 0.0628371910228637 0  1.003605816709944 0.06277044636832714 0  1.004660831519737 0.06446458279742043 0  1.006655278197372 0.064397721905293 0  1.007594874069446 0.06263727774249001 0  1.009588803911686 0.06257064311376923 0  1.010643810092367 0.06426497708554565 0  1.012638168942299 0.06419844767478602 0  1.013576427408615 0.06243754410110611 0  1.015571594426234 0.06237083507279375 0  1.016626671930074 0.0640649115402103 0  1.018621191536938 0.06399800195810064 0  1.019558792343574 0.06223780233492341 0  0.9121633383303728 0.07623530828016298 0  0.9931911634289583 0.008453114759050813 0  0.9952729931733284 0.008492510897400855 0  1.028824153316155 0.07059989416340609 0  1.031757716076253 0.06876232879270085 0  0.9966834390810699 0.06473089112109701 0  0.9976223916613884 0.06297038346539237 0  1.076453378948882 0.06206672993303831 0  1.024834648073997 0.07072538155582959 0  1.021783572867337 0.06909960405619023 0  1.02083616038705 0.07086062037692639 0  1.035751730915655 0.0686239522011866 0  1.036812245197751 0.07031911360159293 0  1.120055250966673 0.02698568695707231 0  0.9540989595369631 0.03847997676614852 0  0.9521636488528946 0.03852243922765437 0  0.6553914798041837 0.0698341799384265 0  1.048395598867079 0.009035860730491304 0  0.981495243108915 0.02187633099269982 0  0.970411517345714 0.05523356111714718 0  0.9376638399460724 0.06151848635674639 0  1.110886441580702 0.0418735167092857 0  1.109858415725083 0.04015890547962211 0  1.111853704246196 0.04009083636766746 0  1.113867495208267 0.03999486895444368 0  0.9822297101991808 0.008064932503715197 0  0.9681969307920216 0.02998306731847028 0  1.065287442578088 0.03008454041627711 0  0.9892501408686978 0.009063878826649985 0  1.137238735649068 0.0583111231366059 0  0.9971009653478853 0.04233560968631145 0  0.99911700578999 0.04220047275757799 0  1.000223775796396 0.04053533541572944 0  0.9981358756337121 0.04048576263165657 0  1.014861975076058 0.07105540979558313 0  1.01181209112884 0.06943240023436445 0  1.010860345428621 0.07118903411118525 0  1.01930157937085 0.03067354115497488 0  1.018156841616578 0.02904328488062158 0  1.016169935137003 0.0292180513573379 0  1.01532873489996 0.03102528902654252 0  1.01334228135544 0.03120126536119988 0  1.021287521875308 0.03049548313908222 0  0.9874541594812541 0.02135091367525444 0  1.092454546710587 0.02073747993156355 0  0.6258356496030217 0.05809060219988012 0  0.6723007948593309 0.07742540964968625 0  1.070708503891923 0.06919246195252528 0  1.071646122376634 0.0674270777744525 0  1.068713863933891 0.06924466017201664 0  1.015083728237772 0.04163062673378792 0  1.013800614716131 0.03969042777871004 0  1.015918321508999 0.03986786966746422 0  1.015050019428386 0.03812167373725037 0  1.01712209493904 0.0383356919813173 0  1.018758053435109 0.03704792782954888 0  1.018919686015415 0.03902559200498793 0  1.020484008866944 0.03783755412136389 0  1.020636269701138 0.03978766412062175 0  1.022137029529345 0.03864769260398843 0  1.022228890228427 0.04063239723266902 0  1.017053343647295 0.04155704997125471 0  1.099582352595219 0.0218576073574735 0  1.098438826158606 0.02021542043019268 0  1.096449112460451 0.0203586743423011 0  1.095307742216107 0.01870981628607981 0  1.101566616379921 0.02166023086776003 0  1.104770689584722 0.08136018689512765 0  0.703130089498973 0.0416729456689592 0  1.126661362617249 0.08534444432782108 0  0.9809544117705515 0.07220096029884533 0  1.094790639342063 0.08112302700079016 0  1.095827682805901 0.07942241310619004 0  1.09279424403522 0.08107414511075482 0  1.110586229059917 0.01044607918695125 0  1.004889358941337 0.07138516989002741 0  1.001840215099072 0.06976525768007838 0  1.000896850061124 0.07152942033380819 0  0.9464752326552325 0.05603117651682943 0  1.084537871160467 0.009345730617917124 0  1.086458612070608 0.009159779216587963 0  0.9914255812434136 0.05625978967729449 0  1.114876933588244 0.04173052993305358 0  1.115956058075449 0.03979918392844893 0  1.112964401608581 0.03818266159678212 0  0.9059377297743542 0.06950988451743879 0  1.033301554479855 0.008605438736807604 0  1.03528697776242 0.008430355994070047 0  1.034145510410619 0.006830868701660631 0  1.036131869744742 0.00666703048698268 0  1.037273003593016 0.008262536388480244 0  1.038116113111582 0.006479390601619108 0  1.039258454319113 0.008086543160801651 0  1.040104931593737 0.006342560702164315 0  1.032160104882779 0.006979746077651379 0  1.033148085073307 0.005197470095986721 0  1.127469009755393 0.03154015019568014 0  0.9775227159605233 0.02222642972824508 0  1.042388179297372 0.009536791786981587 0  1.041244535283186 0.007917584693213575 0  1.042093608287364 0.006204076087052338 0  1.041044249745845 0.004735629156559383 0  1.043199321825541 0.007771568574063721 0  1.044062180984453 0.006134668898484122 0  1.044337264858421 0.009390675966463206 0  1.057431050857957 0.009942944392806843 0  1.059416689946201 0.009767808205524073 0  1.058267420777683 0.008150268563853676 0  1.001379145551812 0.0559291461540283 0  1.010872542374547 0.04158727046726634 0  0.9938926916420336 0.08391349599701126 0  0.9929360430551086 0.08216158938569225 0  0.9909405736904999 0.08211408526500101 0  0.9919936291416037 0.08041836325113041 0  0.9939772351141865 0.08045866192551117 0  0.9899840122977875 0.08036219975590381 0  0.9930397402218876 0.07871729587910609 0  0.9950202772000452 0.07874980967316056 0  0.9959717520220993 0.08050440883032045 0  0.9970155053307534 0.07876896023244499 0  0.9979669397609486 0.0805468518234103 0  0.9990097968507073 0.07874983022227354 0  0.9999431695277267 0.08059272230391976 0  0.9989195754997194 0.08230197618316462 0  1.001366805040722 0.07878000030247215 0  0.9960307884627251 0.07696810734697322 0  1.000895597528887 0.08236038577545518 0  0.9889449432680758 0.08206654519565068 0  0.9879774866798592 0.08032043052295339 0  0.9746236880821258 0.06203545812955898 0  0.9735696776510758 0.06033731334414881 0  0.9766188648679057 0.06195316170404443 0  1.088802038072237 0.08097904212528345 0  1.072465183832445 0.06220023186848939 0  1.0733997392192 0.06043957490063916 0  1.070470392992411 0.06226669007910295 0  1.005201649801038 0.007628245060520513 0  1.086525897285749 0.02128706315404833 0  1.084533701759152 0.02147213430789015 0  1.083389006677552 0.01982686900640897 0  1.081403099387248 0.01999997135238351 0  1.082245092534674 0.01819000313387514 0  1.080259431046219 0.01836485252575119 0  1.084216657107216 0.01799614483783465 0  1.083086618594967 0.0163807957953356 0  1.07941821080465 0.02017184616618377 0  1.078273785230193 0.01853945593805856 0  1.077432347180483 0.02034640216925949 0  1.076288011624514 0.01871386725965174 0  1.077129181449456 0.01690651212083078 0  1.075132225910072 0.01707700403610855 0  1.074299869753286 0.0188887736461627 0  1.085366915949329 0.01963967557526498 0  1.081100860120527 0.01655605604016908 0  1.011349372614642 0.05559639457452396 0  1.02131930800853 0.05526363132861911 0  1.085549247420839 0.03060755001028462 0  1.084401790485255 0.02896891998657157 0  1.082545902245615 0.02891436912790859 0  1.083513360051631 0.02712204798693557 0  1.060736572772494 0.06953449793143242 0  1.061675316959042 0.06776980820840013 0  1.058740730270894 0.06959516955091784 0  0.9769647435134823 0.07233565305567335 0  0.9504653866681348 0.05589864976769189 0  1.031289024297001 0.05493086017650325 0  1.058213852467821 0.04184357424885132 0  1.064015901686585 0.04187611467935052 0  1.065991470223492 0.0417577226344548 0  1.062494028939018 0.0625332955622076 0  1.063429234901752 0.06077262675476308 0  1.060499352775161 0.06259973852874476 0  0.9789595884166723 0.07226899478267095 0  1.079926490938614 0.04118239528356977 0  1.081919779465308 0.04111547351624099 0  1.082858633040706 0.03935603628843957 0  1.084852003548856 0.03928911371999053 0  1.083797609980671 0.03759645547073567 0  1.080865713026913 0.03942274111593198 0  1.085906363948541 0.04098185899963514 0  1.087899666785221 0.04091518249839436 0  1.086845454937031 0.03922235972714695 0  1.017548413783752 0.02216351365735828 0  1.157784763789742 0.04203556102221524 0  1.031266310637655 0.04799759581039419 0  1.023506813515072 0.02163789788714771 0  1.021298690838649 0.0483316898176817 0  1.103492210010974 0.09341195183323389 0  1.011330481426519 0.04866567789224508 0  1.101059326865167 0.04223355921647265 0  1.099078001536479 0.04231627555310228 0  1.116887337902973 0.04165523811281301 0  1.001361417514406 0.04899939308175739 0  0.9305093081662493 0.05656306028932093 0  1.050763753379818 0.06986464785318541 0  1.051702247773594 0.06809880744014404 0  1.048765346200582 0.0699210969739265 0  1.047707912763364 0.06822674953883262 0  1.000517797412125 0.02192880264768967 0  1.072618755088131 0.0225037050798219 0  1.071474074581274 0.02087198017507363 0  1.073459979383013 0.02069679261805579 0  1.072315217525708 0.01906463365968523 0  1.070329377181668 0.0192399206810838 0  1.071163727148972 0.01742415810380974 0  1.069184722993076 0.01760780811517973 0  1.068343539856416 0.0194151775883568 0  1.067198958705212 0.01778304887060417 0  1.068040071847841 0.01597573003523468 0  1.066054354665767 0.01615097497728956 0  1.065213235934045 0.01795826045790214 0  1.074604717326495 0.02232854808407683 0  1.063530142831938 0.02157314821267714 0  1.062385377523242 0.01994095029606406 0  1.060399510704266 0.02011618880079803 0  1.06124068870012 0.0183087982774809 0  1.059254888368702 0.0184839906254456 0  1.060096053708452 0.01667665741222144 0  1.062081796829019 0.01650144727443046 0  1.058413226806641 0.02029140845315761 0  1.064371545306208 0.01976569281092437 0  1.065516241759652 0.02139787430163604 0  1.057572026359319 0.02209888516323345 0  1.04478066529156 0.07006814801190746 0  1.042784461609345 0.07012170322486873 0  1.035880807156925 0.08145426095108353 0  1.013576343786853 0.022513901142345 0  1.046497290247749 0.02134291448009796 0  1.101698074068495 0.004510752018575303 0  1.036578002863672 0.02219764287473369 0  1.029464559711628 0.02111239693137923 0  1.073795332450694 0.08235567847289718 0  0.9926946477417019 0.06486428676624156 0  0.9936337896135918 0.06310354363815396 0  0.9907002271802587 0.06493064154045373 0  0.9896452238877054 0.06323662358636989 0  0.9757690951538494 0.0903987796618851 0  1.041703546659086 0.08850651119818317 0  1.020707564687164 0.08973796575117836 0  0.6204846431767022 0.09653433642265305 0  0.6218504302930248 0.09465279349129127 0  0.6195396118997796 0.09477103063877039 0  0.6065093812594853 0.09656647130061177 0  0.6075526828571518 0.09491576511007567 0  0.9934120375729912 0.02082544341081156 0  0.7062877315105761 0.07622758096788995 0  1.094923808325529 0.04242387927562974 0  0.946579506703119 0.02321858533518268 0  1.079599851799352 0.03081624710625714 0  1.080555868980674 0.02902491594364207 0  1.081574372806014 0.03075916837514937 0  0.9797606134028092 0.09049515312649567 0  0.9889342793924972 0.07192536518080894 0  0.9918700227318209 0.0700953261222339 0  1.038319817334544 0.03073131627826997 0  1.036333486049087 0.03090663207373382 0  1.080901762797569 0.07738870345449941 0  1.006737099766747 0.08940659004184032 0  1.055672758183189 0.08883685435599722 0  0.2046484472159674 0.08959855551000828 0  0.938888479968235 0.08778686219162338 0  0.9331863468248409 0.07725626580313294 0  0.9322369361541657 0.07900723488161443 0  0.9342405728457985 0.07895167369556938 0  0.933280190936955 0.08070256745181573 0  0.9352939116007368 0.08064680319617334 0  0.9343577823788713 0.08241127636971347 0  0.9362970602940994 0.08235868255935432 0  0.9372591642846274 0.08057179622622403 0  0.9321628887584507 0.08236396243252243 0  0.9799936358171351 0.08365085724334993 0  0.9810026603052988 0.08203027201524282 0  0.9829646866032925 0.08194960912644825 0  0.9819754405357528 0.08042000203064023 0  0.9840362402730425 0.08033868064396671 0  0.9849611562700221 0.08199556032144828 0  0.9860196544034614 0.08032423602349209 0  0.9869532115019597 0.08203349859511624 0  0.9870259022669776 0.07868532150473041 0  0.6901109171956528 0.04037881671687448 0  1.002888644149208 0.08250985637349573 0  1.063226505067039 0.01813355525592581 0  0.9103549306510039 0.05030770958035884 0  0.9092897646810639 0.04860979895165027 0  0.9073470680909081 0.04865675854435975 0  0.9165290758512352 0.05702861972073581 0  1.06166084136127 0.08898303475529896 0  0.7346085574732362 0.08567304398761996 0  1.032846498037136 0.08311107402640033 0  0.9857513105604926 0.09063070066279365 0  0.7096968802407543 0.05878197600604185 0  1.05972281799247 0.09651268052375828 0  1.062571972249464 0.0944452686811138 0  1.063650352978344 0.09634597670161407 0  1.066607685213567 0.09447380849277423 0  1.067668875909152 0.09634428057577876 0  1.07060172224137 0.09452905818687547 0  1.071661080870215 0.09636804626895673 0  1.074545638271506 0.09466376169820565 0  1.189497626648246 0.09651265348502194 0  1.190495737998817 0.09478240484287068 0  1.192480474590139 0.0948873265511071 0  1.19150485562013 0.09306461721168836 0  1.189346469258669 0.09318866957175534 0  1.161558349266555 0.09655849748845131 0  1.1608347930159 0.09484105857445753 0  1.115546405373648 0.09663833700779142 0  1.081648892695244 0.09648503362480393 0  1.105559545114301 0.09659475145399217 0  0.9757794929048932 0.09666260535413479 0  1.133523779999474 0.09668433775601856 0  1.119540519986927 0.09667371330572799 0  0.9937594650913195 0.0966909947171361 0  1.001892588284174 0.09648778357191602 0  0.9797726196625258 0.09669960313073625 0  0.96579390010217 0.09662198047865087 0  0.9618011232278981 0.09659038859862658 0  0.9897572983232861 0.09673339610858006 0  1.049740115215108 0.09663010856388937 0  1.048644553996153 0.09492521852832519 0  1.045747060656195 0.09662113886856538 0  1.045040510895153 0.09501970563733771 0  1.042752355363361 0.09478365039038826 0  1.041754031429055 0.09659230242241962 0  1.039767386872444 0.09662479593350626 0  1.039018499658666 0.09497501716902296 0  1.101566388951852 0.09656488087890132 0  1.129531529353782 0.09670465865248504 0  1.147570354190261 0.09651268052379755 0  1.165571646684698 0.09653089887472661 0  1.16454087605108 0.09478368089366833 0  1.185504486350793 0.09660422998332921 0  1.186443919625164 0.09477549218023631 0  0.9296791143852602 0.06178900442822845 0  0.6437822330006874 0.0575176502739836 0  0.7213262115172671 0.07745241311278245 0  0.722267609840286 0.07568778408709478 0  1.072474556104664 0.0103513498843491 0  0.9542121914920246 0.04193468250081548 0  1.067646220782188 0.08913124236082549 0  0.9265164209594553 0.05669636776383448 0  1.098781515912665 0.081219569055286 0  1.101814104327704 0.07956213354803056 0  1.102773837053655 0.08131286392130962 0  1.105807876318714 0.0796543957819915 0  1.04343744564582 0.03201316530075665 0  1.116965765661584 0.03781470849150133 0  1.050157558308495 0.01754540710146267 0  1.092719856598984 0.03558316283436012 0  1.093726440156304 0.03396510088705501 0  1.094743769767473 0.03557032999214875 0  1.092678201815813 0.03233859039902702 0  1.017092793753024 0.006641651791054613 0  0.9657898191480406 0.09016220378770506 0  0.975978855911692 0.08322669221626584 0  0.9268292857143232 0.09096808027371596 0  1.085354852839984 0.06004105318641471 0  0.9298632338203747 0.08930755318673803 0  0.9719340924282959 0.08339468169432163 0  0.9709282472879261 0.08166950250293684 0  0.9689793638210606 0.08159646681720754 0  0.9699618297636921 0.07992284277509457 0  0.9680195575469412 0.07984622560288396 0  0.9689844386472313 0.07818221982209257 0  0.9668388134824141 0.07780476046442375 0  0.9659945361399173 0.07975902958371406 0  0.9710665379548843 0.07818245801168931 0  0.9681143835834833 0.07638301317366722 0  0.972935756518614 0.0814579831732607 0  0.9362312506454767 0.0788850662470707 0  0.9382267304618424 0.07881888769412193 0  0.9392159485590504 0.08053704208495113 0  0.940289595823707 0.07879774811775592 0  0.9412460782843796 0.08062685311577461 0  0.9421004126504903 0.08253178769625312 0  0.9433065060998946 0.08085109780404276 0  0.9452489902522334 0.0811178007464457 0  0.9446026805681941 0.07890715050286917 0  0.9465482085409496 0.0796475943569553 0  0.9425266444552816 0.07888086221628862 0  0.9431662004214676 0.07697029654306477 0  0.9876508450627967 0.06330322236041276 0  0.9949183658543672 0.07172976108416149 0  1.070307711426964 0.03142024982727465 0  1.07111070478403 0.0295824717017442 0  0.9717804410758235 0.09030028778653471 0  0.9728167155936753 0.08859861971562501 0  0.9697856159753544 0.09025237466544651 0  0.9617982940532165 0.09006573970357815 0  1.103650294163925 0.0865248792508615 0  0.9291926175371825 0.07733732077722967 0  1.545421212069033 0.08961715691480084 0  0.9741706720285553 0.04819260059275837 0  0.9670525731509177 0.02835004439218902 0  1.092939146927152 0.04247670942956309 0  0.9391931453214035 0.07707357536287572 0  0.982377566251484 0.05483408544953357 0  1.074769265627919 0.0326942721694819 0  1.073817848638295 0.03105927423051174 0  0.9336716807573588 0.06165205041613526 0  0.9351808610331763 0.07719126940666257 0  0.7185161253406483 0.05327804687161475 0  1.090640260123612 0.08794971694476773 0  0.8927509511410916 0.08731433413798725 0  0.8907522394524584 0.08738049512186827 0  0.889695556253338 0.08568256759354351 0  0.967948151788951 0.08329671558421481 0  0.9603731078139771 0.009837849818645205 0  1.099499973180635 0.09332246357762783 0  0.5949033765286886 0.06694188826822707 0  0.9516324913428911 0.06105470337253272 0  0.9933845289371468 0.04926716239128002 0  1.095508054305708 0.09322621947858101 0  1.096550369382314 0.0948993353359974 0  0.6354070741470595 0.07687056412813448 0  1.103017218777073 0.02675474957321746 0  1.092635694606142 0.08799682627470602 0  1.093670934269169 0.08628877669350404 0  1.105246644692944 0.01787282839592066 0  0.735665937224813 0.08737069253171818 0  0.7326096610770902 0.08573993106094538 0  0.6551333334108607 0.039809666479834 0  1.693893969717418 0.03633356275766712 0  0.6939575632158692 0.06621995453076607 0  0.9683157150552784 0.009135361704776832 0  1.059090736836973 0.006442618614330418 0  0.9641995047597508 0.04852476502688478 0  0.9408831729049345 0.0878355408034367 0  0.9578067669566646 0.08996919320597369 0  0.9588456726801159 0.08826654217571801 0  0.9558108698088127 0.08992213500923131 0  0.9548540191903521 0.08817174143486552 0  0.9342552884388733 0.008663745252200303 0  0.6906438630994955 0.02132147544857169 0  1.084811742805098 0.08088770374203731 0  1.001424385149832 0.03225305629425652 0  0.967929638431544 0.07090482875219681 0  0.9639582790255141 0.08320081129523887 0  0.9630015702089586 0.08144874061208501 0  0.9610058782155619 0.08140121159975405 0  0.9620440728815512 0.07973049090328027 0  0.9600482730056099 0.07968857061834836 0  0.9640386158652279 0.07974768949525771 0  0.9630716970086404 0.07786141534092195 0  0.9649900267094612 0.08149140359356072 0  0.9599668461048163 0.08310576893803009 0  0.9859122118919422 0.08372985726811667 0  0.9767336759117856 0.06542435272008222 0  1.071167150188708 0.05359980541266451 0  1.09591368284351 0.0256480883803487 0  0.9396618556531907 0.06144858359781287 0  0.940715616288774 0.06315131728357587 0  1.151563399113166 0.09651266614529284 0  1.019983332514666 0.09653540290416868 0  1.05373318834739 0.09651266614529082 0  1.055729728544905 0.09664350409992624 0  1.05671125197341 0.09486295486121885 0  1.175521911344035 0.09656853550574769 0  1.176517942620136 0.0947494686222449 0  1.178844594149922 0.09493177540062875 0  1.005816350421374 0.09651266614531401 0  1.193481469135006 0.09653076776284678 0  0.9379169294700626 0.09650374378433277 0  0.9359202268886535 0.09649978577062959 0  1.173538264751052 0.0965932546364421 0  1.172577831257815 0.09477130429653158 0  1.091605719026725 0.09654183415665143 0  1.179569647514115 0.09660689089916225 0  1.181520552970261 0.09661067506908019 0  1.182507794788416 0.0948070871818215 0  0.987320422763951 0.009200555794264074 0  1.041866972287457 0.08159868755724391 0  0.9518191467989507 0.08982815612608404 0  1.061197712507208 0.05393264540851107 0  1.157607902643766 0.08780930938185 0  1.051228285761994 0.0542654889244245 0  1.108763473736101 0.08145462104804416 0  1.010316099916897 0.008899222089087696 0  0.9775907937837049 0.0343550971524091 0  0.9719200836601094 0.07077432232702414 0  0.9708651116691707 0.06908008482311576 0  0.9240306994363319 0.07237310590324555 0  0.9338562360256547 0.08940162205002362 0  1.021387232984096 0.009657636420041828 0  0.6256098449671428 0.05120136211531526 0  0.7255554055258757 0.08424228964578109 0  0.7244980826869634 0.0825446623004234 0  0.6836486011411774 0.08566405958088161 0  0.6845859213538934 0.0839003291676185 0  0.6865815924392156 0.08383727129331076 0  0.685519634988174 0.08213603998720094 0  0.6825899307204734 0.08396695714080811 0  0.6876384325802675 0.08553140981593911 0  0.6896337649554172 0.08546449993226346 0  0.6885742662101231 0.08376818792398255 0  0.6905691471819475 0.08369977882755228 0  0.6916337064427063 0.08539379075114073 0  0.6925690609113799 0.08361988665472697 0  0.6915012295550823 0.08192307126383359 0  0.6945632567586681 0.0835324532432751 0  0.6936273475346866 0.08531075419239405 0  1.02933277541497 0.008954447038536309 0  0.6673274329742745 0.07580878173862811 0  0.9092333925510641 0.04170279470987762 0  0.9706356211735235 0.06216161616546827 0  0.9675896177816306 0.06053268621832457 0  0.9666440250641825 0.06229897081524353 0  0.6583096958596564 0.06462364202047199 0  1.101334848281417 0.03037052762991292 0  0.9755360399527688 0.02240126939644946 0  0.9728597968378266 0.06901386135677136 0  1.099658190093709 0.08642973110974167 0  0.6269287225067568 0.05977954903672959 0  1.09662677907714 0.08809146597046226 0  1.079781954910396 0.08249776795712162 0  0.9639369026685644 0.07103920169522632 0  1.117533068258407 0.03241701802542998 0  1.112757246521584 0.08154870468323618 0  0.9874385871108404 0.05639041199097142 0  0.6861211414083693 0.04051421259930194 0  0.683086575172704 0.0388788749495592 0  0.947827392527768 0.08973383541583424 0  1.013445961133153 0.01035767031890736 0  0.9668750049817306 0.06921336904502093 0  0.7168646883178363 0.06373796057458905 0  0.9542268718101016 0.04885683634256793 0  0.9985305081435536 0.02210558176158062 0  0.9063432853554798 0.0504487462582545 0  0.2575928733215515 0.04381737352759874 0  0.9413533994770514 0.009779760382275016 0  1.080554782107102 0.02181536133866803 0  1.035188482325702 0.02927415873583811 0  1.096149665159792 0.05449420015064785 0  1.037712078948902 0.0884121399147908 0  0.6617045605273361 0.08639598364132448 0  1.100619550487396 0.0881867203686707 0  0.6973698086279586 0.04880655036601918 0  0.9081772547923246 0.04000480125510729 0  0.9061793143185658 0.04007220562540863 0  0.6028286630453989 0.02768705871713885 0  0.6018892503209977 0.02945380135202746 0  0.5999052451314628 0.02953537820445887 0  0.6009555679999884 0.03123066409751806 0  0.5989480986540656 0.03130780675687524 0  0.600008890526922 0.03303004774660528 0  0.5979560274026123 0.033097680881789 0  0.5990512213811328 0.03490826653821857 0  0.5969252365122718 0.03494179221102119 0  0.5980571772927538 0.03681944720858112 0  0.5958320343605255 0.03686236913279445 0  0.5946581209119028 0.03491254116032477 0  0.5934793868114172 0.03697956523105379 0  0.5921949269627227 0.03497984724297857 0  0.5909564075091117 0.03713512668289577 0  0.5895527202889418 0.03496075731220612 0  0.588203352591075 0.03727256649410089 0  0.6011180967400274 0.03480526499494572 0  0.5933168372866954 0.03283387966614038 0  0.5970240892978074 0.03872737400445951 0  0.599191802904017 0.03866926678296408 0  0.5897379141541474 0.03958604141884501 0  0.5867541719378785 0.03479560829707214 0  0.5852480282624579 0.03741814755885606 0  0.5836371362807051 0.0348475617888734 0  0.5820562344570464 0.03760384947675884 0  0.5802866813024108 0.03478971385435544 0  0.5785771133466682 0.0377591782856553 0  0.5969328022425515 0.03142051383872886 0  0.5804867724041181 0.04082291099751786 0  0.5769553961799019 0.03443993014527619 0  0.574627031579378 0.03800384751909853 0  0.5982122072653927 0.04044001153230538 0  0.6002636501708203 0.04027459002404368 0  0.6012408442828591 0.03852920822593685 0  0.5958810298207953 0.04099510095076822 0  0.5884685949922076 0.03227517708373285 0  0.6001554925660254 0.03670006765041952 0  0.6021921840814191 0.03650030258649102 0  0.6031007657265305 0.03463829041735875 0  0.5785934842103496 0.03146348532132943 0  0.6020230331892402 0.03294782244683166 0  0.960663181322589 0.06249548793491802 0  0.9576163721826759 0.06086541144477416 0  0.9566703045166328 0.06263203813815907 0  1.169772234871275 0.04162028038923963 0  1.171006950327446 0.03980620895813425 0  0.8788760839483576 0.09124381194574963 0  0.9590100144568827 0.08136023651774246 0  0.9570144310481449 0.08130717359860165 0  0.9580520464074609 0.07966406574345566 0  0.9560562747052593 0.07961918892450642 0  0.9590911345917168 0.07787380422043748 0  0.9550184444270962 0.08126954927220131 0  0.9540617933151023 0.07951901682269287 0  0.9550982362968825 0.077744281493769 0  0.9527659584982471 0.07795701040157595 0  0.9520076246455433 0.07958109865935251 0  0.955975318996428 0.08301270088184899 0  0.9530229073632022 0.08121090840933393 0  0.9510173477672971 0.08118358869475753 0  0.949865342224684 0.07951811540295523 0  0.9489812665168273 0.08129516329016752 0  0.9519821533256888 0.08291888952099327 0  1.01158970916833 0.02268868045542181 0  0.9020654543668269 0.07309952982256737 0  0.6345805607480456 0.08209636204808894 0  0.6336390156953408 0.08386085779884614 0  1.197149728001619 0.05284460581086078 0  0.9438355836065038 0.08963894102038772 0  0.6274107387473957 0.07713175412098307 0  0.6263945968458222 0.07543742493997888 0  0.8928878423706594 0.02795386734165022 0  0.9499772797838326 0.08291256012036907 0  1.103925032122569 0.03707642757638659 0  1.485519491467114 0.08957783332166167 0  1.07579087485306 0.0824031715994458 0  1.034584338677856 0.02238875145041327 0  0.9303818221500869 0.04617926886592724 0  0.9313789318514903 0.04787616866610368 0  0.9436509760597251 0.06132457832254021 0  0.9466984822999298 0.06295948933611646 0  0.9476407192144689 0.06119088948749036 0  0.9506866823440666 0.06282118283804293 0  0.9536258293151336 0.06100154126090518 0  0.9493002283841345 0.009078741229487687 0  1.17093321151645 0.04678108583078584 0  1.171990570762412 0.0484787214468739 0  1.171048899958091 0.05024147656498348 0  1.051613999013339 0.02262469501506627 0  1.030071395632163 0.02799217098309129 0  0.947152686947642 0.07670840884369654 0  0.9343720562012838 0.0460360808269964 0  0.9353714651411966 0.04774159611052276 0  1.059558131393855 0.02192365996934809 0  0.7256894123876725 0.02538629994529355 0  1.103821888779761 0.07314181221528765 0  0.8837706557486934 0.02701457528658713 0  0.882925759468935 0.02882734941430313 0  0.880933401398551 0.02900203292660173 0  0.882080861844547 0.03064012293815578 0  0.8800574473199366 0.03078900895803881 0  0.8788754330492364 0.02905659608560392 0  0.8811995840539959 0.03242875318712465 0  0.8832222586750211 0.03227418897292898 0  0.882383422526286 0.03409098531478719 0  0.8811505151410125 0.03569045691455974 0  0.9367199381733772 0.06328746788603604 0  1.094386864950517 0.0614686177705653 0  1.121506402845848 0.03206609060622001 0  0.9579557415233575 0.07124006905700665 0  0.9616067700580635 0.06072669232747169 0  0.9636000134400715 0.0606692488260082 0  0.6314087782678129 0.0770011174751989 0  0.6815279941754104 0.08226611761135828 0  0.6346962530480585 0.08555853720922829 0  1.173047794508737 0.05017407038268466 0  1.172106191343026 0.05194089108213961 0  0.9448747320760199 0.08793538173813489 0  0.7407369089541778 0.0266259067061207 0  1.144564681173655 0.08923563945008245 0  0.8845536688026532 0.01303699273724536 0  1.15569221646399 0.03865082235573802 0  1.131619922347437 0.01032971294508117 0  0.6246669363398075 0.05296420459391236 0  0.8846155551369425 0.02520180302599181 0  0.737794980890607 0.02845573862859348 0  0.647500274685002 0.0140980976853482 0  0.6484336634122579 0.01232794748204245 0  0.6464397019420708 0.01239756096717459 0  0.6444430168524264 0.01246480455866941 0  0.8882977197078891 0.02140156229638982 0  0.7268556671480648 0.03054730304290563 0  0.7347396899464262 0.02682309105390284 0  0.6414139189544601 0.06996350228069612 0  0.6404161390115064 0.07169123625366047 0  0.6219183457480395 0.05815912468401522 0  0.8874528203943385 0.02321434641598012 0  0.9949321361040673 0.08220925677377847 0  0.7234641095661926 0.0185217663050942 0  1.140293554169194 0.05994198516363528 0  0.7397808898646268 0.09070211494579274 0  0.9010078619175341 0.07140203053352806 0  0.6466547268417427 0.01932313795536723 0  0.7307418455564113 0.02695423217652836 0  0.7187479393165901 0.06020833332138753 0  0.8843681947897177 0.0340273194253497 0  0.883277501701454 0.03587083903364922 0  0.8841288796886057 0.03760274745741651 0  0.8854837880182475 0.03622451347418775 0  0.7254645071249013 0.01845970147029484 0  0.65419155432281 0.04157414762681671 0  0.8919801535570785 0.01760125973941024 0  1.142058434542158 0.05295613812048504 0  1.144058830337482 0.05288967570579087 0  1.142997870110864 0.05119195021785929 0  1.145000757080376 0.0511254053489251 0  1.143943670421425 0.04942832028770961 0  1.145959583790749 0.04935495502993312 0  1.147001386350314 0.05105746841818651 0  1.144899244716265 0.04766247445440323 0  1.147948944028214 0.04929244850560262 0  1.14899505384453 0.05099082087555512 0  0.6393906810138695 0.01090054882786716 0  0.6384486905189554 0.01266440520650625 0  0.6316399420248436 0.0839276276111446 0  0.6305826400572113 0.08222982131306567 0  1.135489520970773 0.0652899145525168 0  0.7387376325853974 0.0266918571092996 0  0.8863053492335173 0.02157625441183774 0  0.8871502581463321 0.0197634832725289 0  1.128660672724325 0.08539602571518723 0  1.129619645558766 0.08714626573173676 0  0.6296410039836913 0.08399429501840812 0  0.627642127152265 0.08406103114157049 0  0.7162854848112451 0.04642607706764944 0  0.6513690950489226 0.04687060346808052 0  0.7327407637790937 0.02688866113989899 0  0.6435026911579518 0.01423034705190068 0  0.6424453364314904 0.01253208550205039 0  1.148563116912293 0.08933167649686437 0  1.147605060941743 0.08757582496407836 0  1.14605813324433 0.05282297258006406 0  0.8906371395089381 0.08391801922529857 0  0.8886382604301187 0.08398497354711533 0  0.8876967631784228 0.08574945986245415 0  0.8866394050377625 0.08405190586672728 0  0.8895797650620835 0.08222041214519933 0  0.6501937923676517 0.04170713761746254 0  0.6023754210471265 0.01039678450579688 0  0.6453706592195971 0.04706771043908418 0  0.6433721472288414 0.04713557742077074 0  0.6424327392118583 0.04889992716404669 0  0.6413731274884064 0.04720345154003865 0  0.6404348535189595 0.04896786787672408 0  0.6414909333894582 0.05066632776252863 0  0.6393740992530391 0.04727212079662516 0  0.6384361519392486 0.04903637365096034 0  0.6373747961689101 0.04733857053979725 0  0.6364346487147967 0.04910452902640636 0  0.637493283765778 0.05080354176028794 0  0.6355222819286517 0.05088182011911629 0  0.6344583741837648 0.04918704375356779 0  0.6383157567507163 0.04557223342030631 0  0.6353769783961484 0.04740973191147888 0  0.633397143010723 0.04748157879474912 0  0.6343201891621942 0.04571072582014538 0  0.6423139631624125 0.04543745331238469 0  0.7317980505191972 0.0286525399485598 0  0.6348995225007639 0.05956177747942448 0  0.6368977486934213 0.05949641954696588 0  0.6379442479243824 0.06119205244103419 0  0.635819877925175 0.05779203495135343 0  0.638885476568498 0.05942882089895726 0  1.174931015436767 0.04664798071073142 0  1.145116093199104 0.0545875452786973 0  0.6226681279747223 0.05302777199583049 0  0.8988936594422353 0.06800642249693646 0  0.7336834439528916 0.02512475977987007 0  0.6426569291367251 0.01945589136584608 0  1.134821791623683 0.07398034839914136 0  1.14481627612038 0.07364825851380302 0  1.148814109491924 0.07351660652165927 0  0.885763022585861 0.02683989709892284 0  0.6463115595954025 0.04530274569482132 0  0.7797571721938363 0.08936121469382907 0  0.7897517392095352 0.08903158832341869 0  0.8827574359387191 0.08764769534424577 0  0.8836990021942984 0.08588319855068254 0  0.8826416387076123 0.0841855523529767 0  1.164803789709486 0.07297995110374586 0  0.7997459611734128 0.08869271090408649 0  1.141233860437724 0.05818164401300872 0  0.7697627701348935 0.08969577005819054 0  0.8037437492137672 0.08855869690761724 0  0.9038227674824507 0.06611486029222113 0  0.8137381566448983 0.08822424664949099 0  1.168802911017072 0.07284741685628486 0  0.8994239443069635 0.05239308612033087 0  0.7275749734959117 0.02185972833386423 0  1.187750116730097 0.04101970261579899 0  0.759774594440474 0.09002627059754137 0  1.147345614622624 0.06144469631818694 0  1.148402587958181 0.06313837906512955 0  1.149344497906921 0.0613778698237941 0  1.150401472273101 0.0630715840506675 0  1.149477636386237 0.06483233081751989 0  1.151343386697604 0.06131120922740901 0  1.15240036198064 0.06300495110405042 0  1.15334227730391 0.06124460329194718 0  1.154399251571158 0.06293831470081349 0  1.153475411599431 0.06469893890337694 0  1.155341168193586 0.06117800589066293 0  1.156398142507792 0.0628717187219328 0  1.157340059354575 0.06111141664934017 0  1.158397032395596 0.06280509126224459 0  1.159338950385981 0.06104482352111772 0  1.160395923405421 0.0627384974861175 0  1.157473187605999 0.06456557093041532 0  1.161337841857192 0.06097824359424295 0  1.162394952005798 0.06267603416387657 0  1.1614748032943 0.06443940403682104 0  1.163467486761039 0.06437205178934917 0  1.164395112250943 0.06260801735785479 0  1.192920930130049 0.0460459030208375 0  1.172800646890903 0.07271287378659295 0  0.8297292062866706 0.08768914721160956 0  0.6176139311437436 0.05146034741912214 0  0.6165577587908118 0.04976858259877646 0  0.614558674745606 0.04983000659206917 0  0.6155013046708626 0.0480657724019685 0  0.6135023803145629 0.048131357596944 0  0.6125598890182344 0.04990040703040313 0  0.8317280874917583 0.08762225978333793 0  0.7557733322110615 0.0901619764765146 0  1.176798420673297 0.07257955102159189 0  0.849718018337281 0.08702027292947723 0  0.8477191371322382 0.08708716035772335 0  1.160280765489944 0.05928146714001009 0  1.163336767167128 0.0609126794947357 0  1.165335864233917 0.06084568397632166 0  1.166392869614848 0.06253923150976877 0  1.16733460082921 0.06077866340451288 0  1.168391544812903 0.06247216718352186 0  1.169333430318183 0.06071192557767914 0  1.170390389784018 0.06240547648035494 0  1.167467685067276 0.06423231488470479 0  1.171332303771256 0.06064530274835975 0  1.168276330630968 0.05901512507222254 0  1.172389409200084 0.06234224148144271 0  1.171469251755765 0.06410602399079038 0  1.173461933626949 0.06403814052749084 0  1.185751233286704 0.04108652311959807 0  0.7357959568976208 0.0285214046839666 0  0.7341716419270565 0.009515023891847576 0  0.7514252820173358 0.07991126549505247 0  0.7474275196072592 0.08004504035145293 0  0.8517168995423745 0.08695338550120003 0  0.7339134652464959 0.06490035184092928 0  0.7319145762243444 0.06496700566029652 0  0.7381429231244211 0.07169062426471486 0  0.7524826488318319 0.08160890368373828 0  0.7389646944294842 0.03361643147940321 0  0.7414308759919784 0.08024570263615034 0  0.8451567601159153 0.04038196432710775 0  0.7370855563098432 0.06999298607608224 0  0.738027070700238 0.06822846045929649 0  1.173607464973876 0.08819019098216514 0  0.8486606515227582 0.08532263474082091 0  1.180796030627562 0.07244799950954087 0  1.152562014204904 0.08942731227889053 0  1.151603904741167 0.08767199490887553 0  0.8270352105374887 0.06698305180686143 0  0.8250363293324334 0.06704993923505993 0  0.8239789625178618 0.06535230104641424 0  0.8806427531970922 0.08425243543731681 0  1.193734002768566 0.0204854256198892 0  0.7242665884616031 0.07562098290996747 0  1.163908539805119 0.07814870348344165 0  1.162883454756415 0.07966673391944429 0  0.8329160017286694 0.06332022571681871 0  0.7369697038856206 0.06653082227070033 0  0.7440187907613068 0.0351836226553501 0  0.8482119373124946 0.04201214371852012 0  0.8646517011632477 0.08478753531505553 0  0.7409636313744083 0.033550846305047 0  0.6364498730260993 0.01273025533455814 0  1.188535344728992 0.0070456605730168 0  1.186542708213694 0.007217177754262956 0  1.189234142132818 0.005246467740872916 0  1.160651574344467 0.08615282672244264 0  0.8599138290986678 0.0935401913183356 0  0.8608856436012969 0.09184563778245937 0  0.6216456683127475 0.0842608344103883 0  1.178331043101986 0.02912729983849478 0  1.176327132397264 0.02917337154017938 0  1.175223954293379 0.02741644488422498 0  0.7507154724355902 0.08860011871617374 0  1.176929900733637 0.04658148711762654 0  0.6571322058974864 0.03974308110376684 0  0.7351171713326279 0.007770229170951025 0  0.7352280148147673 0.01121039468414391 0  0.7372268017660271 0.01114478949272366 0  0.73428538644413 0.01297416538484326 0  1.146157518881282 0.01599105489125811 0  1.147305979986268 0.01762866052090307 0  1.149298231083193 0.01745286943653105 0  1.148454349500033 0.01926611141048497 0  1.145313913395396 0.01780378730364083 0  1.142414409362239 0.06333493604738477 0  1.167602602585676 0.0314852379042658 0  1.165611796415843 0.03166016082190792 0  0.865983933197419 0.007762783176256616 0  0.864358966375632 0.006545735265044257 0  0.8651736607329501 0.004543765488330935 0  1.182811066833594 0.04291803122722741 0  1.153984889980626 0.07854182223039623 0  0.8848861801867948 0.06158160905064797 0  0.7218042935897382 0.06183922465294096 0  0.8030488166519887 0.06778558848789457 0  0.8010513346949921 0.06787879783015878 0  0.7729977445363803 0.09478625268080745 0  1.169467117152558 0.00700202962238188 0  1.171451956994821 0.006831357316218278 0  1.172597041993004 0.008446436600751868 0  1.173445829241671 0.006688216478045101 0  1.174589679579765 0.008276831286107376 0  1.175435672059466 0.00648831035133958 0  1.176581599127174 0.008098050671762847 0  1.177428535291028 0.006319541890056029 0  1.178573902403656 0.007922930451689059 0  1.179425367182771 0.006195579232575976 0  1.180566931078364 0.007755887931302661 0  1.181421115973989 0.006059339867283959 0  1.182559900136017 0.007588145576218939 0  1.1802178556358 0.004416362312857665 0  1.183401569272454 0.00574975341274961 0  1.172503632873262 0.005102879951534301 0  1.181714109623491 0.009379833043107506 0  1.177729274126008 0.009727826787181492 0  1.183706474498295 0.009205237755805557 0  1.173745037805066 0.01008193561936831 0  1.179721961072815 0.009556873309358595 0  0.7517723642845462 0.09029713530723618 0  1.1783884459605 0.06213682406174074 0  1.177462529315405 0.06389772324472801 0  1.166384683832879 0.01768397353290399 0  1.167228572186304 0.01587072990902107 0  1.190690671346674 0.03919123970297667 0  0.6395052794616622 0.01436251961426094 0  0.6207039376043185 0.08602558443730808 0  0.6236444237231369 0.08419446784639953 0  1.169744491454862 0.07108313173034785 0  0.8859436482232846 0.06327918419363067 0  0.861856547988393 0.0311574400445734 0  0.7403735091783049 0.0785480644469608 0  0.7228616807115744 0.06353688125201173 0  0.722745828867173 0.06007470345094477 0  0.852774266356943 0.08865102368982236 0  0.8723143637097268 0.04467165812545836 0  0.8995945037523773 0.05932685701061444 0  0.8741129340581125 0.01912846251779133 0  0.8752517317797572 0.02077261930213899 0  0.8722912214462648 0.01905995500871708 0  0.8863649066431227 0.03389099143903536 0  0.7663589648481133 0.07767852802538723 0  0.7674163316586238 0.07937616609383331 0  0.7683578460540482 0.07761164062322548 0  0.7694152128639519 0.07930927867374427 0  0.7703567273288947 0.07754475528051696 0  0.7714140940806848 0.07924239159450479 0  0.77235560854753 0.07747786825806821 0  0.7734129752899495 0.07917550429212006 0  0.7743544907150668 0.07741100959276043 0  0.7754118566561257 0.07910862167873445 0  0.7763533721074071 0.07734412776092837 0  0.7774107379192629 0.07904173598575807 0  0.7783522523194921 0.07727721065812171 0  0.779409618968507 0.07897484390106119 0  0.7803511363884119 0.07721040881445311 0  0.7814085006248963 0.07890796996089368 0  0.7804669858046758 0.08067248273720282 0  0.7823500181460012 0.07714353789836967 0  0.7834073819972714 0.07884108753272066 0  0.7843488991415735 0.07707664420974535 0  0.7854062631953103 0.078774199894485 0  0.786347780310572 0.07700975570327595 0  0.787405144393191 0.07870731225160098 0  0.7883466587825623 0.07694278659897397 0  0.789404025141542 0.07864041117497517 0  0.7903455394559816 0.0768758832833405 0  0.7914029061818796 0.07857351882416794 0  0.7923444205449909 0.07680899238698996 0  0.7934017873401494 0.07850662999753763 0  0.7943433017229136 0.07674210414780423 0  0.7954006685328885 0.0784397422011395 0  0.7963421829213897 0.07667521652303783 0  0.7973995497347963 0.07837285467894224 0  0.7983410641248481 0.07660832904646642 0  0.7993984309390699 0.07830596722705707 0  0.8003399453295215 0.07654144160640222 0  0.8013973121439419 0.07823907979287691 0  0.7984569165484571 0.08007049284215607 0  0.802338826534467 0.07647455417516696 0  0.803396193348956 0.07817219236331466 0  0.8043377077394824 0.07640766674604016 0  0.8053950745540025 0.07810530493478061 0  0.8044535601635399 0.079869830551208 0  0.806336588944534 0.07634077931768921 0  0.8073939557591633 0.078038417506507 0  0.8083354701496546 0.07627389188990266 0  0.8093928369642471 0.07797153007855069 0  0.810334351354695 0.076207004461707 0  0.8113917181692034 0.07790464265039101 0  0.8104502037788572 0.07966916826676153 0  0.8123332325597326 0.07614011703329951 0  0.8133905993743729 0.07783775522214582 0  0.8143321137648192 0.07607322960512825 0  0.8153894805794553 0.07777086779416117 0  0.816330994969934 0.07600634217755284 0  0.8173883617843958 0.07770398036610097 0  0.8183298761749953 0.07593945474951397 0  0.8193872429895865 0.07763709293753975 0  0.8164468473939497 0.07946850598243213 0  0.8203287573801342 0.07587256732088599 0  0.8172725093604273 0.07424181656023571 0  0.7992825785149389 0.07484380341673094 0  0.7872892999277403 0.0752453862794142 0  0.7932859349070586 0.07504446592002943 0  0.7772949055241632 0.07558017072900006 0  0.7664748172674002 0.08114069169064204 0  0.7957469654179926 0.08883470311771087 0  0.7946901875074159 0.08713102185005644 0  0.745196933554066 0.07318760016875107 0  1.181969258183589 0.07760633504120862 0  1.184852949381493 0.07959467563952516 0  0.618705026948455 0.08609235681376748 0  0.8437360697204415 0.05775909915350318 0  0.8945190091200468 0.08032209413032285 0  0.7211086109793365 0.04106661952846959 0  0.7359094832339956 0.03198363025516585 0  1.159610683708691 0.08785785970041163 0  0.8576123857318578 0.053828723350624 0  0.752239385171104 0.04184721421477672 0  0.7512984822942831 0.04361001755308387 0  0.750242259611317 0.04191166728349 0  0.7523550271664324 0.04530816744529499 0  1.182698147171677 0.03945873151412171 0  0.7309730605309529 0.06673149234236841 0  0.7829487598581367 0.09454061878480838 0  0.7820362708969439 0.09631899701975333 0  0.7849667734036164 0.09451562900879382 0  0.7860926104430594 0.09636089948707913 0  0.7889381926866592 0.09462033879602329 0  0.7904139253891896 0.09637930141893088 0  0.7923219912511943 0.09544086746212682 0  0.7938941676978322 0.09453768811266086 0  0.7817046281188937 0.05650431588553356 0  0.8733717291385081 0.04636929717718133 0  0.8293816490146844 0.077302655795074 0  0.8313805302197532 0.07723576836687095 0  0.8323220446102768 0.07547124275004982 0  0.8333794114248191 0.07716888093866542 0  0.8343209258153396 0.07540435532185014 0  0.8353782926298838 0.07710199351048073 0  0.8363198070204059 0.07533746789366139 0  0.837377173834942 0.07703510608228256 0  0.8383186882254666 0.07527058046547845 0  0.839376055039991 0.07696821865408071 0  0.8403175694305254 0.07520369303729076 0  0.8413749362450531 0.07690133122586493 0  0.8423164506355889 0.07513680560907138 0  0.8412590838210506 0.07343916742046992 0  0.8432579650261245 0.07337227999227727 0  0.8443153318406722 0.07506991818085339 0  0.8364356594444302 0.07879963169906581 0  0.8422005982115714 0.07167464180363471 0  0.844199479416635 0.07160775437541544 0  0.8402017170065132 0.0717415292318425 0  0.7460176687056137 0.03511807972733651 0  0.747073925695935 0.03681640866206147 0  1.155837365877587 0.08096122724473469 0  1.164323508829924 0.005385575388315987 0  1.162230507688438 0.005963775649329068 0  1.16147003476634 0.007699067450623428 0  1.160218487687589 0.006183026334383702 0  1.159471701568493 0.007884701843264494 0  1.158221732728237 0.006341108250341742 0  1.157477680728941 0.0080591832687423 0  1.156226627370856 0.006485591373636574 0  0.7930150438774498 0.06477006594168165 0  0.7920724803144014 0.06653395080303405 0  0.7910162183163291 0.06483580639990484 0  0.7900735555272305 0.06659952286441016 0  0.7890173039737818 0.06490122078449065 0  0.7880742132822764 0.06665238484613846 0  0.7870183113510821 0.06496464821977756 0  0.7860808047671851 0.06672245949335612 0  0.7871132375508203 0.06839892639193598 0  0.7879610445959645 0.06320250870795505 0  0.637506380296438 0.01442840306195541 0  0.6344509599687006 0.01279613786561565 0  0.6043555337694226 0.01032433544037578 0  1.171608035298104 0.08814335036736334 0  0.8636237243453655 0.02416622500545605 0  0.8645652387358684 0.02240169938861778 0  0.7777582818572635 0.08942783021378212 0  0.731457370803505 0.01826585651689854 0  0.7324000455146438 0.01650195063439943 0  0.8017692775623917 0.05917617772688819 0  0.8483130942508206 0.07493614332441098 0  0.8493704610653557 0.07663378151301853 0  0.8473715798602935 0.07670066894123111 0  0.8513693422703978 0.07656689408479009 0  1.192585897638044 0.01885063494197704 0  1.192892474351148 0.02229977797627526 0  0.6083511338231743 0.01019239319095003 0  0.8751390667642613 0.03937798170129585 0  0.8479712192065374 0.09389063056286519 0  0.829523296014488 0.05127871315836746 0  1.18953528548052 0.03428192482474994 0  0.7850210043884158 0.06502730555544262 0  0.7419062945393965 0.03178695374145172 0  0.742962543194976 0.03348528719881835 0  0.7608052149010912 0.05889471679679267 0  1.129762862982412 0.0723010931117847 0  1.131765043241106 0.07233289426055992 0  1.130783982912946 0.07410978870308589 0  1.155110543028524 0.05425465903558877 0  1.156052323921682 0.05249027564472756 0  1.154053432636775 0.05255686116212195 0  1.154995302343724 0.05079514396010876 0  1.156994119616958 0.05072633661872233 0  1.15299642586116 0.05086217384227152 0  1.155936994422639 0.04902809438046766 0  1.157935885707548 0.04896150886311985 0  1.15899299609954 0.05065930673659472 0  1.15205455861974 0.0526239651052033 0  1.150996909881652 0.05092927512984453 0  1.151939211852849 0.04916126541519387 0  1.150054986377269 0.0526905249981126 0  0.8257314438765341 0.08782292206811268 0  0.8246740770619667 0.08612528387946169 0  0.8518327519664284 0.09041554930670528 0  0.8945828057901523 0.05776011264061288 0  1.136820655745222 0.07391294989672942 0  1.182862208365195 0.01101420037223335 0  0.8393907500382009 0.0475063825935177 0  0.8404481168527479 0.04920402078215162 0  0.7208776865091789 0.03414756789850475 0  0.8476179797065353 0.05416316049161499 0  0.7467177080416507 0.08873389387649822 0  0.7447188166305777 0.08880078750098466 0  0.8780333583753381 0.01882412783948798 0  0.8814831060338424 0.04956391148716411 0  0.8157370378509644 0.08815735921185033 0  0.8463142130457509 0.07500303075263384 0  0.7564804112420309 0.08147512882723905 0  0.7574219256325352 0.07971060321038109 0  0.75847929244708 0.08140824139900174 0  0.7345716954231498 0.05280809934949272 0  0.7316148902046699 0.0546369572587951 0  0.7305173454544931 0.05291217930574794 0  0.738374627995467 0.07861495186132419 0  1.124596002220928 0.06739313278827889 0  0.8436202172964036 0.05429693534803168 0  0.8439677745685623 0.06468342676443523 0  1.152673459014228 0.01019994688828744 0  1.153516415951731 0.008386054728025541 0  1.151523703482821 0.008563612395520242 0  1.152332655024789 0.00679405090081375 0  1.15425088168273 0.006641730777916723 0  0.8519780748954215 0.03495408394861238 0  0.8529195781664063 0.03318955239862979 0  0.7413150235690675 0.07678353882996702 0  0.8577282381558914 0.05729088715607134 0  0.8567867237653752 0.05905541277290464 0  1.178338239153033 0.01662921516905442 0  1.1794866100198 0.0182666657336678 0  1.181478869240003 0.01809087267226787 0  1.177494350799765 0.01844245879485356 0  1.175502091579752 0.0186182518559471 0  0.6290173067320534 0.09263563698551411 0  0.8572648284597215 0.04344223193420185 0  0.8249048198553509 0.09302086119570192 0  0.8256613549511655 0.09472166881556104 0  1.183753205854695 0.04115405773825982 0  0.6220790560319431 0.006360787019832776 0  0.7757594057281003 0.08949487025276547 0  0.7747020457739842 0.08779743550667155 0  1.184446768988692 0.06192634970269236 0  1.184299302825198 0.05846900154388866 0  1.186325533703978 0.05840373784453472 0  0.8740813454933749 0.03768056441701502 0  0.8730239196027683 0.03598296304577952 0  0.873965185695477 0.03421859282383256 0  0.8765291359773255 0.08092404689675775 0  0.8745302547682875 0.08099093436357871 0  0.8754717691569806 0.0792264087436666 0  0.8735887403836318 0.0827554599779927 0  0.8798004968370059 0.02732606767136487 0  1.17768877450914 0.08482103171880125 0  1.178647216637213 0.08657924504791126 0  0.7935176397475484 0.08196879330824845 0  0.8391613775598464 0.04067320367678301 0  0.7986886168900271 0.08699486249085282 0  0.8372613214109255 0.07357294227684179 0  0.7542498251888783 0.07461768864450691 0  0.7350866751049467 0.07005987350417325 0  0.8544255902899492 0.07819764484515238 0  0.8397383073102862 0.05789287400993116 0  0.8406798217008028 0.05612834839308796 0  0.8386809404957464 0.05619523582129579 0  1.1817376415808 0.07068252447939924 0  1.150142100547236 0.01563962898910106 0  1.151290492568994 0.01727707558516596 0  0.6470303614226256 0.03662068614006319 0  0.6450250731530833 0.03668864643727435 0  0.6440820100453212 0.03844614968720134 0  0.6430251540324706 0.03675553717289515 0  0.6440010236310511 0.03499471269805697 0  0.6420829915811482 0.03851303616379038 0  0.6410260707793154 0.03682223975500035 0  0.6400840478456299 0.03857971358152085 0  0.6390271334940244 0.03688870213771533 0  0.6400029757446933 0.03512728162472528 0  0.6380851406864708 0.03864630992834878 0  0.6370282324309243 0.03695528497270843 0  0.6360862453964242 0.03871290491724662 0  0.6350291137737288 0.03701511733388779 0  0.6360049031121138 0.03525206608656857 0  0.6339719257084352 0.03531563727100022 0  0.6330303924993497 0.03708682381348869 0  0.6148883469260773 0.05671190500468237 0  0.8900492497942298 0.02994107401027746 0  0.7400209459209595 0.03531476290853583 0  0.6156488575968693 0.08446134534470423 0  1.178797269812955 0.07251300830656654 0  0.7516685574455089 0.0573778960740863 0  0.7526329945440016 0.05563975409195437 0  0.8447934365349964 0.0594567373421272 0  0.8913469663715224 0.07522914552080168 0  0.7641285054946134 0.07082487416799489 0  0.7650869138536832 0.06909718081694644 0  0.663984571061862 0.0343215587619313 0  0.8534840758994298 0.07996217046198975 0  0.8387967929197939 0.0596573996267732 0  1.156809608890077 0.07324835195808949 0  1.174799517060118 0.07264575065626488 0  0.875008359458987 0.06537775352997588 0  0.8760657262735219 0.06707539171861066 0  1.187709549204556 0.07052617730708474 0  1.155275016866299 0.0169254882762642 0  1.15443112851354 0.01873873189803098 0  1.146288522315741 0.059747454566772 0  0.8901737471328719 0.07006934352684377 0  0.891097116449354 0.06832312738418479 0  0.767532184081803 0.08283832987561585 0  0.7644759360622274 0.08120757911564304 0  0.7624770548571487 0.08127446654296119 0  0.8352624402058627 0.07363982970501914 0  0.8865382365335761 0.05112777402521482 0  0.8314963826437493 0.08069793217227389 0  1.186846681872202 0.01066210510261314 0  0.8514631524529295 0.02114458183019 0  0.853432141676374 0.02102692230895885 0  1.171578360579039 0.03114162385618548 0  1.172398945114262 0.02933873716918576 0  0.7555388968514065 0.08323965444417646 0  0.8560916094475959 0.03828243006092887 0  0.8550342426513586 0.03658479188203996 0  0.6408623369515173 0.0264178913850696 0  1.170801766367409 0.07277976152438327 0  0.7519033397824308 0.06429811388600609 0  0.7529606987754465 0.06599575694624579 0  0.7484848864216782 0.08174267854018143 0  1.153282756670031 0.0171012815329359 0  0.8537470911379177 0.02796385063433934 0  0.8645505437375589 0.05186353544915429 0  0.8189074034959948 0.09319843059657265 0  0.819666731743256 0.09487276510417282 0  0.8219653863146401 0.0948810245354917 0  0.6383551076235434 0.06479800540218818 0  0.8663030250962409 0.0743341564705304 0  0.8643041438912095 0.07440104389873006 0  1.180839081297275 0.07955565142822021 0  1.178841587244579 0.07945828678074135 0  0.8855967168089198 0.05289230296441363 0  0.8440983219907779 0.03868375450919302 0  0.8752547231149403 0.04284026762150067 0  0.7705727370051579 0.05164437865613147 0  0.7899600133886493 0.06313837341656182 0  0.6118604245049069 0.02567259033584455 0  0.6129169633114604 0.02736510408561506 0  0.6149085505729167 0.02730262177385506 0  0.6139380174737493 0.02905979730138364 0  0.6109005022075727 0.02742493890698363 0  0.609918762097994 0.02918588848171763 0  0.8783427618280949 0.02227019884727163 0  0.8764149134016279 0.02239969556349309 0  0.8974552823845861 0.04900807545409913 0  0.7588039037853682 0.05895756444336391 0  0.7567966023232209 0.05901412440896584 0  0.7374331136822063 0.08037947743005361 0  0.7917480268180355 0.0889639657388754 0  0.8218642393832782 0.06195733828964885 0  0.8209227267418386 0.06372191617656911 0  0.8189238458282865 0.0637888123164434 0  0.8199812001077212 0.06548607590280699 0  0.8179823209918509 0.06555302576472886 0  0.8190396860654467 0.06725061192530293 0  0.8169249545255046 0.06385539798170742 0  0.8159834384520563 0.06561987330473597 0  0.8210385669803456 0.06718371582574344 0  0.8367832167164446 0.08918612311557067 0  0.837724731106953 0.08742159749873074 0  0.8397236123120099 0.08735471007051863 0  0.8386662454974801 0.08565707188182986 0  0.841722493517111 0.08728782264222892 0  0.8357258499018996 0.0874884849269138 0  0.8337269686968416 0.08755537235510459 0  0.832785454306316 0.0893198979719942 0  0.8439173315114104 0.09437073898284228 0  0.8694751255399238 0.07942707103642602 0  0.8739509926444091 0.06368011534135991 0  0.7501362103546876 0.07128929969548865 0  0.6178784582660896 0.09130244336529221 0  0.6252572431383608 0.06322694032455237 0  0.8671286870627626 0.06910746704825146 0  0.764559689211883 0.04481328196000989 0  0.8132747469502296 0.07437559141575699 0  1.198919028648158 0.04584525614010139 0  1.200916463895773 0.0457786207692425 0  0.874590980728121 0.01390985967492285 0  0.8446775841109747 0.05599457353666507 0  0.8731253306779334 0.06890680476364135 0  0.7457910580359491 0.0610371703560928 0  0.6203258058028914 0.04616844389116664 0  1.182794747937101 0.07238471305193965 0  0.8244423722140276 0.07920095626826701 0  0.8224434910091258 0.07926784369672454 0  0.8235008578235088 0.08096548188512909 0  0.7222832483532104 0.04622537069930051 0  0.6114063756040579 0.01182292540523911 0  0.8714740067449763 0.07936018360821367 0  0.751182498598002 0.04014927684405181 0  0.7886942415416339 0.08733003967843045 0  1.155752300374935 0.07155066635240259 0  0.7417946464439008 0.06118482752004641 0  0.894799154663061 0.06467721516247985 0  0.8939206341942204 0.06646996062774012 0  0.9020659924228963 0.03674630394476983 0  0.9031232867486009 0.03844208507140007 0  0.9011244307022013 0.03850972073238114 0  1.171752653014819 0.01025637213171332 0  0.6201462461718333 0.006388026833269791 0  0.6190082015705554 0.004760806425196389 0  0.7797313653928614 0.05654593887844861 0  0.8118698393914036 0.06229195573534236 0  0.8129271986599497 0.06398936841754911 0  0.8109283127245988 0.06405611448431833 0  0.8119856774931101 0.06575369152829912 0  0.8099867951586612 0.06582054520549591 0  0.8089294282695799 0.06412290479001789 0  0.8079879691162084 0.06588737601833164 0  0.8090452796919557 0.06758503866067217 0  0.8070464637525403 0.0676518872101329 0  0.8923033375697522 0.04400316409562023 0  0.8913617451742359 0.04576745400397518 0  1.138580616517144 0.06692364227401537 0  1.13949802827652 0.06515527600657398 0  0.77212390361039 0.07055353798511597 0  0.8605380863291409 0.08145914636605081 0  1.189749016458794 0.04095335738326886 0  1.191747902906468 0.0408866246182104 0  0.882409927159171 0.07726122080217093 0  0.8833514415511454 0.07549669522904337 0  0.8853503227560355 0.07542980779542248 0  0.8842929559417465 0.07373216961431522 0  0.8862918371468315 0.07366528218646945 0  0.8864076893905855 0.07712744685070905 0  0.8873492038526957 0.07536292079757809 0  0.7481298287545628 0.03851495771846078 0  0.7191101404876508 0.0411332279045238 0  0.7180528512206839 0.03943522864557725 0  0.7699700989694236 0.06379262549731965 0  0.7685737941216673 0.05170968506272491 0  0.7676310893888614 0.05347205308599595 0  0.6077379914450253 0.02233310847710973 0  0.6078132933328227 0.02579331305945597 0  0.7385103956200011 0.01976747152693727 0  0.7400259519053287 0.0681615730310801 0  0.7454286384022073 0.08011192777969239 0  0.89241904239088 0.04746497253285951 0  0.603771137058302 0.08832435306726133 0  0.7471958147591288 0.07312071274053303 0  0.8098709480841291 0.06235854126644375 0  0.8584527426967649 0.01914019787087292 0  0.6300307825864667 0.006155769219392248 0  0.6105781388591296 0.01704920891100046 0  0.8828878703303547 0.06164814061676133 0  1.187455646609414 0.01756349073753755 0  0.8984121633448711 0.04724997319596773 0  0.8525572565071682 0.05226486001838357 0  0.8534987708976922 0.05050033440155238 0  0.8554976521027561 0.05043344697335585 0  0.6273976870226722 0.01129570712703056 0  0.6284542169882144 0.01299385450734578 0  0.6304531302397222 0.01292793172412049 0  0.6264553030103702 0.01305975525993253 0  0.6244563894375075 0.01312566829607447 0  0.7436614558271463 0.08710314650447376 0  0.7422565379587249 0.07501901321366727 0  0.8466764653160297 0.05592768610845852 0  0.72933809395257 0.04774106554151761 0  1.13576345700386 0.0722186040412557 0  1.132833082740988 0.07403021658647152 0  0.7270911502896873 0.07032742326005523 0  0.75541038929424 0.04694081215614449 0  0.7540134174042387 0.03485576066520222 0  0.8507900801501962 0.05925607505751469 0  0.8474874322842527 0.08016283274661319 0  0.8454885510791723 0.08022972017481053 0  0.8444311842646719 0.07853208198622509 0  0.8285740857675145 0.05306573092072568 0  0.8315129275715907 0.05123205104817972 0  0.7490716684972561 0.03675157171640317 0  0.7474229290991562 0.02127112688132986 0  1.180813687233765 0.04298611070326981 0  0.784706933709346 0.05818921134101211 0  0.8066841462024265 0.08672727086459026 0  1.15611890521951 0.01511224465045453 0  0.8526392759931568 0.02627703896409228 0  0.7988895786824362 0.09382630493937297 0  0.8000598295363164 0.09545726732955657 0  0.8678384966052084 0.06041861382049494 0  0.8892322327424695 0.07183386914351328 0  0.8808706152273872 0.01683668191448522 0  0.7921447721104848 0.06990231321326973 0  0.6218855966659103 0.02878788703496327 0  0.7411991711440296 0.07332137502512816 0  0.8696056729619404 0.053427398781537 0  0.6186763835010799 0.02023677968961955 0  0.8736449414473407 0.02401495895076457 0  0.8716045541548914 0.05336051136088095 0  0.7320150824218445 0.03556992192171425 0  0.8029144298185591 0.09367619019557456 0  0.8036690226189056 0.09525160047017261 0  0.805974336674089 0.09541612396139011 0  0.8546789172108475 0.02620044631560722 0  0.8738351402196272 0.06021795153636278 0  0.8728936258297217 0.06198247715281359 0  0.8718362590151854 0.06028483896417548 0  0.860668633751476 0.05545947411101659 0  0.859611266936926 0.05376183592239478 0  1.172361461492947 0.01715659435247268 0  1.173509832359164 0.0187940449164478 0  0.8419688933634949 0.06475031419263902 0  0.8707925919891896 0.02912620653601732 0  0.8698517833125752 0.03089011055055291 0  0.8709092677460767 0.03258764513881179 0  0.8689104815225428 0.03265447208813265 0  0.7939573860070195 0.06300777635299107 0  0.7755277089019958 0.08257078016206015 0  0.8597418143592686 0.02776216366731857 0  0.8126807898314639 0.08652660845054418 0  0.7819643520847017 0.06339934930791141 0  0.6318674802177808 0.09086328108398048 0  0.7826975781343877 0.08753011049489802 0  1.158180723563227 0.02710177782934649 0  0.7547136899701949 0.08846600960341344 0  0.6076533191235698 0.08472862532120125 0  0.8069133417264713 0.09357661930980478 0  0.8647822485856371 0.05878786306007232 0  0.898228331187697 0.07322410845166336 0  0.76351969020056 0.05014298112704805 0  0.8774706503606781 0.07915952128321897 0  0.8226857510878163 0.05673771031940011 0  0.8286718394721702 0.08599150902287883 0  0.6142169763694679 0.04290682768339155 0  0.6132723567345439 0.04466513852866548 0  0.6122210888328932 0.04297565100764798 0  0.6113039500934409 0.04475279824019786 0  0.6123574733836489 0.04643825566235317 0  0.6175172532037653 0.01508710664093543 0  0.6184596457350154 0.0133233168986718 0  0.6204585603239989 0.01325743468280505 0  0.6194020309493828 0.0115593052260019 0  1.166801423883383 0.07291128222613502 0  0.6085949437332379 0.08296414395549272 0  0.6231512716945365 0.04088089447018545 0  0.6241032964457105 0.03912323111380334 0  0.6260934756880282 0.03904628809791448 0  0.6250428229631276 0.03735133642841805 0  0.6270353656444442 0.03728734585533512 0  0.6260223289012825 0.03558963577227791 0  0.6280912273845964 0.03897923216137892 0  0.6290330083631137 0.03722109839029188 0  0.6300897201094924 0.038912608547675 0  0.6310316681326873 0.03715585278785943 0  0.6300085277245678 0.03545855961910582 0  0.6320885043882656 0.03884651901553519 0  0.6340873701589513 0.03877986320858763 0  0.6311466505665261 0.04060900792958511 0  0.7605780832625403 0.05197022489922141 0  1.177740018248725 0.07081564070445404 0  0.840780979126577 0.08905234825913851 0  0.8437213747221631 0.08722093521406782 0  0.7687054033203555 0.08799813186928274 0  1.14176011430542 0.07201835107331588 0  0.758712035683538 0.08833191290997192 0  0.6024919163703677 0.07969650313765346 0  0.7393050782888286 0.04399869227487825 0  0.8997094949256599 0.06278616415958939 0  0.8645358487392463 0.08132537150964904 0  0.7452624591450938 0.01444470884149814 0  0.7443685507743605 0.01613245528588351 0  0.6083123022398433 0.04311564804537685 0  0.6125926900676162 0.08282981724518705 0  1.153111654618459 0.05432133095746654 0  0.6243419913910342 0.06493702229080497 0  0.7603655186566441 0.04130747782321911 0  0.8537157807474594 0.08688649807294853 0  0.7846964604025637 0.08746325483726348 0  0.7857539183527404 0.08916361655208557 0  1.132659672106567 0.08549026628999501 0  1.133618717433331 0.08724146220963651 0  0.826441253419075 0.07913406884007491 0  0.8086830274051557 0.08666038345817535 0  0.8097403942168404 0.08835802167356664 0  1.15732365430435 0.02889804023021608 0  0.7715153617334665 0.04987847495711594 0  1.159798941146034 0.01130996433737097 0  0.8121015277116095 0.06921578942109807 0  0.7376647995798934 0.08730381180978018 0  0.7428509154706477 0.06287099498915735 0  0.762804142075457 0.05882914316229948 0  0.7207469006757679 0.0601415552879865 0  0.7462448665396201 0.04204252749403735 0  0.8451409938071439 0.06984322875853535 0  1.174353720713038 0.01698080129136089 0  0.8794206233308461 0.01174772241603268 0  1.165305872150466 0.02821184915832848 0  1.136658971179123 0.08558361636565102 0  1.137615036691046 0.0873365607917275 0  0.7436780703069676 0.02479689876695465 0  0.8752400643070344 0.0723020811408871 0  0.785522114927323 0.08223634302105441 0  0.9032390961761982 0.04190382108556989 0  0.6313955162264948 0.01116389734029049 0  0.8058733343208717 0.06249203648334146 0  1.150286309065506 0.05961439472600526 0  0.7256860345184502 0.0582437823636893 0  0.7247446931193361 0.0600079968269239 0  0.8961866371689939 0.04040771623710454 0  0.8981839669515245 0.04033995775335442 0  0.8452715412293474 0.04384355650344396 0  0.8575976907335723 0.08329055941106514 0  0.9006512629093084 0.06102219800353645 0  1.170866273678324 0.07951655033221353 0  0.8302073109811948 0.07207596637278459 0  0.7442459417554845 0.04210809955216612 0  0.859857666783285 0.03122432747277766 0  1.175806574093391 0.02206894604126457 0  0.8679473865120225 0.09331718828321552 0  0.8689738156512563 0.09494876792124107 0  0.8659234469407597 0.09336586297337948 0  0.7832915557317923 0.07537970545508639 0  0.6411411086464831 0.0402759291979061 0  0.8276309696495489 0.05483239721496654 0  0.8277303250816025 0.08775603463985429 0  0.8376235736812139 0.05449759763265599 0  1.192095093188963 0.05127256462854293 0  1.193036651944491 0.04950806269461672 0  1.191979354215372 0.04781039567888794 0  0.62573671566269 0.09126704521330634 0  0.8332635590007961 0.07370671713321668 0  0.7737414348120831 0.0567373814744111 0  1.161748951630717 0.07135039368759957 0  1.168446494291433 0.02967335807084166 0  0.8382028358014446 0.07180841666001364 0  0.604199734068807 0.03986576939502705 0  0.7459067430964591 0.06449874694100112 0  0.8955556438686822 0.05254228648564287 0  0.846908170164114 0.0628520137193886 0  0.8500802706077859 0.06794492828527313 0  0.8843067434115821 0.04427103945452383 0  0.6070556984495687 0.03447642206238558 0  0.6061265643714957 0.03622723926794059 0  0.874646107272506 0.08445309811921264 0  0.8312646777957357 0.07377360456141674 0  0.6084429203890281 0.04656774503843195 0  0.8411432313970213 0.06997700361499151 0  0.89724271739137 0.04210464984163505 0  0.7493000407908905 0.04367528904837392 0  0.7462543003686265 0.07488523835737917 0  0.7656321647355333 0.05353765979342541 0  0.8852344703323735 0.07196764399969094 0  0.8962691815686501 0.07331835572979722 0  0.6044984686361323 0.05019816565428784 0  0.6036213554228745 0.05192152211605532 0  0.6046736455905809 0.05349883549098554 0  0.6025993649634994 0.05370750641878067 0  0.6012669954987896 0.05194391043811943 0  0.5992139750661737 0.05264046216825406 0  0.5997549367346953 0.05077106912640551 0  0.5977119473144745 0.05103785986685842 0  0.5973524002996687 0.05321333091352923 0  0.6025467814906517 0.05014295699966288 0  0.6035077585333685 0.04845928357045371 0  0.7386063297461793 0.08553928056239005 0  0.8092769845401144 0.07450936627246009 0  0.612577051906262 0.01698327992873231 0  0.8166785522417426 0.0863928335927321 0  0.8781951549008866 0.04100883203534113 0  0.8761964180038846 0.04107562959229367 0  1.14575788315959 0.07188476891968061 0  0.7617712782343504 0.0899605685994679 0  0.7627094724403128 0.08819809414406685 0  0.7202843105866121 0.0462914395826368 0  1.160172982568223 0.02692598496588598 0  0.874313237266342 0.04460477546105285 0  1.153053847227618 0.02581169637633871 0  1.151142428370249 0.02594896585133564 0  0.7692993606450576 0.07584712099804915 0  0.8526584139329083 0.08518885988431843 0  0.808911804937485 0.09349723323943732 0  0.8096646574427245 0.0951044483109509 0  0.811970980289299 0.09521546167669262 0  0.8787744170208136 0.05831965106279168 0  0.8807732953442033 0.05825276542941433 0  0.7413384200045323 0.0144757536529783 0  0.621515085526303 0.0149554375880534 0  0.624665783929382 0.02004682447287115 0  0.6386589582106448 0.01958602287725465 0  0.7509618679097878 0.06606261302077891 0  0.8759498738494111 0.06361322791319719 0  0.7332290567638285 0.01127637288857793 0  0.7333427192826362 0.01473804886445945 0  0.7491857492291998 0.0402134959428915 0  0.8590173098185369 0.0659128529555906 0  0.8514851946943709 0.08002905789020617 0  0.7216884784626287 0.0583769535758869 0  0.8342050733913204 0.0719421915163824 0  0.6210431196783561 0.03401966033620752 0  0.6033202293326752 0.0744748999000714 0  1.193978222549738 0.04774356721550076 0  0.8662018676704997 0.04141015660458358 0  0.8652603532799892 0.04317468222141532 0  0.6371433181732619 0.04040899273044038 0  0.8129106011212057 0.0933943486360683 0  0.6066754696368379 0.05352161286193469 0  1.189980472823505 0.04787721755092973 0  0.8954600023532631 0.07855789220980493 0  0.730379103019633 0.07888250149605888 0  0.7323779844705771 0.07881561406054211 0  0.8149089189084223 0.09331062376788374 0  0.815968742699432 0.09508168682022887 0  0.608363692642458 0.07603738813933436 0  0.6103663924156988 0.0759533575188282 0  0.6060028799203736 0.03277614786659212 0  0.8766596832886325 0.05492437474973516 0  0.8786585645317398 0.05485748729782843 0  0.8796000780402511 0.05309296223035195 0  0.8797159280381163 0.05655512754694166 0  1.159979946578564 0.07829445503897615 0  0.8623199576843862 0.04500609526642853 0  0.802686383571858 0.08686104777780779 0  0.8912259403486497 0.03885782126805493 0  1.199743417387539 0.0406187795032877 0  0.6044830811622592 0.0796345200159979 0  0.6015870098320105 0.08148030984609307 0  0.8760802207713891 0.03761368092421428 0  0.6127083100649001 0.08629160367964457 0  0.6023601479035753 0.0433502126662302 0  0.8510217849982937 0.06618040266843028 0  0.8186774334468808 0.08632594616384054 0  0.8197348002614019 0.08802358435272128 0  0.6183968714387784 0.06844065368529331 0  0.6295107391767527 0.01469176600116713 0  0.7503561783954199 0.04537369223181244 0  0.86678112979065 0.0587209756318814 0  0.6225878785152776 0.08249525994479667 0  0.8213249580564937 0.05486913005676779 0  0.8564391664932625 0.04866892135650908 0  0.8550195474084208 0.06604662781201467 0  0.8540780330179272 0.06781115342884894 0  0.8520791518128583 0.06787804085706242 0  0.8531365186274189 0.06957567904566958 0  0.838226898011087 0.04236718663161794 0  0.7444871240115603 0.08187645339659827 0  0.7602464688047341 0.0744170263804417 0  0.7425081254914621 0.01963626225838626 0  0.7414518813798372 0.0179379320917355 0  0.7423903831562386 0.01617801682059212 0  0.7372014087375319 0.07345514987928327 0  0.6128126923126617 0.05668252963947974 0  0.6233998591765092 0.01142751195410332 0  0.8549184015474296 0.03312263411673051 0  0.8907337338376036 0.05790322844451855 0  0.7639773802509696 0.06398759267597623 0  0.7439055201371536 0.03172105372816932 0  0.759072699687827 0.06925946397079324 0  0.8504425228780697 0.04886958364112748 0  0.7961405926995458 0.06976783369245787 0  0.6224574742580014 0.01319153260058181 0  0.8517315945407016 0.0574915494406829 0  0.8821782223127361 0.0703368932394664 0  0.9008926576990524 0.03158421709740894 0  0.7514125397199137 0.04707195627889786 0  0.7653015980418372 0.07598089008392733 0  0.6194438890234416 0.07362707381967372 0  0.8808891237292757 0.06171494420744533 0  0.8542085807007403 0.04181148131283625 0  0.8484436416730027 0.04893647106933374 0  0.8804256700740002 0.04786631636548319 0  1.149113758912794 0.05445451115351568 0  0.7595366592615137 0.0831058795876916 0  0.7544678004316998 0.04870459382937628 0  0.7789315141936859 0.09458802233951825 0  0.8558306596049075 0.09028010937175091 0  0.8806574377801901 0.05479060482537441 0  1.191017685770101 0.01383563231987581 0  0.6164607310393446 0.01338919587872748 0  0.7540175865896536 0.06769369347824654 0  0.8686784504942212 0.02573379649708605 0  0.6169432866264971 0.03069239100603454 0  0.8552659472980952 0.04350911938558623 0  0.7597492881206849 0.05719547443450424 0  1.183604629888902 0.08842827475953161 0  1.182646050948196 0.08667527458348273 0  0.6451389236352028 0.04014278648479397 0  0.609407495483165 0.01188911684340606 0  1.171690347456637 0.08468246416276537 0  0.6158675284421065 0.0913705587459076 0  0.6169373915360904 0.09308362775130402 0  0.6147291286532185 0.09311403900959223 0  0.7807863148161456 0.05824525708072221 0  0.8933605913638303 0.04570053177560399 0  0.7289741794173851 0.06679837578361672 0  0.7625770028462466 0.0519053856824742 0  0.7615207500145051 0.05020681887472642 0  0.7604644922714459 0.04850807877408828 0  0.7334562960606772 0.01820028357487225 0  0.7390782696407275 0.03707866962843706 0  1.133541336306326 0.08052534950044553 0  0.88054159034348 0.05132843791358845 0  0.7179222925814779 0.06543533498414007 0  0.8644346913134906 0.04840137164366967 0  0.7420248331103954 0.0680946856028677 0  0.6101973289828679 0.03958759219938641 0  0.8426640079076204 0.08552329702536474 0  0.8771230930880765 0.06877302990723325 0  0.7777371032562318 0.05660768799502332 0  0.8802655403382136 0.009935024837858835 0  1.154284091635302 0.05948122369067177 0  0.8780646074785877 0.06700850429040385 0  0.869837377810229 0.06035172639231424 0  0.8992413781295836 0.04203762444303378 0  0.8106980164221984 0.0571738802162763 0  0.8539768826076973 0.03488715730619585 0  0.7681263582611254 0.07069379954496587 0  0.8763120576044285 0.04453792594372722 0  1.185866970025991 0.04454869723036515 0  0.8290340917425911 0.06691616437868439 0  0.8299756061330861 0.06515163876184146 0  0.7483573468250923 0.04543920631949003 0  0.6121046978742796 0.03604042742037758 0  0.8465606128919809 0.05246552230297771 0  0.8758195416442345 0.0896130271371582 0  0.8511376374223462 0.06964256647389244 0  0.8712569968951801 0.04297401993680221 0  0.870778892200206 0.05858720077581692 0  0.731343785583544 0.01480362413226446 0  0.6175324705273428 0.08093128766915411 0  0.6155332550770543 0.08099604760242675 0  0.7389685850907459 0.06646393484246411 0  0.8719521114393368 0.06374700276956591 0  0.8830038842792259 0.06511020381717277 0  0.7761249316475478 0.07043712485823739 0  0.7770983379979151 0.0686934386985717 0  0.852788961355251 0.05918918762930665 0  0.8578440905799365 0.06075305096152955 0  0.8587856049704432 0.05898852534469196 0  0.8980707736693172 0.03688215223436737 0  1.150813017005931 0.07345050658736542 0  1.152811874710987 0.07338291776942173 0  0.6115353338860597 0.08112915439649268 0  0.8432726600242881 0.0439104439316448 0  0.8443300268388392 0.04560808212027676 0  1.149755676310185 0.07175191372146646 0  0.8461983606217076 0.07154086694715379 0  0.6015337608997378 0.01562409677900649 0  0.8158677068122151 0.06216131904566458 0  0.8744144023408574 0.07752877056180414 0  0.6335085692995139 0.01456002473268423 0  0.7401345187238708 0.03877700365227409 0  0.7947919580568086 0.05779794316235849 0  0.74990251161484 0.03152705639391221 0  0.8751242118829967 0.06883991733543238 0  0.8147117302633449 0.05701330169144597 0  0.7220501290953396 0.03930248644687953 0  1.194093997915543 0.05120689716909534 0  0.7636332522546013 0.05360350679279972 0  0.8512681849779755 0.04364289429000166 0  0.8492693038764179 0.04370978177343691 0  0.7396457231001443 0.05438897403392853 0  0.8861759847228767 0.07020311838303049 0  0.6016563196839605 0.02252528707574674 0  1.17100730560448 0.03635278088157633 0  0.7496581056537203 0.08690248053316546 0  0.8456190985014735 0.05423004791982307 0  0.8260936961470323 0.0687475774237134 0  1.158454596684408 0.03043819042925148 0  0.7766815536690508 0.05490859800341148 0  0.6403582441096338 0.06478038121433552 0  0.6393136529395778 0.06304043360438263 0  0.6412666070074089 0.06301636287215057 0  0.6286644825390602 0.01991572010105859 0  0.6167061049309503 0.08615852876933072 0  1.164278548059792 0.05914829610356209 0  0.6234120764633357 0.07012791755761942 0  0.6254093030782872 0.07011310509422193 0  1.179791878895369 0.02172485166353465 0  1.153753433443063 0.07161798141509368 0  0.8772043918067535 0.02062574223668033 0  0.9024099194983222 0.04711593160009998 0  0.9033880060292867 0.04880967364634682 0  1.158808493801819 0.0731815194239724 0  0.6255129187564851 0.01482379606535982 0  0.8396224548862626 0.05443071020445034 0  0.8704166399304303 0.07766254541958637 0  0.8593648670906003 0.07629934437196623 0  0.6271492366496063 0.04074244337038066 0  0.8642029864654335 0.04147704403278016 0  0.8370296165628646 0.06664861466588692 0  0.8588002999687433 0.0295266892841425 0  0.7677638889298349 0.08976265748637186 0  0.7635344216716647 0.08297210473154812 0  0.7353416438791072 0.01467247690283124 0  0.6073778512505777 0.04487467580503329 0  0.6191560516501802 0.04101333119906462 0  0.8885370302027955 0.0510608394634431 0  0.8741826974924893 0.07060444295225973 0  0.6220735560175815 0.03572962693650739 0  0.768687336384174 0.05517022437076309 0  0.7298000660417916 0.06157300751251849 0  0.7288583728879848 0.06333649918030493 0  0.8366820592906858 0.0562621232494982 0  0.841490788669053 0.08036349503123313 0  0.6113578028765645 0.07411435514402022 0  0.7424882428065058 0.0819433408247969 0  0.7369657745750443 0.03368198501011812 0  0.7585792488924044 0.05203571973789974 0  0.7619621748640718 0.06404725923274016 0  0.624701636148246 0.08589223840710741 0  1.182561067366385 0.065458737884448 0  1.181473618816431 0.06375721759840124 0  0.862899219804625 0.06231691429373099 0  0.8630297672268696 0.03631724203869234 0  0.8650286484319296 0.03625035461049188 0  0.6173510956440014 0.06325720412099226 0  0.6223583267611463 0.06494329084371903 0  0.818098171384818 0.06901512887084291 0  0.8459666557736142 0.06461653933622184 0  0.7666884109782544 0.05523576404836959 0  1.184809851077815 0.04285117368051731 0  0.8708460400559589 0.0055447280164967 0  0.6065803255266664 0.01718086324464716 0  0.7253239707911814 0.077318635088604 0  0.8326696018823108 0.08585773416641146 0  0.6063526063281997 0.01025961531278685 0  0.7475265212776581 0.05064772988630132 0  0.8800257159040258 0.01864944872857445 0  1.169289074162854 0.02786016237282209 0  0.8252680341805487 0.07397426684599374 0  0.8619724004123366 0.03461960385005728 0  0.8613784432938789 0.04677062088325637 0  0.8624358101084308 0.04846825907188224 0  0.7341150371109599 0.03895831694414991 0  0.7577776574811007 0.09009174512292296 0  0.6217680402495445 0.0911169289057544 0  0.6054101342097119 0.012021451255787 0  0.8338805360188031 0.09450645618445411 0  0.8361108827661415 0.09640629135080837 0  0.8653615107057552 0.07609868208736793 0  0.8633626295007032 0.07616556951555464 0  0.7593049544137975 0.07618155198449683 0  0.6373720066306047 0.0699957945845254 0  0.6298890392393207 0.09091991082600487 0  0.865492058128054 0.05009900983232635 0  0.6026059517805278 0.08316670844991518 0  0.8480971668204786 0.03855055720954711 0  1.188213163085392 0.05487137248504121 0  1.193152562666671 0.05297509188453956 0  0.7396803082524468 0.02492795035864948 0  0.8883065270157258 0.04413740137367074 0  0.602823172429758 0.09008623403421992 0  0.8471560007114045 0.04031526866220227 0  0.8591478572407714 0.03991318070054148 0  0.8585392051240854 0.08152603379424234 0  0.8595965719386147 0.08322367198286533 0  0.8850026602090351 0.06504338195922039 0  1.174273353043747 0.05881532966685024 0  0.8802951935316983 0.07386594447311987 0  0.6126909676608752 0.02044540435187777 0  0.6331455283548538 0.04054241407943508 0  0.8544402852881993 0.04873580878471582 0  0.6264081179749934 0.07186721039844537 0  0.8268035056893999 0.06005872419591297 0  0.8647675537006465 0.08824969904990584 0  0.7717616012395956 0.08962746894397336 0  0.8057426316098213 0.08849179836697808 0  0.8712423018968998 0.07243585599729488 0  0.7351843546867373 0.04066525432302264 0  0.805279222129974 0.0746431411286273 0  1.193514199865731 0.03392371214101199 0  1.192291016083041 0.03224282646386707 0  0.835030735357806 0.06671550209409342 0  0.7434171832669835 0.04733442766607116 0  1.174893173572604 0.01171728392611318 0  0.608807212154873 0.0898332588546384 0  0.8325687527781458 0.0529330601231455 0  1.159750067940144 0.07141722598217265 0  0.7482436515738187 0.04197704234948578 0  0.6353933657613229 0.01103210917541169 0  0.8318586349140563 0.0616225875281565 0  0.7507291043786042 0.05913931030581827 0  0.8518474469647495 0.06095371324613982 0  0.7537716938648548 0.09023055222986902 0  1.183775646218673 0.02136620398271205 0  0.8219800833630722 0.06541924974542443 0  0.6152904829212549 0.0082379341797183 0  1.167548506975559 0.09150345408830524 0  0.7470799623350718 0.06965854893506729 0  0.7397944924206562 0.06124323732892257 0  0.8937664316863447 0.06299849648607232 0  0.7534115264929221 0.04700628192022799 0  1.125769048728899 0.07255297405429174 0  1.122905826060629 0.07460739325578628 0  0.9097042736063532 0.06245224075498141 0  0.773297125860044 0.07571342996292964 0  0.7448496416050083 0.06280229364446174 0  0.7583634400231044 0.07794607759572846 0  0.8727777734029047 0.05852031334908728 0  0.7293448465856774 0.01486920515033447 0  0.8528828571736279 0.09210536812000675 0  0.8200970526092131 0.06894824202069484 0  0.8319744873381688 0.0650847513336536 0  0.882306767924133 0.04433849124650101 0  0.8833656189405781 0.0460352089121113 0  0.8853649651340935 0.04596806597960438 0  0.8330318541527379 0.06678238952229101 0  0.8725460684682771 0.05159598579209364 0  0.8714887016753767 0.04989834758998778 0  0.8705471873324919 0.05166287317714859 0  0.8530353813633074 0.03665168993753314 0  0.7488627905398592 0.02984650611454134 0  0.7503679152028041 0.07821362730641633 0  1.159110075533225 0.05412139328583691 0  0.7980410054666655 0.06630371711970234 0  0.8827720706317647 0.05818594397148427 0  0.9057060069181333 0.06258599789832678 0  0.8317427824900376 0.05816042372269423 0  1.152134381138578 0.01546383186221347 0  0.8586697525464079 0.05552636153923642 0  0.8703660975273457 0.01080282793538066 0  1.149706667594195 0.08067165483511325 0  1.151670496238073 0.08069287431925447 0  1.152069142297057 0.07873760537916256 0  0.7551913395793814 0.07285316302790078 0  0.8067478368963262 0.05717465056544387 0  0.8539047193119655 0.09371024633756767 0  0.7593025805106871 0.04329730868653861 0  0.8900271615188817 0.06662377573977057 0  0.6136335831721065 0.01868146674897545 0  0.7678582348062939 0.06039633680937939 0  0.8877108989158803 0.05628747073661483 0  1.173742251362579 0.07094928173127298 0  0.8633773244989414 0.04670373345505398 0  0.7715299464918906 0.0827045550184914 0  1.163853013051985 0.02312370971483908 0  1.165845236792006 0.02294795151484033 0  0.7977467553528912 0.08876207874908942 0  0.7786998065016146 0.08766361000237906 0  0.8449092889590514 0.06291890114759063 0  0.6531344517228771 0.03987652044472992 0  0.8384492356476929 0.04927090821035179 0  0.8873641689453492 0.04590132310080614 0  1.163611159976121 0.08795471766557007 0  0.8643188388894687 0.04493920783823039 0  0.8178666483971559 0.06209623602543723 0  0.7769103061714715 0.06183196438617006 0  0.8658543103984979 0.03102366518815183 0  0.860306381481121 0.07453481875511872 0  1.197628797420005 0.03722343233508116 0  0.8240948149419518 0.06881446485190179 0  0.865607910552078 0.0535611736377892 0  0.8955763166039712 0.0820197172217942 0  0.7749114018809028 0.0618974667903404 0  0.8991262350868636 0.03857721679357667 0  0.8611320434476055 0.06930812933283104 0  0.7394530514479083 0.01800355543327645 0  0.8905358968467223 0.05099394421852377 0  1.192689509396767 0.03912309981016918 0  0.8537304757457568 0.05742466201247854 0  0.8788782579734538 0.0170113579510538 0  0.8704313349173785 0.04820070936614188 0  0.7895198773374363 0.08210256816462923 0  0.8110441614440035 0.06751816757819021 0  0.8986524560196989 0.06108895483739391 0  0.8785427088135537 0.05139532554413058 0  0.7549568733879892 0.06593436279439004 0  0.6056068493576403 0.05522401408610544 0  0.8141004089166821 0.06914890199293494 0  0.8130430425608537 0.06745127751400018 0  0.8150419235093392 0.06738438241862643 0  1.186692806745364 0.0393220290005412 0  1.13881954978081 0.07384644625036524 0  1.167694807692817 0.08459017957729675 0  1.165746069752158 0.07121624120903172 0  0.774684544870216 0.05497299196255157 0  0.7698571594529637 0.06033076484063674 0  0.8585685951207186 0.02260236167322888 0  0.8455032460774287 0.05076788411436051 0  0.9021817461593384 0.04020644927910018 0  0.9001829953339271 0.04027361292083829 0  0.8274986202336101 0.08083170702869813 0  1.179153208118686 0.05343782466085339 0  1.179252736880686 0.05689451610201158 0  1.180544454594582 0.06552237661270309 0  0.8700837776565855 0.03781421794270891 0  0.8523108566609254 0.07480236846795475 0  0.824920476908377 0.06358777542957207 0  0.872183816287414 0.07067133038046466 0  0.7709133030968469 0.06202903538281797 0  0.8328001493045682 0.05985806191132988 0  0.8666797293668772 0.02579831968308201 0  0.8522097001218645 0.04187836907514331 0  0.7333194988046132 0.07705108850318718 0  0.8468698752084798 0.03334594576849696 0  0.7424741652485578 0.04909815020099786 0  0.7404762945153787 0.04916242724057798 0  0.8050477947230543 0.06771864103391888 0  0.7442554191635991 0.07495212578557126 0  0.8344529788051505 0.04940625743917937 0  0.8017448654958843 0.08862560778111822 0  0.7839632070238555 0.06333399975659217 0  0.8904054511666737 0.07699367310844908 0  0.8560769142229714 0.06774426600063342 0  0.6260426643524643 0.006263252752766608 0  0.7406773380886755 0.05607370748036936 0  0.8229215998347108 0.0636547863214286 0  0.7346261208395656 0.02336085570765235 0  0.7326271957650367 0.02342642744246862 0  0.7220360211098298 0.06876356029601351 0  1.175689303769451 0.08477427437476477 0  0.7888447082665569 0.05779829634542526 0  0.8438519221444925 0.06122126295896092 0  0.7494264008122908 0.07997815292328125 0  0.8562074617152989 0.04174459378298885 0  0.7562487063939455 0.07455080121673156 0  0.6095365459941686 0.081198966433443 0  0.7468483296014072 0.06273451667626152 0  0.8570331236902187 0.03651790436517161 0  0.8574965333078107 0.05036655954514267 0  0.8646810506602327 0.02586408718028351 0  0.7481373291496287 0.07135618712369997 0  0.8453726986552035 0.07676755636943461 0  0.6103500692627524 0.01012615824219484 0  0.8882907183338185 0.07359839483006556 0  0.8069307922343787 0.06418962082889687 0  0.7817560630590814 0.08929461577668975 0  1.146815189677307 0.07358233890316049 0  0.6162508965500914 0.006537796618031411 0  0.7535400156463574 0.08330654187238525 0  0.8638554291934388 0.0310905526163628 0  0.7487165908857208 0.08866700619258301 0  0.872647225999128 0.08451998559186413 0  0.871589859170537 0.08282234741259847 0  0.7259326260439826 0.0357057851626402 0  1.186307275976155 0.01592604238589342 0  1.185463387451883 0.01773928438921971 0  0.8543939545810861 0.01580623508927399 0  0.8289029829185496 0.0928990595596102 0  0.8338575161191151 0.06155570009996002 0  0.7657649264317818 0.08982856669771519 0  0.7312047651187438 0.07365581216617909 0  0.730263250723945 0.07542033778041468 0  0.7313206175431196 0.07711797595646619 0  0.7480208508863548 0.09375648446871317 0  0.7210944803967491 0.07052804979388394 0  1.182322757592996 0.01627762904644487 0  0.756364558817995 0.07801296502212759 0  0.8894786008181788 0.04929634380884085 0  0.8665494249425956 0.05179664802095857 0  0.6145915762514553 0.08276231683033089 0  0.7450750372067447 0.03688195814840083 0  0.7594208068376165 0.07964371578340272 0  0.7264971047733235 0.08247821423381609 0  0.8149260993957489 0.06392306465106859 0  0.8571489760848974 0.0399800681549913 0  0.8021074150860164 0.06955457606197879 0  0.6324520450974029 0.01286203490516536 0  0.7600176934713915 0.06752400828177323 0  0.8818305756402072 0.0599504575057556 0  0.8426787029058709 0.05606146096487855 0  0.8514998896926189 0.0505672218297538 0  0.8824244910334557 0.04779947101904959 0  0.8399566536273159 0.0941727451969403 0  0.8410126839746132 0.0959766758700656 0  0.8378867503995691 0.09452459521296927 0  0.8893480849310036 0.07529603363877004 0  0.8834680932361614 0.02356371171470975 0  1.178877716280525 0.01136608394922595 0  0.7543540115289 0.0452425476960973 0  1.14281734608622 0.07371368528375567 0  1.170908634204238 0.01206864395692044 0  1.166474988234603 0.09329928249652927 0  0.8658396154001681 0.06048550124868777 0  0.8552512522565006 0.07297095542288964 0  0.7359123480150247 0.06483351113447233 0  0.8685483061442323 0.05172976059488223 0  0.8580757954280096 0.06767737857241352 0  0.7427500119949675 0.02654354765533853 0  0.846213472703063 0.04207925343355266 0  0.887595493913183 0.05282536177755607 0  0.8832355891272707 0.0720345314276591 0  0.8258619912988865 0.06182324981274306 0  0.7684736984724491 0.08107380426180047 0  0.8887638147854291 0.05798458722502745 0  0.8729067365538008 0.03252164037903352 0  0.853830889718053 0.0903463434350551 0  0.8764132835460591 0.07746188312665764 0  0.8229058585080674 0.09308535363308515 0  1.184550465269816 0.007393154898871845 0  1.185316135129131 0.005541244606141426 0  1.168651121740144 0.08634342038287299 0  0.7466406219780428 0.05582519489531191 0  1.193008305820175 0.01027856835971196 0  0.8665621914635762 0.02233706621450849 0  0.8655037940705652 0.02063848103894632 0  0.8744290947655904 0.04806693610541786 0  0.8839452044643736 0.06334579916032765 0  1.157980144719109 0.07833319278479438 0  0.8452568462311798 0.07330539256404889 0  0.8358563973242199 0.06148881267179751 0  0.8232691529754737 0.07404115427418966 0  0.8651298058577028 0.06917435447645444 0  0.875133689415607 0.008650522432330054 0  0.7421950362557928 0.009206653598765973 0  0.8597124243626398 0.08668583578831104 0  0.8547878425603137 0.05912230020110805 0  0.808103776179072 0.06934955779772438 0  0.872531373561282 0.08105782179522938 0  0.8629139148028694 0.03285507823322626 0  1.162653137747975 0.08620106635316323 0  0.8467776227417471 0.08885168597455567 0  0.8872333515343833 0.0719007565829394 0  0.7719678684759301 0.06372667274527705 0  0.7368522484382952 0.03021969130960882 0  0.7456603398384619 0.08703625713673002 0  1.193229094424205 0.004981597964689192 0  0.8558452093748723 0.0608199383897313 0  0.8886521679210249 0.05452265091334111 0  1.164462800431962 0.03002429152969488 0  0.8822940747367203 0.07379905704369616 0  0.8734728879513122 0.07929329617731097 0  0.6116346279658507 0.01874734370083191 0  0.749194695964191 0.07305382531232213 0  0.8650139534336945 0.06571219067098497 0  1.17064944525122 0.08638987705156602 0  1.18663687880259 0.06883481787166527 0  1.157859123896459 0.08107116319334662 0  0.8475021272824909 0.05070099668615774 0  1.178665615396149 0.03614729125827523 0  0.7647077867324399 0.08813138553996876 0  0.7573060732085506 0.07624843940691442 0  0.8447787415367009 0.08891857340274389 0  0.8921698338723011 0.07001237249284648 0  0.839260202615984 0.07350605484866843 0  1.181984941067272 0.04814454789939743 0  1.199617770689134 0.03715288339974683 0  1.201801434801236 0.03696468857957209 0  0.8677372282946425 0.02749551692507907 0  0.8353958295648924 0.04764231637588123 0  0.8373923424892793 0.04757362984271103 0  0.8565550189173001 0.05213108516198584 0  0.8663177200945362 0.04487232041003364 0  0.7739674998916886 0.06366086497040369 0  0.8680702014532893 0.06734294143142966 0  0.8139845633451762 0.0656869429723799 0  0.8600746766330755 0.06761049114421265 0  0.8635074432577197 0.02070429564139522 0  0.8660713202482326 0.06740982885962628 0  0.6136499525135213 0.08452748298447062 0  0.8631309246526547 0.06924124190465247 0  1.183042249854824 0.04984218571206524 0  0.823037448478762 0.06711683716410928 0  0.8659554678241961 0.06394766505412794 0  1.162805988225143 0.07304769176508681 0  1.178100577259166 0.0517382768624214 0  0.7727031562471917 0.08786408851245903 0  0.8656220610691119 0.02410070049414189 0  0.8655932155537862 0.08302300969826795 0  0.7937269976756849 0.05618110775886868 0  0.8061049430271432 0.06941641539875922 0  0.8571342810375158 0.06944190418923869 0  0.8606539387531451 0.0849213101714833 0  0.8648981010096648 0.06225002686551549 0  1.194804077301999 0.04251692226961648 0  1.175737260209276 0.009906153135744274 0  0.871966387812962 0.03428543130842841 0  0.8621894102621424 0.07100576752146853 0  0.8324536455106386 0.04947216365342057 0  0.7308572752514279 0.06326971457202185 0  0.8344367782393507 0.07886651912726658 0  0.8624497505859399 0.0190068875143314 0  0.779293796928332 0.07551358809373884 0  0.8724302154077812 0.04813382238306455 0  0.7926909983575957 0.08719756166363009 0  0.6076368582820201 0.01887899679161987 0  0.7877528750964093 0.08909898653341641 0  0.8678531305382738 0.03095682381967959 0  0.7704725796797046 0.0810069168994825 0  0.8595101095112496 0.02083783605691832 0  0.8215019766184337 0.08103236931359632 0  0.6096357487867087 0.01881323767862795 0  1.186098442867389 0.05147302639643012 0  0.8710252120144711 0.03604974265295651 0  0.8657090680287258 0.08648517347198303 0  0.7392002899406199 0.07338826245230336 0  1.192805197151698 0.04258383890612742 0  0.8893630815721532 0.04583448239336225 0  0.8551353998324858 0.06950879161743835 0  0.7282643695132542 0.07548722520587746 0  0.7328562090779323 0.06320365562932778 0  0.8378552785292939 0.06142192524360016 0  0.7614196880427357 0.07957682835730492 0  0.7750191720026988 0.06534072345147127 0  0.8604514981483387 0.01907338786045096 0  0.8613929915917038 0.01730887516848928 0  0.8305327820190281 0.04954459012455591 0  0.8615954531436449 0.08315678455466723 0  0.795284816105805 0.07497757830312454 0  0.8001114021359333 0.06963847140996829 0  0.8284401346241451 0.07906718141186085 0  0.8687944600121559 0.02919264827930379 0  0.8759809097690312 0.006864250788859116 0  0.8779771504877624 0.006731313683916385 0  0.8769154589496868 0.004933014523469573 0  0.8632467770766732 0.07270340571008892 0  0.890420208255841 0.04753190810986434 0  0.8366673642924218 0.08572395931003221 0  0.811739275436715 0.08829113410677267 0  1.166454607216814 0.02984849974954221 0  1.165775718806054 0.01078258515416575 0  0.7262654846804968 0.07555410924873834 0  1.162839856609091 0.03696229111856837 0  0.8677079492233931 0.08641828605026547 0  1.185698484422229 0.009026619769072826 0  1.183471128422137 0.01791507925054389 0  0.872611325456997 0.01407564624962904 0  0.8707135487888411 0.01418101254916592 0  0.8543097378659659 0.07473548103972424 0  0.606690379597517 0.02063320871146967 0  1.158051509329443 0.05242374840233228 0  0.7892881857828347 0.07517863781531645 0  0.8217336814664497 0.08795669692446606 0  0.8304390158292281 0.07900029398366239 0  1.139761216283787 0.07208473548003955 0  0.8623052626861678 0.074467931326923 0  0.8466617703177082 0.08538952216905132 0  0.8324378970342853 0.07893340655546843 0  1.185041133021603 0.04977535693634575 0  1.158281874205108 0.05934805265727711 0  0.8223276385852127 0.07580567989141966 0  0.8635943343487147 0.08308989712646031 0  0.7604781736521147 0.08134135397163708 0  0.8354941450538969 0.08056415731586469 0  1.185156843717958 0.05323675199551476 0  0.7724714608843728 0.08094002945987891 0  0.8541938854419631 0.07127331723427907 0  0.8457202559272063 0.08715404778588742 0  0.7232092402985368 0.07392336187905491 0  0.8226751958569586 0.08619217130751296 0  0.6105594222175794 0.04996813270810861 0  0.8012814597199334 0.07477691598592337 0  0.8533682234754381 0.0765000066565536 0  0.8170408050875411 0.06731750614150039 0  0.8504278278798686 0.07833141970159947 0  0.8374930262589514 0.08049726988765535 0  1.172648889725612 0.08643709448355742 0  1.163783459586075 0.01095837821522697 0  0.8384345406494648 0.0787327442708656 0  0.852426709084909 0.07826453227338191 0  0.8687653161468974 0.08811592417097669 0  1.170430655880123 0.02950095136742968 0  0.6136159772044183 0.0515935961424723 0  0.8484289466747992 0.07839830712982074 0  1.160066758450254 0.05235374782202598 0  1.159959792846621 0.04890024032982208 0  1.186214021165522 0.05493046086564075 0  0.8404334218545308 0.07866585684265168 0  0.8192713905654954 0.07417492913201718 0  0.8464300654697321 0.07846519455802253 0  0.8424323030595886 0.07859896941443088 0  0.7432539744664721 0.007460545175716703 0  0.7744703421203206 0.0808731429547303 0  0.7292058839112668 0.07372269959318514 0  0.8707641991063962 0.08804903561420709 0  0.7281485170995436 0.07202506141305365 0  0.729090031490446 0.07026053579736885 0  0.8737045933635146 0.08621762340211592 0  0.8433738174501296 0.0768344437976467 0  0.7299156985613442 0.06503387925876822 0  1.179605775785838 0.0883326406470788 0  0.8681473751828809 0.01522418683385736 0  0.7269752982023432 0.06686526227219072 0  0.7764692233197056 0.08080625535682141 0  1.162632308204955 0.009323526044591983 0  0.7784681045718611 0.08073936933674336 0  0.7280326646748667 0.06856289760041942 0  1.174648343545558 0.08648383624449851 0  0.8747619979519557 0.08791528134601491 0  1.180646631875094 0.08662723870930583 0  1.176647795760109 0.08653092057827584 0  0.8717057125365613 0.08628451058343767 0  1.181687585420515 0.08491946734702478 0  1.177606367613552 0.08828405056151323 0  0.8767608830686537 0.08784839429125871 0  0.6116170528480932 0.05165918133728797 0  0.7815243525341755 0.08237011838555822 0  0.7795254713443396 0.08243700626835318 0  1.173331360943746 0.06057836417934063 0  1.192643189677539 0.08690938777313907 0  1.191684637928255 0.08515771854732238 0  1.191863620736976 0.04434824668820415 0  1.160635792721877 0.009503990787473509 0  0.6163969717311122 0.06846076180465546 0  1.183686961675205 0.08496749682935006 0  0.7824658669896831 0.08060559471062237 0  1.15864151819181 0.009681984078211994 0  0.7844647481766976 0.08053870674230647 0  1.184645485231023 0.08672284083909808 0  0.6154047297128435 0.07027828342975168 0  0.6123330091246781 0.0686929619559281 0  0.7864636293803542 0.08047181927227301 0  0.8633861296839764 0.01724556421691347 0  1.156652715930776 0.009853905228130132 0  0.7884625106854776 0.0804049348340807 0  1.155465062250729 0.008241760878540318 0  0.7904613918036422 0.08033804480903985 0  0.7924602729589691 0.08027115589453634 0  1.185767872688186 0.02119002040878924 0  0.7944591541458826 0.08020426792419755 0  0.7964580353453103 0.08013738032976581 0  0.799514283362754 0.08176813102501958 0  0.7975154021580766 0.08183501846435565 0  0.8004557977534208 0.080003605410347 0  0.8024546789584481 0.07993671798022783 0  0.8035120457730576 0.08163435616777608 0  0.8055109269780739 0.08156746873947478 0  1.170275221915319 0.05894853955611067 0  0.8064524413686935 0.0798029431230548 0  0.8084513225737125 0.07973605569493188 0  0.8115075705932608 0.08136680645498728 0  0.8095086893882298 0.08143369388316694 0  0.8124490849839364 0.07960228083862504 0  0.6153753628383618 0.06327698162338349 0  0.8144479661889057 0.07953539341052314 0  0.8175042142083293 0.08116614417049262 0  1.184619505402486 0.01955260645166819 0  0.8155053330033599 0.08123303159865247 0  0.8184457285988924 0.07940161855403179 0  0.8204446098041505 0.07933473112533661 0  0.821386124194895 0.07757020550852101 0  1.190900646656426 0.02247559191657634 0  1.182627282894686 0.01972884402808739 0  1.180635154985777 0.01990588816158828 0  1.178642958153193 0.02008208690974361 0  1.17665054517804 0.02025641423459058 0  1.172665832763336 0.02060766923988211 0  1.174658173031885 0.0204316419764335 0  1.171821222915775 0.02242250670373331 0  1.169829328342524 0.02259705207119073 0  1.168681331926441 0.02095901169946815 0  1.161251794522091 0.01639810909091465 0  1.166689128240783 0.0211347131582562 0  1.160407906169076 0.01821135271630883 0  1.165540789116241 0.01949722474042202 0  1.159564017779693 0.02002459637470953 0  1.164392423545375 0.01785976786155333 0  1.163244053566372 0.01622231624138982 0  1.15872012934255 0.02183784007388946 0  1.156727870203649 0.02201363306027057 0  1.150446607517538 0.01909031860080483 0  1.155579499371819 0.02037618246751852 0  1.153587240157139 0.02055197552030502 0  1.152438867727751 0.01891452528572836 0  1.149602721068514 0.02090356179130004 0  1.147611299617762 0.02107680793625491 0  1.146462407058075 0.01944176398198064 0  1.197640067730871 0.08864394858059416 0  0.8592785543256964 0.01391341774545752 0  0.8623326297222308 0.01554551572023832 0  0.6511355604507341 0.03994301536969153 0  0.8603355855888767 0.01561126119587649 0  1.187216280785664 0.02627876129142705 0  0.7153312360429274 0.07765346734063994 0  1.19368393687163 0.08520479242161301 0  1.185196914582643 0.02648292266082708 0  0.883583148765434 0.08242103437923293 0  0.885157892893522 0.01993817898581053 0  0.8854604552574532 0.02338903022130504 0  0.8840722098626166 0.03046476897796539 0  0.9051220490872015 0.0383748135786351 0  1.192048635109394 0.02411009406731366 0  0.7193271936394924 0.07751900407982486 0  0.9398441100834927 0.08954265808374162 0  1.08464792896344 0.08780109011095805 0  1.000388378728859 0.009775547455018295 0  0.6992558309672356 0.04526309801788262 0  1.106121544123588 0.05416080112707299 0  1.196092200991868 0.05114127866947721 0  1.006238469282626 0.03009486428604997 0  0.8846405221003106 0.08411867999861777 0  0.8571769553697459 0.01052375766000935 0  1.036431316804023 0.01006340369091495 0  1.088838692324899 0.03915564249797089 0  1.093512215420635 0.09317128301609293 0  1.053460036994738 0.01029396653428782 0  0.9599504539610231 0.07117317744102893 0  0.9608906101425703 0.06941347612937458 0  1.191399025264857 0.02933359100321088 0  0.9899015772818164 0.08381848857685301 0  1.049849156298265 0.08178747936475056 0  0.8815842670897786 0.08248791234377642 0  1.097822300744778 0.01330667607753725 0  1.109223164761083 0.01751468027644816 0  1.120747666527298 0.08173761586437833 0  1.042107382598537 0.04246282807513442 0  1.125480853882492 0.03171524599761159 0  0.6998407872307296 0.09204340380625665 0  0.9052379348394398 0.0418365683114774 0  1.045423249904738 0.03183851232777041 0  0.9041805854142921 0.04013930722668042 0  0.9488665241404894 0.08803015583483481 0  0.6762884474710856 0.06445808553950143 0  0.9442521674399782 0.04918877230759809 0  0.7306107852525658 0.08580681750107641 0  0.6863644865296391 0.06092011073673641 0  0.9348136071338764 0.09115505611768923 0  1.032682025400388 0.09002223710405402 0  0.9539660248764579 0.07137000514686651 0  1.006474806629154 0.02140743482977721 0  1.090623712894841 0.0322552416247434 0  0.7335511931594635 0.08397540971282105 0  1.193656231171683 0.06394187829838266 0  1.093877740924189 0.04076081676058402 0  0.6958499961963857 0.09217630977048683 0  1.192725552340006 0.0834498558595442 0  1.069488147833455 0.02104733506765119 0  1.079618274144295 0.08941039449582527 0  0.8602180915830651 0.01215008878652946 0  1.078571961776885 0.02198242819692178 0  0.6822737736246844 0.06440205501357762 0  0.6918544113800401 0.09216543682493629 0  0.9923301723924173 0.04756787094349343 0  0.9837571393192175 0.09058269561713991 0  0.6449595308562125 0.09211362264469687 0  1.095428582487503 0.03085957723904559 0  1.030912745198384 0.02618451535599366 0  0.858223067432778 0.01221700815848429 0  0.9438758133760118 0.06825379617484047 0  0.9429354530515216 0.07001442453245438 0  1.091834867546795 0.07931943745856025 0  1.053599986668414 0.02244943134654939 0  0.8856978290294714 0.085816324245195 0  0.9623069007774241 0.003376531843114898 0  0.9406739024379713 0.003417145623626629 0  0.8988243119394863 0.003403060599414339 0  1.126006824637419 0.003484124490312617 0  1.074127698713566 0.003469024959958646 0  1.157892089577525 0.003403372817356074 0  1.175660505035777 0.003428496021510338 0  0.9067956284128502 0.003408903491090538 0  0.8928731500650453 0.003543517710263216 0  1.028358200758448 0.003484124490280548 0  0.9308132892545827 0.003635756548510141 0  0.928846989674853 0.003743742847477275 0  1.004248638968407 0.00342277869521978 0  1.036184935130493 0.003449921516197716 0  1.078198173846761 0.003451019514698162 0  1.000241211890532 0.003393234438405598 0  1.122022059345237 0.003388110526030341 0  0.9805250364317789 0.003465189707702624 0  1.16187774769499 0.003427452158581609 0  0.966452962677921 0.003838286403201201 0  1.153921265391165 0.003441553919201354 0  0.9028099700569914 0.003411617006921466 0  0.9446672028847052 0.003388042631014889 0  1.165800984447909 0.003509143835754185 0  1.185839277825954 0.00352108844372257 0  1.116751800732023 0.08164256405526185 0  0.9628850040631203 0.06934647268010391 0  1.089678819688048 0.08619234464619449 0  0.966980941598918 0.08153969553990183 0  1.012718275359111 0.03643593738347619 0  0.6509112238498844 0.09192523386734852 0  0.9328172071566392 0.09110768835898411 0  0.6653362646342749 0.07587919010360338 0  0.9479798708941727 0.07157443968281237 0  0.695266377172006 0.04541017530547048 0  0.9524300105772137 0.01053547535106043 0  1.007921455639499 0.0264794453902131 0  1.122526496452387 0.009400158269442382 0  0.8875808970023122 0.08228733115555042 0  0.7315523060401393 0.08404229557343931 0  0.9498616462267646 0.06805403416023854 0  0.9704192812106681 0.02111944346764195 0  0.9490637426590325 0.07664473974731226 0  0.948161243611603 0.07844506197383684 0  0.6912767622769825 0.04553585986558058 0  0.9948601519485285 0.0258980722021959 0  1.116095885564126 0.05382703430722747 0  1.043221947236941 0.04759730173416204 0  1.169049939414928 0.05030792993036818 0  1.09383196884239 0.0735397474582411 0  0.9731600110432528 0.07588071305398984 0  0.968825127365655 0.08850409380738035 0  1.190726339772556 0.08340250222314097 0  0.9648327054654245 0.08840952755586948 0  0.97790440366216 0.070574541922721 0  1.102783356160477 0.03544503309491685 0  1.07682978678976 0.08070071718280702 0  0.9499757328139463 0.07150400422719899 0  0.9293000747827949 0.03168333865040642 0  0.9289991150689945 0.02823700688235581 0  1.072839047490094 0.08060559832036207 0  1.083691060850753 0.08604911082388145 0  0.9718047873156941 0.06731980405229857 0  1.027769333320607 0.06889994909909045 0  1.025774533433862 0.06895616542731775 0  0.9958589380187042 0.06995800323175141 0  0.9978526455415488 0.06990266200168577 0  1.078661316842372 0.08765844634983352 0  0.7117983394724077 0.09161723261441965 0  0.6868694291091806 0.09074491141784187 0  1.614152637694152 0.03910576707304597 0  0.9775619542523248 0.06018836862210195 0  1.056427037846992 0.0204666651509419 0  1.101030967355446 0.02692991759684214 0  0.9835469587471196 0.05998214158952532 0  0.9788023243140002 0.08874194553979127 0  1.106686011712247 0.02296346717714919 0  1.028319874886964 0.01947989149761866 0  0.9827950388466999 0.08883612404485709 0  1.005830623387079 0.06962192217862147 0  1.00782508708787 0.06957030284853989 0  0.9701838067955487 0.02980807146101283 0  1.097689315942552 0.03413480853155069 0  0.6906898195898297 0.08715838825132236 0  0.7082938548522262 0.04669090571791795 0  1.056281107932822 0.008329325341201534 0  0.9839173854167846 0.08368529416399179 0  1.094155563004168 0.05456108129226346 0  0.6926618770368309 0.05759323881790232 0  1.106096008574076 0.01606057719823328 0  0.9827238007360468 0.06520284468519458 0  1.070843665466949 0.08055862726823455 0  0.987257513038823 0.04601606462006184 0  0.9820552733800139 0.07725358320782279 0  1.0158026289022 0.06928671394913308 0  1.017796741794752 0.06923675854741128 0  1.110600291979976 0.08842370126357872 0  0.9781265218116739 0.07747698394563821 0  0.9201530123408933 0.07596509078426947 0  0.7005373367546077 0.05388980411618109 0  0.9718672020785761 0.02619230963803339 0  0.9327278834564288 0.06342095915327042 0  1.003557438558148 0.09454103855690585 0  0.9528581764487006 0.08812455334352198 0  1.075445832918847 0.02052133505128406 0  0.9943246088536607 0.04750898247969965 0  0.7115681462400463 0.08470626481314227 0  1.18664507663827 0.08676945986628411 0  1.198721351159215 0.06559076796368735 0  1.038416807658831 0.009888009995837286 0  1.002373873024831 0.009600431834498116 0  1.031725354302865 0.08827163444844144 0  1.094928403982476 0.01529681067785809 0  1.093937020842084 0.02581669998812226 0  0.9868265167633108 0.06851978695565998 0  0.6793104640855173 0.0033499248270034 0  0.6237673418043241 0.003432563154531345 0  0.683288160118886 0.003304596670989322 0  0.6933756661206083 0.003751686736309389 0  0.6277430764835027 0.00347987091711335 0  0.631718911394619 0.003479870917124116 0  0.6633965561688557 0.003443444467189165 0  1.189685408173258 0.08510949918204994 0  1.036755277587241 0.08666197031897789 0  0.707691689916466 0.08829757558471735 0  1.047806806311429 0.01425761181880096 0  1.000083718372741 0.07687044244478919 0  1.133067308166488 0.01540484071261898 0  1.052262135692555 0.09380021529785623 0  1.086730179143525 0.03577017508482554 0  1.02989392584707 0.08131781830537416 0  1.039734048715347 0.06847979635495342 0  1.078758576987987 0.03603687761010811 0  1.051935497589111 0.07499953857433564 0  1.047939041630952 0.07506456212046915 0  1.066736234580459 0.03515746472014798 0  1.038182586571049 0.04603832421699472 0  1.03976833524318 0.0358042628369396 0  0.9978832019105599 0.08400811015027204 0  1.037953139855474 0.07526729141588656 0  0.9458711723829578 0.06818725226668466 0  1.093159177556202 0.02758024933566134 0  0.931901371886982 0.06865501078384253 0  1.000885877748763 0.03750175840144601 0  1.041728771094846 0.06841989261788028 0  1.110069437608783 0.0156988835616774 0  1.049800872582456 0.01407966876616063 0  1.043864829785627 0.01457710333327163 0  1.020533824455081 0.03581396082003132 0  0.9518567619640723 0.06798718920699666 0  0.6573811621306445 0.06979502960476341 0  1.026813007026474 0.01437937895876042 0  1.052140453605204 0.01737215323885187 0  0.9358933272162535 0.0685217068849702 0  0.9398847959320389 0.06838776663147768 0  0.9922671975367968 0.01919257863474086 0  0.9558466863558895 0.06785338820722604 0  1.030908541645081 0.03821553192454168 0  1.057683912484562 0.06788922881696668 0  0.9790873655781906 0.0791026211606487 0  0.212456025101389 0.03748142393738133 0  1.094621382902937 0.0118597587044391 0  1.100189755816304 0.02873793461882794 0  0.7316681137532891 0.08750445148588115 0  0.9907689708437893 0.0140914634521484 0  0.9433360508473486 0.009609033519288818 0  1.114594324656436 0.08851968738009655 0  0.9813239411129495 0.05314014955888766 0  1.036029571965725 0.0274664419554076 0  0.991734711870866 0.03661521255463971 0  1.03647861368605 0.09343174914915298 0  1.10212362595714 0.01639817035694607 0  1.005700387915621 0.03534326080887791 0  1.053222078525248 0.05419889785385437 0  1.090397853500265 0.06160189792317911 0  1.067655496243684 0.06755147568317039 0  1.173989457574316 0.04841163591040721 0  0.89674817107892 0.08717949508464409 0  1.063191491920739 0.0538660628154962 0  1.187603566248383 0.08851955025374222 0  0.7254554368859166 0.05131741875630023 0  1.011355997539847 0.03137691940969886 0  1.035789699844666 0.03615055727125741 0  1.013038484700197 0.02776142916907032 0  1.020873805993243 0.08282539393106228 0  1.031519595926395 0.03306493564606588 0  1.187685832165236 0.08506254842609823 0  1.089806440475452 0.014018407691143 0  1.028926722022699 0.0263597077563777 0  0.999977103955904 0.02718007546569272 0  0.9557079206394576 0.03654845806770902 0  1.073160932196402 0.05353322444946704 0  1.007686828202675 0.03516799409305001 0  1.066357604562527 0.01959044941980808 0  1.069804153784862 0.08226069528302206 0  0.6684985060601625 0.08095483769882145 0  0.673543623868 0.08251940717282118 0  0.9137723189816838 0.08835607980709971 0  0.9969573615861178 0.03771384374477917 0  0.9885901959851549 0.06154275351813521 0  0.9753009994274193 0.0310900631932463 0  1.07762686832956 0.06721774433366022 0  1.005935340673783 0.0266546100105125 0  0.7001749514432709 0.07293818935584208 0  0.6966765731063838 0.08694685483534273 0  1.091107585141379 0.05293333468381755 0  0.9518914501961856 0.01578185656038775 0  0.9867861603509726 0.08893043481874852 0  0.9998749836959442 0.0840570506198908 0  0.9380034922612634 0.07190819532900483 0  1.129031274416562 0.07838741942544392 0  0.6885720563480858 0.06753255945173231 0  0.9504442228453047 0.0107106797044235 0  1.188599641086359 0.09016545511494281 0  1.045212549902727 0.04752808250025065 0  0.9969269760858964 0.08225526326453407 0  1.095783389243909 0.0134886722107177 0  0.6404471036050787 0.01259860473637054 0  0.9928738717449481 0.02607317508062603 0  0.7160543198925459 0.03950197119592236 0  1.086526364141022 0.06519691428041618 0  0.9818601427421976 0.03747376681775175 0  0.6856098238298427 0.01976077260226208 0  0.9467760610871221 0.01449924655302863 0  0.9137017990363147 0.06231842170552141 0  0.9716318972750655 0.03488203304257105 0  0.6926856805271717 0.08708818373013244 0  0.656768058450809 0.05859302813510604 0  1.116331770426469 0.06073492450136532 0  0.6645094048628652 0.08109068130979871 0  0.6665994002813507 0.05831755458706261 0  0.701716820859454 0.08851786352166366 0  0.9243956206122164 0.04638089675273972 0  0.656536788577502 0.08136994650272841 0  0.6545435097927411 0.0814415708855703 0  0.9310259327131304 0.08412739630167237 0  1.091337151884665 0.05984153854817026 0  0.9953795168080395 0.04920079142075554 0  0.9769841461556468 0.02747409603671187 0  0.6605246219111636 0.08123078826084175 0  1.086294226941948 0.05828090225762473 0  0.9119351184649447 0.06930778839374592 0  0.9129909686337818 0.07100740041932441 0  0.9428054600728708 0.01485054209872598 0  0.9288266027284197 0.09101548663927736 0  0.7170963802065276 0.07066151772458908 0  1.104127329270502 0.05422736861460101 0  0.9905844169355761 0.06147614704334367 0  1.101093903975131 0.03901150973557285 0  0.7212100035457897 0.07398996135286674 0  0.925952985361467 0.08575478549281752 0  0.9676532171310914 0.03522055039973049 0  0.9429100453544417 0.02701194882510057 0  0.7060690632268566 0.03984090192547828 0  0.9026092646361585 0.08352623318607585 0  1.026333762039951 0.01965509374723658 0  0.6547780162105472 0.05874123645509314 0  0.8791186994918094 0.008304875939772569 0  0.6894972593774882 0.07334351316658448 0  1.346672303404912 0.01036243584669217 0  1.351671908058891 0.01842157500809075 0  1.361565608348575 0.01829872958823241 0  1.35706240107665 0.02712144004305316 0  1.366542633967723 0.01027336300641207 0  1.371495030168608 0.01902067952677128 0  1.376514328121993 0.01037220038259913 0  1.381156802243806 0.01910468725506205 0  1.391418732817212 0.01901937774241452 0  1.385613551276876 0.02831050356100008 0  1.395964954992505 0.02798544572856339 0  1.401344314388115 0.01905641519010939 0  1.405609300209193 0.02826336969661503 0  1.400281773599122 0.03729876414332775 0  0.6734028284818125 0.06961481683227257 0  0.9383976132251367 0.03261329371628022 0  0.9376869999199431 0.01356671568903486 0  0.9887815514462606 0.08897892678167869 0  0.8917404863039562 0.02631590606202544 0  0.9530364219277219 0.0174144013083154 0  0.7201524608432425 0.07229227793117224 0  1.085686900194304 0.08609675157126308 0  0.9048862011502493 0.03145407385754487 0  1.127785185991074 0.08017265714874505 0  1.066852827082133 0.08046426755859844 0  0.6366953301415899 0.08549188765435241 0  0.9437357165968385 0.03725943410637851 0  0.68331921363012 0.06957728802597636 0  0.6256432512551907 0.08412777297357243 0  0.6286994075211172 0.08575875376491704 0  0.6265849082264174 0.08236316365945391 0  0.6326972768914541 0.08562529563825994 0  0.6870728225302705 0.0387431447640005 0  0.912391277661207 0.04678014044638762 0  0.9684291499522015 0.02129116278587407 0  0.9858857990134756 0.07028404248987434 0  1.115187665689357 0.01697990400871014 0  0.7105561276692773 0.02066505709202163 0  0.6872779589861227 0.06608249769935658 0  0.6386949428877856 0.08542565690081895 0  0.9300196526577631 0.07217475813322284 0  0.6978319231925116 0.06263085649452779 0  0.6998256588908763 0.06256773098767777 0  1.012301186609842 0.008724890590705463 0  0.9803832826720198 0.05490080754397425 0  1.038750798101417 0.08670935672029872 0  1.118587821796487 0.08861451966996674 0  1.029533747736101 0.03323991114166987 0  0.9149969997913413 0.01730053598782143 0  0.9192128822648102 0.07772726918980698 0  0.9340119091388847 0.07204147963190771 0  1.120541177387828 0.009572558994903058 0  1.037238495010826 0.04779808725982522 0  0.9218763348753169 0.08913148914670502 0  0.9815525270654994 0.06004953458151464 0  1.087821974431718 0.01419312901776365 0  1.04622095631883 0.04920064446733342 0  0.990281100031187 0.01936792966728174 0  0.9358036283062452 0.02590388572930876 0  1.038927077458558 0.03761232804067319 0  1.030686380571628 0.08997487823281017 0  0.6493856787663977 0.07648204727787822 0  0.9435167044138468 0.03388928636473938 0  0.9897393752094858 0.09073093903827692 0  1.090167266701424 0.05469405546383056 0  0.686549029352812 0.01800426415080152 0  0.9983124013179442 0.04737525494871454 0  0.8948515315948753 0.003482447744881653 0  0.9341190305223612 0.02952152663594289 0  1.097554978334383 0.06655275731316936 0  1.065813221363558 0.08216695850399131 0  1.10867209693136 0.02278740082622107 0  1.122582055190138 0.08870879752157945 0  0.9391393770200345 0.01864300402621782 0  1.419721498398579 0.03719323381745772 0  0.917825060002759 0.01531654318193489 0  0.9916394839760312 0.0631701124548061 0  0.9183930255946815 0.04658316598380791 0  0.9698808256670797 0.02636740350426285 0  1.084300263837114 0.05834734750203127 0  1.025492652873272 0.02146270329331972 0  0.643409559626262 0.07336301966348865 0  0.7120590735078014 0.03963391104253487 0  0.913851024446248 0.01566561441917782 0  1.054907823680429 0.0153641346991236 0  0.9993673839549759 0.04906639199111426 0  1.119698407056498 0.01138168250084603 0  1.132528046438023 0.03296850893161563 0  0.9608414108660714 0.08831440454743764 0  0.9698100984897218 0.06738647812482809 0  0.691062080245361 0.03860761084700263 0  1.02808554617988 0.02816717421714856 0  1.087120194807865 0.05306631032581846 0  0.9480295324480323 0.02829489285403735 0  0.8975747065190154 0.0819531207451264 0  0.6904187859394361 0.01442722864451235 0  1.086645362362827 0.08785090741533705 0  0.8979532360892151 0.01707931164309495 0  1.101547610595778 0.06642143632731559 0  0.994572890594754 0.06134339721711406 0  0.9920317079694951 0.02788068732227507 0  1.14805638192185 0.05275619236683708 0  0.7113369956486943 0.07778927080922879 0  0.8847562666382167 0.0875808540596433 0  1.062861154123016 0.08036594902614086 0  0.9927718262071803 0.0890744195968505 0  1.037174659212984 0.02909888487317617 0  1.039707758182024 0.08845754174606203 0  0.6584383840163883 0.07131499968633107 0  0.9335789143754198 0.03476578817781717 0  0.6853855783855609 0.01286670934906728 0  0.9087327379774484 0.014382456146296 0  1.102175919488852 0.02856258798778972 0  0.9894400037647237 0.02117576150437168 0  0.9473142767946108 0.009252867101207818 0  1.086997088233846 0.0159910864555524 0  0.9207841504585801 0.0873617013571835 0  0.7119264362583926 0.06563740528827265 0  1.114101144232316 0.05389378324146008 0  1.085791117019364 0.03752964584448743 0  0.9806131684192465 0.06180909089039675 0  0.9558634429226929 0.01543183593806208 0  0.9708067071590359 0.03662695018014476 0  0.8948154138800227 0.0156133980548799 0  0.904761434316817 0.01474132063421885 0  1.027734253851479 0.08817684324552494 0  0.7228201233713487 0.03067595230520462 0  1.144165420093565 0.01616564841014888 0  0.9060635637035672 0.03661030508142077 0  0.9937311455001754 0.09082806554124434 0  1.061822351854892 0.08207073851065612 0  0.9956280844295595 0.06303704896138133 0  1.036895311558935 0.03773608716434686 0  1.136061701275588 0.05315717162487345 0  1.126075589375168 0.05349245134217816 0  0.6357534888208509 0.08725623882321792 0  1.002299728748217 0.04724136164840235 0  0.9048461035057507 0.0903744796507806 0  0.7009977529487462 0.06771644119910604 0  0.7040708659639199 0.03991057023764835 0  0.9268540713583742 0.0670887442232098 0  0.7126241443123056 0.08640205860267783 0  0.9189819829419649 0.07080974314498749 0  0.9250729520230874 0.08404953173430635 0  1.006842114597913 0.03696705474434899 0  0.6675766240099981 0.05326145675980879 0  0.9688702973477117 0.06914691611489293 0  1.005093758489001 0.02846227514938138 0  0.8887536397342091 0.08744720688350727 0  0.9773344924318721 0.05327435958324249 0  1.084070978102986 0.05144139457281938 0  0.4322975341177629 0.0101919605684653 0  1.056893366090482 0.01518887874468164 0  1.083362076314184 0.06010662922729798 0  1.082743883776497 0.03590373832139829 0  1.026694988997009 0.08988034636082126 0  1.619909241554148 0.06472173880100293 0  0.902848992591611 0.09044337234590416 0  1.022362892864159 0.02000539533936542 0  1.004292997661657 0.04717406751504272 0  0.9578492568705793 0.01525677679760445 0  1.594840413540381 0.05701156134383346 0  0.7043019158642868 0.04682343808967132 0  0.6761566195211476 0.04084287271075772 0  0.9520030315392338 0.02794380487432537 0  1.014183375030542 0.02939361845289725 0  1.081804846499246 0.03766310176344824 0  0.8998003689589407 0.08881091894524286 0  0.7014778167710036 0.05212536947311122 0  0.8918086039910668 0.08908123466915532 0  0.9058220138371564 0.06604763962243047 0  0.6985414740477851 0.0539573388176722 0  0.6904464237852677 0.05076925361192829 0  1.058869404356783 0.08026784996113601 0  0.9967630159755028 0.08916932186739104 0  0.9491758502069723 0.02992842272828533 0  1.53544665273443 0.08960627983599742 0  0.7186143385524699 0.08620147707605198 0  0.9189723045500361 0.01695106906630147 0  1.654008878250414 0.03769969986368554 0  0.9985611005676915 0.06120990432081581 0  1.29773719424932 0.03340998224928772 0  1.005348654579552 0.04886601627583165 0  1.147815856695438 0.04236327640814435 0  0.9108346304625095 0.0901750883739689 0  0.9057967403391717 0.08860766018260735 0  1.104162386738887 0.02838728318281721 0  0.9107344191779059 0.003452397525927695 0  1.116568944515302 0.009927865987698951 0  1.04274160192425 0.0868043356046498 0  1.117177309174296 0.01680594042486614 0  1.47554692102428 0.08960205509048991 0  0.2675397709326746 0.04330909961824801 0  0.9763945820767252 0.05503401647232822 0  1.445061735043154 0.06254930453542196 0  0.997721058334528 0.09092164597205363 0  1.092392589699179 0.06153550837409219 0  1.05783100120909 0.08197506648708802 0  0.9409229952409621 0.02718712623828212 0  0.7377800749583051 0.09076601907967904 0  1.0400015871347 0.02711568477889092 0  0.9589948341705319 0.01688963075512243 0  0.7009180766276699 0.03137904730038722 0  0.7019244721244198 0.03307129815954397 0  0.696931555386239 0.03150930515637286 0  0.6979552418433036 0.0331984533120312 0  1.033881394377768 0.08141275330301062 0  0.953150282940462 0.02957811785864855 0  1.194040862402626 0.02393065469505518 0  0.9688365508138431 0.03675249396908947 0  0.935701140092198 0.01374143614957775 0  1.006042178216542 0.03870657698753739 0  0.9260270404484556 0.0723069976959181 0  1.14277408203063 0.04080435866645003 0  1.023742937376108 0.08808180637749288 0  0.9088392790960785 0.09024027947841967 0  0.9863102926940974 0.01971830646532441 0  1.120322860119625 0.06060130695661462 0  0.8958042671620566 0.08894865046174828 0  0.9996167095916684 0.06290388448424514 0  0.6867729083497801 0.02490421431676146 0  1.020376514264393 0.02018039287686214 0  1.058109815456901 0.01685267034046994 0  0.9067635654248801 0.06428309042031716 0  0.6445699252399525 0.08176336035804332 0  0.7156916334417625 0.05857725311309116 0  1.008280081220486 0.0470403294348898 0  0.9404891895966114 0.05623120547863417 0  0.6915817879551041 0.01956461294768631 0  0.7176905719330404 0.05851051530409915 0  0.9658203601240238 0.06751963242788113 0  1.106148943743217 0.02821200515286299 0  0.7181534536250079 0.07235886786014037 0  0.674495815231545 0.05130349887536539 0  1.04473736844244 0.08685133090965699 0  1.041988803092347 0.02693757430049915 0  0.6005959370215342 0.09662920169721059 0  1.199454623327685 0.09643871497556433 0  0.710522541652193 0.05354433572734525 0  1.054880180878992 0.08017716321234616 0  1.022703598539556 0.08978512855112364 0  1.001963077229612 0.02700486843391932 0  0.6315940644087448 0.05101170550656617 0  1.01701095997196 0.02741079688089754 0  0.6581890545952602 0.04144117832124669 0  0.9690389961249753 0.02817518086748062 0  0.6615922258945416 0.05346891809259519 0  1.009336166509792 0.04873270471396376 0  0.9139462551856128 0.02781470819808682 0  0.6863241003649672 0.01111134823334025 0  1.194879523790156 0.0221184051436514 0  0.9179147653052628 0.02748006661708557 0  0.9618209465974304 0.01490667631337679 0  0.6988874833260621 0.06432597691693091 0  1.078873269175815 0.03948907091904359 0  1.019534893349597 0.02198838336583076 0  0.9217978756032951 0.01496624355205126 0  0.9338166342038982 0.0260789385966129 0  0.9089938620125437 0.07114048652095549 0  1.002549272948652 0.061076382808153 0  1.115726449915991 0.01173225408969184 0  1.143487057121549 0.03212554544395782 0  1.01899682689891 0.02723551002857252 0  1.043133530907406 0.02857225602701629 0  1.045694649207766 0.08859962915284397 0  0.9559763650941007 0.02759337774585842 0  0.9843236978614139 0.01989335666812097 0  0.9733461454527323 0.05340696334899404 0  0.7192453665545389 0.01173362927722302 0  0.9629675749518657 0.01653981449444831 0  0.9648793126761166 0.06927990781936295 0  1.019751876915568 0.08798626506858183 0  0.6676787186029953 0.02034642751514199 0  0.6827872555381563 0.02503785907394424 0  1.012267773114323 0.04690758884329514 0  0.6453917848293858 0.07656673931868593 0  0.6703046244448861 0.06450837365144969 0  0.923784286241209 0.01479114238753512 0  1.004543460213279 0.06100994162178655 0  1.075935290649816 0.04130982012793536 0  0.8859955025180242 0.09641553223340832 0  0.9571242871105341 0.02922790493138615 0  1.146695099308505 0.01072791301849274 0  1.127618486689368 0.08709816462026744 0  1.09532557532279 0.05970813195495951 0  1.020142518850474 0.02886724739563513 0  0.7232367892515601 0.01160289465120725 0  1.014261393503693 0.04683986487533333 0  1.016402619929369 0.02052982644176 0  0.9724059832056385 0.05516722325254184 0  1.017756247139239 0.08793894754593148 0  1.073941285731744 0.04137553598624624 0  0.9834820242640105 0.02170138293256153 0  1.118314808118881 0.01843592251548945 0  1.005599736688738 0.06270418374331557 0  0.9348603587470453 0.01554791081544734 0  0.9657925552516111 0.01455670257229066 0  1.048728549219148 0.08694646759686982 0  0.912760726145545 0.064082348543228 0  1.139473127923157 0.03229618800487732 0  0.7462566520669422 0.09658261567239922 0  1.015317248963676 0.04853249596296466 0  0.924934288880857 0.01642659893062561 0  0.6845586231028231 0.0180695296682164 0  1.016716536874997 0.08964327905401655 0  0.2820060723985623 0.03404125226894337 0  0.9618309716896869 0.06765289899873234 0  0.7067586821041933 0.06061446424219392 0  0.7139246889143929 0.06557029038504482 0  1.112587532059736 0.01027390336495986 0  0.721691255259979 0.0254958410911775 0  0.9677842153896208 0.01438613261873398 0  0.6787928303017481 0.02517752587540086 0  1.13819300403911 0.01669016934208247 0  1.049685865980689 0.08869430557560311 0  0.3172945499944711 0.04081478698267103 0  0.9599494546669409 0.02724285716158333 0  0.9018581326282249 0.02978648065476078 0  1.585066060206698 0.05710537399412553 0  1.09566658650219 0.08633769202422502 0  1.018247776436332 0.04670495590949994 0  0.7562361202523019 0.09669367572604223 0  0.846089596809937 0.09656353301019827 0  0.9400812381478137 0.0289957376885851 0  0.03734683500206139 0.02036787574274154 0  1.022969061667116 0.02688490711104006 0  1.008531652769095 0.06087663071741674 0  1.013765365080374 0.08784425850350597 0  1.045959857490894 0.02658967543889068 0  0.8876926464661171 0.01450060051596182 0  0.7660976651231343 0.0965460424960668 0  1.019304574725548 0.04839902496028396 0  0.9277568252958343 0.01444092706391209 0  1.111522686466905 0.0660876687613635 0  0.09875443322295026 0.06891496290147586 0  1.060864403627724 0.01483809748036659 0  0.969357980845071 0.05353914625142023 0  0.2187774913722429 0.06323577314479227 0  0.9748119821005936 0.0886465182546837 0  0.9803496540048618 0.0202430768012545 0  0.6775398980709197 0.08239156720235477 0  0.9610971181257101 0.02887657722871082 0  1.096381139653575 0.06140197321458181 0  0.9994381326482197 0.03242821822789957 0  0.1128756630260423 0.04241204852962022 0  1.010525681696066 0.06080997693830882 0  1.012725121900906 0.08954863535130114 0  0.9659080763549477 0.02671719755705683 0  1.024955175427166 0.02670969031382645 0  0.9329742122302911 0.027887826115936 0  0.7053575479880645 0.04851868938393503 0  1.052719585724875 0.0870408193111388 0  1.001121542586947 0.02881241410934023 0  1.107295065527476 0.02984554193971522 0  1.079812515717354 0.037729597186898 0  0.9598363619201291 0.06771961732568832 0  1.03277104619694 0.01384808269798084 0  1.04794626955702 0.0264148320079742 0  1.062849926839389 0.01466287107911894 0  0.6773333782051593 0.06963082840486691 0  1.124079887554576 0.05355937646296556 0  0.6417915431887685 0.0575837937997233 0  0.9289072434853611 0.01607432229561165 0  1.022236485693638 0.04656374618539811 0  1.011582126677708 0.06250422760117014 0  0.7963920941098769 0.09633292356720941 0  1.053677059051397 0.08879016492015641 0  1.119213565060972 0.02879343691959867 0  1.118374775349863 0.03060642279658986 0  1.009774254771408 0.08774918000660707 0  0.9673635596796502 0.05360604996778259 0  0.9345019482496448 0.05643103803022606 0  1.149809352286431 0.04229683173891979 0  1.02423157818462 0.04649372503822287 0  1.049091717695422 0.02804740837024901 0  0.6661799683797447 0.04117537476334306 0  1.160935482254376 0.0471173501433737 0  0.6926344761354836 0.0212561397162462 0  1.064068247318432 0.016327462931867 0  0.9588961702088157 0.06948020690802816 0  1.127246369752788 0.05864211318066426 0  1.008733736950419 0.08945370186162241 0  0.7188317787207223 0.03079069824377305 0  0.9412264510622839 0.03062888681686724 0  1.025285579029084 0.04819555223495882 0  1.000279944567 0.03062036360982923 0  1.076876483734223 0.03954829374686524 0  0.9317321708797782 0.01408569438877412 0  0.9963076859168272 0.03097087629295912 0  0.9639220237823314 0.02689169631509221 0  0.8977660213317045 0.02585719969651168 0  0.649367620100734 0.01056008667214876 0  0.9664230285901072 0.05536706064879769 0  0.6844640176735038 0.05096953605142203 0  1.014514432675536 0.06067748069611899 0  0.6605398032817965 0.05177164325907917 0  0.9298418479288109 0.02642859303113705 0  0.9419945408266732 0.07177558557999573 0  1.056710729092563 0.08713534462319097 0  1.005782922897857 0.08765404927240901 0  0.9569013348414432 0.06954671158735375 0  1.028214264444775 0.04637349357593476 0  1.085849803826491 0.0791830133094053 0  0.9954653301945718 0.03277894777802728 0  0.7281804809033471 0.009733196677784502 0  1.016508348140856 0.06061078988903935 0  1.086893373016572 0.07748176154270373 0  1.052223755709482 0.02950614849395043 0  1.149411980091732 0.03200664192300646 0  1.143627962950574 0.02143577682034233 0  1.029271840645843 0.04806450556687559 0  1.058706421639867 0.08718344536452055 0  1.051077715298849 0.02787246605887004 0  1.003787401514411 0.08760673419049711 0  0.9250198582129922 0.02858588055783851 0  1.193832622551232 0.07827706843543226 0  0.6823466490902932 0.01124174214809048 0  1.099314496987231 0.05957500049514167 0  1.138060093068616 0.05309057538685906 0  1.017564763459684 0.06230441233635085 0  0.8857004708318617 0.01467528079503039 0  1.002747032993431 0.08931168204197398 0  0.7148658857621091 0.06380538382449141 0  1.15360515222722 0.08771970969481595 0  1.059664714617101 0.0889292790353501 0  0.963374673348212 0.05373949692660175 0  1.144649980486134 0.0372829224467132 0  1.055049869617342 0.02752110959509112 0  1.132218460728281 0.01721541332577875 0  1.032202888273792 0.04624063734001801 0  0.954906423963927 0.0696128779142593 0  1.034195629402842 0.04617240244751761 0  1.066820929666723 0.01431215278061149 0  1.020496597002377 0.06047794684228482 0  0.9624339927646015 0.05549990252120313 0  1.057035221379669 0.0273455847632023 0  1.062696418630328 0.08727785740573228 0  0.6045128329790175 0.09655971907893204 0  1.021553134030958 0.06217146979847932 0  0.9529114486940481 0.06967929064885758 0  1.112606608538 0.06779778514317389 0  1.100370175281081 0.06126882354537458 0  1.068806431948195 0.01413691052127139 0  0.724513829070589 0.05308266169376084 0  0.6184972970240112 0.09653607989476876 0  1.058182301671286 0.0289780947279113 0  1.11012403251586 0.02786362824716588 0  1.064692820042552 0.08732679992865444 0  0.7146206637091665 0.08633550476488058 0  1.131246606893823 0.05851010888153482 0  0.9107618114741328 0.06414911555748848 0  0.6621849521950075 0.04130915121411667 0  1.164937649865598 0.04698170863891253 0  1.150653941639065 0.08591363009757619 0  0.711117838243295 0.04139746395969572 0  1.154654005312489 0.08600790421051031 0  0.9087626716679935 0.06421591494691392 0  1.024484641180922 0.06034488398625718 0  1.150749199154438 0.040538630186621 0  1.149696282583619 0.0388444314613038 0  0.6318307680745994 0.05792222109660541 0  1.070013890490244 0.01579392288670429 0  1.026706306432878 0.0352202873915809 0  1.065650657558878 0.08908505404456658 0  0.9309864393924956 0.02806242395595877 0  0.7073533790970402 0.04845165725577256 0  0.6955631305314207 0.01943370237098399 0  0.9593855888890229 0.05387227590272196 0  1.061006976769118 0.02699466615556243 0  1.025541392104273 0.06203836833804157 0  0.663691204033146 0.02047630748929443 0  0.9509163468148631 0.06974608952784955 0  0.04488417517425682 0.08961832502796062 0  1.097820696841048 0.07947095030437173 0  0.9403847666374208 0.0324374155351291 0  0.6997114617708704 0.05911012587488121 0  0.6405766255374797 0.08189633769571464 0  1.405045798851361 0.06335936144678933 0  1.068683894401223 0.08742255176651322 0  1.148512501067508 0.03370620930265673 0  1.062993203390143 0.02681957598243538 0  1.130574500911879 0.08890051637420195 0  1.073147129395843 0.01725019224580119 0  0.6836187532122709 0.01982603743661871 0  1.009784762763221 0.01414174064871262 0  1.02847288682179 0.06021180905590354 0  0.9573912018183571 0.05393868180857184 0  1.023706633514385 0.03741118881956778 0  1.000752832300377 0.08926337505597015 0  0.6814065803041871 0.01299773196428622 0  1.070679720290743 0.08746954757926763 0  1.064141808313998 0.0284533675962756 0  0.9489210964551444 0.06981328553210944 0  0.7122770824817485 0.07602439754069752 0  1.149605205196205 0.08762498534131694 0  1.029529676808379 0.06190497809871779 0  0.999378312780381 0.09452926942842863 0  1.071637670563857 0.08922600037084025 0  1.14099747927342 0.0512595890798156 0  0.95645014045901 0.05569975997570704 0  1.103303228878778 0.05944142846397268 0  1.026100421441896 0.02834162401744205 0  0.9469263366517966 0.06988042408999255 0  0.7132172243997709 0.07425729191821152 0  0.7155615663612657 0.08457311609723715 0  0.9415291592909205 0.03406733733744166 0  1.032460937526136 0.06007830755732036 0  1.199777030125315 0.06730110613891292 0  0.9409399750308935 0.07008117496798111 0  1.053696016504214 0.06802629824338566 0  1.066965377993226 0.02646870042418328 0  1.14018296217098 0.01651480728144295 0  1.074670879494025 0.0875640131111407 0  0.6966163999564386 0.02112527739928722 0  1.111574094108408 0.0329453644159402 0  0.6453811930410537 0.01069762792992864 0  1.083528572627218 0.09296194031576532 0  0.7235552766799236 0.08430775320642486 0  1.033518228962951 0.06177213010686447 0  0.6413885259161018 0.01083453235349936 0  1.068951312133792 0.02629347779391303 0  1.148685486263888 0.01055209435946764 0  1.075628362441463 0.08932006921824912 0  1.146655079904774 0.08581824073186758 0  0.6576085028928497 0.0536017593520132 0  1.024690886774149 0.03541691502348704 0  0.9889009205386148 0.02642258437652333 0  1.070076111705448 0.02793003487851705 0  0.9534017226875148 0.05407202998422436 0  1.10436001755272 0.06113539669360427 0  0.9449313718105183 0.06994698542568488 0  1.077623406578473 0.08936608143973153 0  1.036448939863123 0.05994517205074232 0  1.027244961869343 0.02997423549589167 0  0.9967257864373105 0.01356124736055606 0  0.9524605618767672 0.05583267915210763 0  0.6964013950429369 0.01422046498102664 0  1.037507064047998 0.06163942151242852 0  0.72915077034635 0.003437512919524162 0  1.075914744408962 0.01524557828083315 0  0.9439900546207332 0.07170853065724944 0  0.866770574311271 0.003558669562247208 0  0.8709903824133121 0.003636706200121242 0  1.02640418933173 0.0317816420468936 0  1.077893020201035 0.01506738769621828 0  0.9426587943812343 0.03567888581982956 0  0.9880578402313122 0.02823055479884634 0  1.145608030272606 0.08752812564518013 0  0.9929241664897546 0.07179899566730844 0  0.7236685237554357 0.08776699365593388 0  0.6514989259587504 0.01397006798813598 0  1.040435998947604 0.05981032976588752 0  0.656551457383396 0.05190666390821308 0  1.079115207608859 0.01673362695634082 0  0.9849279478753293 0.02677321603139617 0  1.027548345971598 0.03341433618654649 0  0.6566488238565222 0.01899157562007362 0  1.14447194757914 0.01961868158219511 0  1.141714648248546 0.0391109335599651 0  1.04242990287269 0.05974395323724348 0  0.6414061466153762 0.07670249525047067 0  1.131616943618289 0.08719270948397295 0  1.081864094178572 0.01471685115570271 0  0.9494115943619834 0.05420509371027211 0  0.9840846994572505 0.02858091654750546 0  0.9278544635423679 0.02660271904073989 0  1.19182835432591 0.07834843988263761 0  1.083849626354773 0.01454158307353928 0  1.043488507782235 0.06143841372038641 0  1.142657424342931 0.08572146726913431 0  0.65369813221276 0.0208072869876117 0  0.6537281706041822 0.08665692450846556 0  0.8987934151238031 0.01526537028138802 0  1.116084821233049 0.02733737646323345 0  1.107292262737273 0.05930771497356993 0  0.7093497168661198 0.04838512608487702 0  1.113563611687439 0.03276865452566038 0  0.9389446369726772 0.07014737416184512 0  0.4029694568570166 0.06266961754152597 0  0.9474168331395315 0.05427106330148514 0  0.9149883673253449 0.07094094789030281 0  1.163765201622776 0.04182854738013403 0  1.162711230719036 0.04020428744009456 0  0.6995444522106588 0.01930257954731551 0  0.9809554565383851 0.02712357007553369 0  1.071971350814489 0.02772594153470934 0  1.046419193646052 0.05961211254787202 0  0.6805771791066261 0.01819982758686623 0  0.7101623986416223 0.07263191828455169 0  1.115512982100499 0.06595250194750393 0  1.06366782656763 0.06769400182889401 0  1.406363485313889 0.01042078010593947 0  1.047476608927616 0.06130549603024682 0  0.7175587471356519 0.08450643006581783 0  1.665850096575951 0.01047635503206651 0  0.9369488776374577 0.0702141724223848 0  1.396419231490941 0.01040077980074259 0  1.140657219698004 0.08567525666914194 0  0.6783686384617789 0.01137200148687721 0  0.9801125812606515 0.02893089615609659 0  0.6516212532634276 0.08326192708941882 0  0.6668377688231566 0.02556327606388518 0  0.4220558726693358 0.04422040176791293 0  1.050407162944943 0.05947858398886217 0  1.108349315000096 0.06100258288587057 0  0.9454218040607498 0.05433749183101531 0  0.9781272794269507 0.02910626850460428 0  0.9737405682938071 0.01385270980972169 0  1.051464814143838 0.06117228953405969 0  1.087337886856341 0.01944656622105564 0  0.6658526199302651 0.02735292376258141 0  0.9205252780950948 0.05689696908313215 0  0.9289637866824525 0.07048107120546926 0  1.078580017489966 0.09111771070906918 0  0.9349532100355531 0.07028065346367089 0  0.9434265039007801 0.05440420075256069 0  1.077548972737356 0.09287387550502786 0  1.143321167727126 0.0179767834066394 0  1.054395158798015 0.05934536084985366 0  1.135615291907539 0.08729003276852276 0  0.7005983532750687 0.02099417892871758 0  1.090488425346257 0.02092450490256076 0  0.932957128004946 0.07034760203433249 0  1.055454273473151 0.06104049798397766 0  1.134571180933301 0.08899681046093205 0  1.138567483635711 0.08909269140198098 0  0.9424848655330293 0.05616512334726183 0  0.9199231296234781 0.06904539406261784 0  1.028000615539127 0.07581379993531709 0  0.9188682583725841 0.06734606164807592 0  0.9394357077223756 0.0545371543024994 0  0.05778696003072337 0.03660414568445063 0  1.093282626106914 0.01891073432607466 0  1.058381460557294 0.05921044211148518 0  0.6774274334017227 0.0131277891533699 0  1.035250113966468 0.04786367913919235 0  1.060375310234997 0.05914406537393023 0  0.6796362418949686 0.01995651522855806 0  0.008497008596306629 0.04462737915718323 0  0.6505544398910916 0.0815597830463464 0  0.6008336333171851 0.09015840007864773 0  0.599770199936301 0.08848211328939347 0  0.9218051732730459 0.06551851256659563 0  1.141329717369459 0.01815085091238946 0  0.920750455273487 0.06381822887746548 0  1.117509346076103 0.0658857820154862 0  0.9309605604760978 0.07041444148589923 0  1.38042921082105 0.05545549729678481 0  1.073639382759961 0.06735537702587191 0  1.111282350236475 0.0591745811818051 0  0.6753241644010326 0.04607817878655605 0  1.10460988806988 0.08828032201235672 0  1.036278607499366 0.04955093867320554 0  0.7165379101525112 0.02046736630247286 0  1.061435639319034 0.06083939037994097 0  1.198088770353495 0.05107358810922484 0  0.7195563011889848 0.08443974177995317 0  1.197762209986781 0.08183916633134071 0  0.7113472957971789 0.04831890567352727 0  1.138771162279246 0.0409357722040867 0  0.6357077852976545 0.02139900323946647 0  0.8902220416128406 0.009059496916074739 0  1.064365084779517 0.0590123795514237 0  0.9630811915048753 0.02869925188716339 0  0.9270099292791734 0.0284119637094799 0  0.637815483139321 0.05772317074059659 0  1.065424869404924 0.06070773456317483 0  1.194859134025638 0.06910972092167875 0  0.93744018336709 0.05460408399757676 0  0.4373257138378637 0.01884476189518623 0  0.9334480373640545 0.0547375097693503 0  0.9279091524855128 0.06878488649534731 0  0.6038857134943894 0.02938340695971558 0  1.06835048947448 0.05887682069992711 0  0.7035259811575861 0.01917149613878495 0  0.9364982778717919 0.05636493825727396 0  0.9617122410370034 0.03574651532200527 0  1.070344302982628 0.05881037280581748 0  0.4524255964945714 0.01039666109255076 0  1.188540626355239 0.09486268449865723 0  0.7761773369002198 0.09649931792832958 0  0.9772856617267294 0.03091382934257185 0  1.743715892899761 0.03466089293960252 0  1.113277685912105 0.05910839759576367 0  0.609538430175816 0.09485770538883675 0  0.9459399127948771 0.01630405187690752 0  0.9277929218072287 0.06532648648776128 0  1.071406387302656 0.06050677801182718 0  0.9598216803279342 0.03584329865058045 0  0.8609912301858424 0.00349328118009372 0  1.118595921331757 0.06759750066652788 0  0.9997142394573919 0.0909710763150276 0  1.136762121820941 0.04102270817201512 0  0.696303645238235 0.07655007560670125 0  1.074335084124163 0.05867938444930982 0  0.9172158594160209 0.07779520093679007 0  0.9784299332458644 0.03254573992697623 0  0.9622405161950758 0.0305082391013592 0  0.7133453111938386 0.04825230930803222 0  1.127101325077083 0.01592974490616932 0  0.9238783443275291 0.02695170622985812 0  0.008104229815619739 0.02598928730993734 0  0.8953482675209383 0.01034450372274603 0  1.075395354855239 0.06037438274241935 0  1.114335366196953 0.06080224507380305 0  0.9715771907502483 0.06039113473663606 0  0.7215552397973057 0.08437322428502173 0  0.6743898424171539 0.0115021210711855 0  0.9986235451023747 0.09269867972487 0  0.6536275153735771 0.05373674871983201 0  1.156653515142243 0.08605229487377417 0  0.9795737496401623 0.03417748898541867 0  0.7045809927656463 0.02086365254412614 0  1.120597328259484 0.02173279972049171 0  0.9633844549445136 0.0321412619953728 0  0.7388625373521599 0.003580774382293646 0  1.410805327012903 0.01969032909473458 0  0.9314521808934 0.05480301761197939 0  0.6765956717209316 0.0183292961016828 0  0.8984761384739941 0.05415740139106871 0  1.790084495500798 0.04404268438324666 0  1.078319996451426 0.05854334164563163 0  0.9787452685209106 0.03597039147634263 0  0.8820103086207296 0.09642529956012326 0  0.8994930323962358 0.05586881023413293 0  0.962545096761406 0.03394812268440732 0  1.080314679599467 0.05847739465281783 0  0.9054841521934316 0.05567266740370744 0  1.135518985491224 0.0393849730567522 0  0.9294554938353963 0.05486985270010334 0  1.729816670061072 0.06093363895790999 0  0.9010913818049555 0.01854556782793928 0  0.8581008050480439 0.008759929358188787 0  0.9427090887291067 0.06309534069562926 0  0.64458803990042 0.05230677827750968 0  1.117267799564989 0.05897425438598912 0  0.009680687435257622 0.06473987697476648 0  0.8166709299927433 0.05083832525941393 0  0.3929641594446877 0.06323750563219835 0  0.7153438649308065 0.04818544304860187 0  0.6628428200428542 0.02569501918977753 0  0.6306579917959044 0.05277069403662338 0  0.6734471758304732 0.01325749936496886 0  0.9274594085840004 0.05493587965978269 0  0.6546684209675149 0.0848980375447755 0  0.932877320241762 0.01572089277440882 0  0.8991014237268005 0.01871975547771726 0  0.6618514256508743 0.02748774009671072 0  0.7213411321287073 0.0479865619063071 0  1.139612134254341 0.08738407682371988 0  0.6598573812447979 0.02755017501508755 0  1.739677827475563 0.0606313219128944 0  0.7173425230345302 0.04811865376238086 0  0.6568486787742243 0.02589055734830689 0  0.919470631206573 0.05520304906562905 0  0.6558546577449228 0.02768465303893037 0  0.9254628832388458 0.05500239121281209 0  0.6528508138596905 0.02602179293670377 0  0.9218903879562389 0.02712662833202933 0  0.6756521871871325 0.0200866442576073 0  1.114406018717211 0.03096152970950185 0  0.7075076065638869 0.01903935406630946 0  0.6518568117587327 0.02781590652494875 0  0.7258985697042215 0.03230645387572163 0  0.6488529717274246 0.02615305625997581 0  0.6852921601948144 0.04573698333482512 0  0.7193419218353557 0.0480522353057851 0  0.6478589657722926 0.02794716000308407 0  0.6516300116017009 0.05380030292881547 0  1.121502916352037 0.06575147789190167 0  0.6448551255653472 0.02628426428863127 0  0.6438611197858325 0.02807841348126863 0  0.6418621967926091 0.02814404022038127 0  0.6901903021403651 0.007555302495808568 0  0.638858357147553 0.02648116028574017 0  0.722397250906076 0.04968266327936806 0  0.6378689900920255 0.02827170481794725 0  0.6348605049106304 0.02661245802158788 0  1.117230668859552 0.02897333385256609 0  1.11832714347109 0.06066838274870801 0  0.6338711441752156 0.02840297059912938 0  0.7243999992276198 0.04961814670299398 0  0.6924129844580789 0.01436166108776104 0  0.9340218822070601 0.01735384399094836 0  0.9078947295929156 0.01619552207816901 0  0.7057404422754212 0.02602309214555021 0  0.630862665806929 0.0267437337434281 0  0.6298732973541146 0.02853419049804848 0  0.923466102225426 0.05506953990953772 0  0.6268648198072369 0.02687494104514337 0  0.6258754515933718 0.02866544886512186 0  0.6228650033034057 0.02700655842269018 0  0.9225232452604232 0.05683065416081251 0  0.7085642038218199 0.02073112173455269 0  0.9090398917158431 0.01782713546853541 0  0.6434961432182132 0.05059084131527028 0  0.9210458643496626 0.02893553217597817 0  1.15274507460148 0.04047358737294359 0  0.6323321109049341 0.04577090694553654 0  0.6505643832807324 0.05210544047794469 0  1.122590589385016 0.06746402119476404 0  0.3922922559837753 0.01047874547121176 0  0.6704123158942464 0.01162974185650925 0  1.121259670855717 0.05884067854881544 0  1.11207161812659 0.003447790130472813 0  0.9101850729030996 0.01946150871052464 0  0.7007671616090407 0.06080852679732682 0  0.9190590444402846 0.02911007242073368 0  1.655219432156503 0.08948658536859712 0  0.4279199635958498 0.06986897493231059 0  0.6726119899808263 0.01845941388540227 0  0.9267391382003931 0.06362658133845202 0  0.04446884822943633 0.01044944931891986 0  0.7114911332964895 0.01890734208764448 0  0.9174738292230697 0.05526777681442891 0  0.7309557655354422 0.0338713634578567 0  0.6979860443904573 0.03666069800227316 0  1.114886614654793 0.07467457771735234 0  1.175894452089668 0.07778721612731439 0  0.602950575181243 0.03115588566626353 0  0.9093476448059883 0.02127836514557006 0  0.7363467834714019 0.04582296092304135 0  0.9154755682524393 0.0553345027862201 0  0.6721682950864599 0.04097640746497187 0  0.7255812154983428 0.02192452049282207 0  0.7309949289288229 0.03728327655729936 0  0.6684203626639083 0.01169698490794992 0  1.125500472959061 0.06561778024823807 0  0.7246381533673391 0.02368553985365739 0  0.6675635458652416 0.08271762379172656 0  1.123255861561146 0.05877517599275537 0  0.7008792004884918 0.06426350065537367 0  0.9170710399544483 0.02928475930629479 0  1.127501445784472 0.06555345965218018 0  1.128590627745483 0.06726553441394102 0  0.7019364403346109 0.06595829487891328 0  1.131498775283112 0.06542041129892785 0  0.9134773724306935 0.05540067594723865 0  1.132591831878147 0.06713470190284375 0  1.134586970525734 0.06706569951910965 0  1.137492028729825 0.06521680659417878 0  0.6666287433746445 0.0844908977581097 0  0.6950432412497608 0.03847872536504227 0  1.154740973959529 0.04040802425125686 0  0.7320562241078248 0.03898422562303056 0  0.9005376805315318 0.05756734142972885 0  0.7134839226983578 0.01884213158325228 0  0.6696754337896437 0.08610814662799232 0  0.6706193278495448 0.01852558641834694 0  0.911476287649488 0.05546940727312212 0  0.9025368737604549 0.05749895003358461 0  0.9034803300366183 0.0557385595533153 0  0.7282891959532416 0.04604833911749934 0  0.9065369441183551 0.05736535199281646 0  1.081372393741364 0.06017127726239455 0  0.9085338971109868 0.05729809034587918 0  1.195445492770857 0.09650258087461562 0  0.9150844042108646 0.02945727583856958 0  0.9094762995424053 0.05553705107215007 0  1.124314527958453 0.06046821509379073 0  0.9123917843908178 0.01056215980054845 0  0.7039346494539053 0.06589558271532328 0  0.6674745416447334 0.01345238197387252 0  0.9117797195708608 0.08841360454395188 0  0.6796635291847805 0.08580624353866474 0  1.082426873142076 0.06186453486222506 0  0.7049909327714611 0.06759234386756938 0  0.6476408147863416 0.05393720785101217 0  0.9646483756019771 0.06236849776469962 0  1.081490386702844 0.06362425585550061 0  0.6985274341559977 0.08341660048545971 0  0.6982967375375052 0.0106762531127867 0  1.181261861757562 0.05683031162077466 0  0.9184435686685186 0.02220796660439334 0  0.7046432155043375 0.08667692393779952 0  1.082544178433612 0.06531871592565611 0  1.177136372969465 0.05350940454978227 0  0.9546739607479431 0.06270148302355935 0  0.682141279669555 0.04064341562616178 0  1.174087017303223 0.0518791270309112 0  1.126309821317886 0.06040155622569366 0  0.61096492199917 0.03088382114150055 0  1.173106511794731 0.05366162521277214 0  0.669674218878536 0.02028256671886213 0  0.7045274960662439 0.08321603009455404 0  0.7145418147724589 0.0205343257576014 0  0.9131917575835509 0.02957885860649721 0  1.169108485078811 0.05379495877734709 0  0.7051042995328807 0.07104477117305755 0  1.170101926729281 0.0520015056154758 0  0.6006448282830598 0.0832496951210048 0  1.16710983019392 0.05386190757829421 0  0.732346356918243 0.04595514720348472 0  1.164102095498043 0.052203677723574 0  0.9092584517736931 0.009112976893145754 0  0.7174721042407539 0.01871045166821265 0  1.195073890383838 0.09324090561547643 0  1.163120313083918 0.05398774593335913 0  0.7071059744985398 0.07098294671504786 0  1.20007169065705 0.05099616004233444 0  0.6875148456643621 0.08206429466680495 0  0.6954860263528757 0.08177379482402025 0  0.6406126652995923 0.05244554294023054 0  1.083602179984686 0.06702256137714634 0  0.7132642574552395 0.01192549813617183 0  1.111504990668543 0.02078415688614301 0  1.045713470237996 0.06829911648484301 0  1.031087580577588 0.005324544643910006 0  1.156944873749498 0.04724046163688133 0  0.6644403398359426 0.0118252288640906 0  1.109011662645816 0.03836503757003859 0  1.121135813121224 0.01644979193967499 0  0.6513598660320277 0.01049406051830834 0  0.8488409253145036 0.0297246597728763 0  1.070187663985644 0.003510233568890579 0  0.9989022281862503 0.07160014893512504 0  1.116390340600797 0.03078358146350145 0  1.126544145896231 0.02121650223284927 0  0.6666346506758332 0.01865409953935845 0  1.128311062609408 0.06033740397263371 0  1.03879818000077 0.0702508848320253 0  0.7326561961259195 0.05632389311284558 0  1.008872870327588 0.07125989125982228 0  0.9817878937900824 0.06696747472087163 0  1.156735269426937 0.04034410147133839 0  1.096123443801284 0.0169070295233801 0  0.6383914170881899 0.071710769119362 0  1.130310481717194 0.06027083133365467 0  0.935164061231092 0.01898056847217029 0  0.6624480927316536 0.01189210472335386 0  1.102417770045471 0.01983593384716949 0  1.103263326198298 0.01803844631505672 0  1.077951660595512 0.0272396056890419 0  1.018847576542541 0.07092678360091778 0  0.6806028015261661 0.08402965201498824 0  0.7023917030748767 0.09664352991884359 0  1.154950050458577 0.04730833416075098 0  0.7306137999526129 0.05635228233183082 0  0.4481390498008641 0.06824287815889299 0  0.7357540855507205 0.05797366583061233 0  0.7394160077697411 0.0474568685037679 0  0.6536139801820693 0.08320598377767277 0  0.8321874324759673 0.09650205192094173 0  1.133246500747799 0.0584447159941061 0  1.082368130314676 0.003523066572059371 0  1.134309000442774 0.06013831647366916 0  0.9387533345957346 0.09470380035843914 0  0.6040163170472943 0.03285451218082062 0  0.6550304659031658 0.09167829124441954 0  0.6656853952141761 0.02041200930505074 0  1.138300014264203 0.06000650491621441 0  0.603384655004199 0.06329707648958541 0  1.136305787048628 0.06007225181748964 0  1.139358670874932 0.06170035237519512 0  0.7194666787239545 0.01864556640446782 0  0.7072909031824814 0.01212603027653334 0  1.196785973424398 0.02191153058673205 0  0.6495759848604119 0.003484879086705222 0  1.084665784545381 0.06873901290568957 0  0.6614985382733222 0.013649158170066 0  0.6395057610722916 0.05072641966895561 0  1.20041608734435 0.05822645707056033 0  1.203574067518532 0.05983918173548464 0  0.6373060496330167 0.06307367248254164 0  0.6917962954993995 0.02647384756492158 0  1.093576402098548 0.06669206702970024 0  1.153938636021782 0.04911067703075715 0  0.5559590429647295 0.09364680837056566 0  0.5567893258339299 0.08459573496114026 0  0.7018183806624356 0.09194078706012579 0  0.7027621722868573 0.09020785481299896 0  1.150962552189949 0.04744051231616403 0  1.004065659906679 0.07660109559005769 0  0.7037041364997001 0.08844323505579463 0  0.9188782881941649 0.03784817710761408 0  0.6408775408689174 0.0593683757462258 0  0.6626471698697685 0.01878243753403445 0  0.7205228256539534 0.02033765240078004 0  1.330586830252795 0.05644734453619973 0  1.159780811020403 0.04196809135549884 0  1.121430042025523 0.01991536399242532 0  1.175908828749467 0.04144155997616568 0  1.222932897856368 0.03979644078284514 0  0.7505610093965849 0.05227261309009081 0  0.7035910299509062 0.0849840899205154 0  1.08451381066315 0.09471674149696728 0  1.149438340723463 0.09453226835219078 0  1.129079916955387 0.01575809084293315 0  1.149948601770682 0.04924040118112585 0  0.6366314743106249 0.05258646648276438 0  1.107542546475429 0.0662248177784774 0  0.6584660282936735 0.01202130649857249 0  0.4838731799330363 0.03391187687449559 0  0.6003742471964975 0.04343822208443519 0  0.6399886460109938 0.06115882566345263 0  0.695629415357702 0.0852109716122407 0  0.753625556134377 0.05391783112999581 0  0.6742453458881973 0.09301446009600112 0  0.6534988650759147 0.0139230684424719 0  0.753689044979353 0.057333678623515 0  1.199599910861898 0.08881127217960358 0  1.146954969733346 0.04757706967615391 0  0.7225258418809367 0.02027697761028859 0  1.206006577578973 0.006153855803238267 0  0.7557530571791778 0.05731088019583885 0  1.435325501413243 0.06208138371239312 0  0.6346324783781635 0.05265286702891107 0  0.9260703637323836 0.005397094887063373 0  0.7245270298936948 0.02021827505178149 0  0.6606517582251433 0.01884926976271145 0  1.128287527992095 0.005416264972588699 0  0.7557769023271556 0.06071748877150343 0  0.4711165493000041 0.04263627483269583 0  0.9451088756043304 0.01812056635533206 0  0.7568391847698736 0.06242106730222934 0  0.9482391185824161 0.01957582496065403 0  1.143904127292727 0.04595949803481051 0  0.9493878293349765 0.02120526740110625 0  0.7569607311004205 0.06588713121689015 0  1.00554790323339 0.09457064361419963 0  0.7383566634472167 0.04576048873351961 0  1.04536365511986 0.01964425760285531 0  0.9525195608516437 0.02266738197271079 0  0.6596945568106186 0.02061214994278592 0  1.142881574910468 0.04776090791797365 0  0.9584766950602337 0.02214658253794234 0  0.4365508562111275 0.03513155822481191 0  1.140424748857429 0.06339610803309044 0  0.70129602233897 0.003456683024193729 0  0.4682000019520389 0.06686409029421668 0  1.124551350210251 0.02139637586680813 0  1.142586748369918 0.0668155347988401 0  0.462318813790105 0.01034710812315912 0  0.6576910207166734 0.02068382813130069 0  1.144565569562821 0.06673572502293364 0  1.147484974559151 0.06490514295718086 0  1.148561099724374 0.06659927181692704 0  0.762995611754839 0.06573481854751996 0  1.151482718036351 0.06477079811466113 0  1.152558866942458 0.06646564017561774 0  1.155480494650472 0.0646374483167928 0  1.052947157314872 0.07670419599542663 0  0.8760246524856942 0.09652312814287306 0  1.1565566385275 0.06633213983286823 0  1.187296639498447 0.005381859104059175 0  0.6728050120804353 0.02537756049110004 0  1.159478911114805 0.06450529589163678 0  1.160570205247955 0.06621035177550054 0  1.162560953072288 0.06613846369812099 0  1.165474833391986 0.06430578040482454 0  1.160723319689922 0.04021899181584722 0  1.166551063299512 0.06599880148515788 0  1.169473377225764 0.06417201861899843 0  1.17056464255578 0.06587679873512287 0  0.7660930302451712 0.06737128954349063 0  0.8849613140443811 0.09457985111031184 0  1.1725553879876 0.0658047784894244 0  0.3135482824324149 0.06674473756419283 0  1.175469161960423 0.06397178815872487 0  1.6399571054516 0.06399842267504909 0  0.6556923767697389 0.02074852054215691 0  1.176545506542974 0.0656637679249676 0  0.6294574748282259 0.04760819063001461 0  1.179468258053113 0.0638291235611767 0  1.185263681706225 0.05670004006538529 0  1.182415159132298 0.06199821426892377 0  0.6526607581518025 0.01911015400119753 0  0.6137951657983081 0.05851543806431114 0  0.6504280912582087 0.012263030622493 0  0.6506553731420847 0.01918434549036369 0  0.6496951631267934 0.02094625784790344 0  0.647693464468365 0.02101580462180452 0  0.6283204847889954 0.04587550917103324 0  0.6456899059690898 0.02108698019781453 0  0.5348388369696677 0.06043533513744492 0  0.643693039199309 0.02115057142129295 0  0.6416920704392867 0.021218551975004 0  1.19998932543474 0.07449108008860814 0  0.9729102987397523 0.01566559300467527 0  0.6396951973841981 0.02128206849623115 0  0.6575186021405677 0.01378726425211841 0  0.6376979050268951 0.02134548221630792 0  0.6263543441632143 0.04595750351731303 0  0.634670445081705 0.01970234878879698 0  0.9740619483792683 0.01729986763309236 0  0.632665074965264 0.01977664973359815 0  1.25437908133552 0.03914031653638846 0  1.257921415195665 0.03363269599600468 0  1.250761670442256 0.03402049223534923 0  0.6234584589575309 0.04779928318404023 0  0.6317048664245714 0.02153812474812321 0  0.6297031979633656 0.02160776617662453 0  0.8892771535059094 0.0388555100852368 0  0.6276996460849714 0.02167905319778786 0  0.6294118527063522 0.07004483960508878 0  1.139945473492641 0.04606413388679628 0  1.198719810321773 0.08360274891735139 0  0.6257027388483474 0.02174253256626226 0  1.136901554445799 0.04795040174133476 0  0.6223472041610061 0.04609282925465748 0  0.6237059230397253 0.02179813104119016 0  1.137952186686061 0.04613190531471902 0  1.133964895051551 0.04626474093470234 0  1.131957771344051 0.04634349163399869 0  0.6194673729771608 0.04794717640299208 0  0.6993377658579517 0.01238160449746544 0  0.5528778088101198 0.05783992747102475 0  0.5497058676565878 0.06254732517301861 0  0.5464676748486147 0.06712185722771048 0  0.95184335704999 0.09658038701532082 0  0.6174561635560073 0.04799831475009715 0  1.100594388702198 0.01131471154988846 0  0.6234469022102883 0.07722728248348065 0  1.098621769059537 0.01150061762038726 0  1.103437719693115 0.009350349274144111 0  1.104630554063324 0.01098592460296502 0  1.107401947323299 0.008983247008935793 0  1.10938684947038 0.0088053288285194 0  0.7780864914883036 0.06696824113464173 0  1.649875605341493 0.06363133143672776 0  0.6163270430137145 0.04627219947446454 0  1.058253669891702 0.09380739066967715 0  1.150057844000799 0.003522937420722651 0  0.7791069168786215 0.06865434833863611 0  0.9868210646426079 0.01445236893282143 0  0.614359390683803 0.04635543431548759 0  1.12093246396831 0.04849265229837423 0  1.124924023938389 0.04835690527749365 0  1.122004000228221 0.04666536210543894 0  1.130904135752326 0.04815896493995419 0  1.126003922141475 0.04652094362932357 0  0.6114906862409355 0.04821731415139306 0  1.127983552636341 0.04646362115106471 0  0.6465741405487788 0.05223860414573293 0  1.057917525310595 0.07496377533441119 0  0.9959035070009433 0.01536357251251878 0  1.079185939692237 0.005251911348001592 0  0.9970527067853237 0.01700444177552792 0  1.003846764746507 0.01465284231577983 0  0.9516967267658462 0.03662856815636106 0  1.001842866904018 0.0148353082026395 0  0.6965375984117872 0.08345010750796648 0  0.6050791585264003 0.03452803684525642 0  0.9204128567502792 0.0827247022926257 0  0.7851120351394283 0.06845790969377682 0  1.118015743789348 0.0467960160865569 0  1.11600691013286 0.0468752899332453 0  0.6110938982552608 0.005002771685731677 0  1.114939985944751 0.04869950318523132 0  1.112029648086349 0.04700371443280842 0  0.758886243140557 0.03970819497760211 0  0.5573378248466165 0.01073935046639533 0  0.560203133016004 0.01485111497788203 0  1.110952550223079 0.04883293997353373 0  1.008957101672717 0.01595264040099437 0  0.9173721217408999 0.08127858042582517 0  1.010110639084119 0.01758677884298476 0  0.9808663839636648 0.01498754128387117 0  1.108048307490164 0.04712944323207714 0  1.10603885016677 0.04720947646701372 0  1.725585691749122 0.06945683332034581 0  1.003358301702455 0.01995087160286335 0  1.104966702903545 0.04903512517634201 0  1.102053331268002 0.04734382841494993 0  0.6131487949959973 0.03772712646779007 0  1.050354169027474 0.003472562950696828 0  0.6206679453916546 0.02016952478112093 0  1.100979176028302 0.04916871835273073 0  0.5481838820708136 0.03442130996675168 0  0.6187461920355721 0.02369649424858785 0  1.173242071280165 0.02754302883311205 0  0.9248275494213889 0.003526606811936731 0  1.142513948475157 0.03039281893487811 0  1.098080989095487 0.04746211535573176 0  1.09607643197369 0.04753568444939062 0  0.6149590189072313 0.03075639782752315 0  1.095013584452547 0.04934869654965449 0  0.6119344419672107 0.02912446263832151 0  0.2088675334441326 0.06358831608298812 0  0.6160884794830717 0.03589921195052458 0  1.09202096824764 0.04769767092040324 0  0.605722502277629 0.02238724748856515 0  0.5902680757455583 0.01676226789179583 0  0.5919799313697479 0.02878606719231358 0  0.591262964302505 0.03115695054863324 0  0.5864792930099066 0.02972126552330162 0  1.022868251641967 0.01473887910951164 0  0.6026922865421263 0.02074425718035696 0  1.089000101034968 0.04607233101436609 0  1.679532038068258 0.0624424313556361 0  0.6201059669080137 0.03927306811160589 0  1.087969810116187 0.04786615690099327 0  1.016909695619375 0.01526328648757201 0  1.039860459454465 0.01492885518597139 0  1.085030714998408 0.04618672463659761 0  1.031950821551386 0.01565549475373538 0  1.044858679387609 0.03710313889030365 0  1.083030965065441 0.0462610531760272 0  0.6221088021366434 0.03920305717386115 0  1.081998743599229 0.04805790764813109 0  1.033100989675227 0.01729173671851172 0  1.123409602830127 0.01975512039503582 0  1.037870399719164 0.01511511432895005 0  0.2239298570161297 0.01029935924575217 0  0.9350453456903667 0.08422468664605688 0  1.079027168741484 0.04640970337876038 0  0.5839084170182318 0.0400999284644759 0  1.077998465078124 0.04820211477720413 0  0.5923574006161401 0.03919621769812966 0  0.5916340854181124 0.04140439334535995 0  0.5889608799868367 0.04237122128417666 0  0.5872572131166863 0.04492568421359817 0  0.5637497144333061 0.03273302462007313 0  0.5615333611765178 0.03711220407812907 0  0.5666782087332576 0.03671741485997798 0  0.5566691674263269 0.03773690993863585 0  0.5600701946304013 0.04231206792291965 0  1.075062591848063 0.0465198554640484 0  1.141496519064239 0.06509089051324317 0  1.073062978100572 0.04659428235713538 0  0.625025944977893 0.03387112375199152 0  0.4845650254623461 0.08998515743656485 0  1.072029245198437 0.0483913489457318 0  1.25790682545717 0.05537241712583912 0  1.260965273668924 0.06122970027174651 0  1.254576762900873 0.06109386927809614 0  0.5371096612671156 0.04264891401201208 0  0.9327643786109487 0.03651869559707113 0  0.7456435513373555 0.02471345295024285 0  1.069059589128199 0.04674326600362416 0  0.6280228410513798 0.03551473563172516 0  0.9283785062881722 0.00897735081228607 0  1.068030040950604 0.04853552304475053 0  1.048986310000379 0.01589105185590171 0  0.9113620430546252 0.08144086049478491 0  0.9126162344537627 0.08322379270124934 0  1.065095082727618 0.04685356365181122 0  0.6289988738568556 0.03375068756218087 0  0.9086027787680662 0.08334647880596699 0  0.9145673643405581 0.0831383657800143 0  1.063103271859282 0.04693073480097403 0  0.8619322722450742 0.005209743951740899 0  0.725815940254786 0.09464635405247532 0  1.062070387608343 0.04872498498761059 0  0.9407703732522406 0.09474248844711367 0  0.6320126601215579 0.03538071410613917 0  0.899872519727221 0.02984165838295746 0  0.9065799783279649 0.08339953546704941 0  1.059104566186483 0.04707936271668466 0  0.599699256793145 0.02252415125618526 0  0.5987127841038578 0.02070775540235453 0  0.5965934037548833 0.02060259746665581 0  0.5977170596465602 0.0189748717938811 0  0.5956087616951319 0.0186268571053322 0  0.594349990473146 0.02051680694053144 0  0.5936179593612192 0.0184801101129284 0  0.800962950083187 0.06438060246876573 0  1.058073750975149 0.04886041162006274 0  1.675881047125323 0.01036221381142535 0  0.6330359375654979 0.03358696765708931 0  0.8044060434164307 0.0535334580596955 0  0.9053856052353061 0.08165810157510478 0  1.055127468671961 0.04718597145942271 0  1.053127667808916 0.04726079280922511 0  0.7999049846683296 0.0627165178079241 0  0.587035427984095 0.0645180346868116 0  0.634994228145775 0.03354762321397643 0  0.774978197299663 0.09471186010789678 0  1.052091371822482 0.04905589708842122 0  0.6793883907356393 0.05941700811832994 0  1.186844153122591 0.07986516690333101 0  1.049148069482619 0.04738427296444109 0  0.6380150242774089 0.03518240619610251 0  0.6197058052602564 0.02193338561357597 0  0.9798973679250609 0.03761054551761539 0  0.4889844693949605 0.04141268784550261 0  1.0462441953631 0.05267090155996082 0  0.6389930302101774 0.0334205555590745 0  0.8930830091098341 0.06826573651526031 0  0.8950311880731967 0.06815114300744057 0  1.071973026870655 0.01559647475439582 0  1.043267827560695 0.05455498491415075 0  1.041297325109249 0.0546113602123209 0  0.642012958736221 0.03505106659734475 0  1.525225086121385 0.009592882266359758 0  0.8007378229495681 0.05744390785741348 0  0.9920584508296236 0.07700201841764567 0  0.6429909122818317 0.03328869416583909 0  1.097597557877717 0.0965793323807705 0  0.830188043009334 0.04623705169810132 0  0.8740450461245102 0.09655447996983595 0  0.646014187851445 0.03491575923915125 0  0.6470171991056545 0.03313361150021628 0  1.085029195517904 0.01615105753687692 0  0.698968592543409 0.03489394077227675 0  0.6999407876264931 0.03313902556136947 0  0.6006574647486378 0.01735660797935329 0  0.2544303085346775 0.07120447439172164 0  0.5847757311535992 0.02171298595826794 0  0.5835083454766289 0.01877026489416666 0  1.086178446488248 0.017796302468531 0  0.5942084441968335 0.08290434205801583 0  0.4951637247717522 0.06475584659529292 0  1.151366084346002 0.09458004652397316 0  0.6490023845998161 0.03307832549254548 0  0.7029206627678724 0.03477669300523272 0  0.686922664653242 0.03184498742533266 0  0.6859452639270943 0.03359979357696537 0  1.03629398646729 0.05300977449442432 0  0.6829584814587619 0.0319561050221937 0  0.6899418198414624 0.03346077072549018 0  1.089312783359119 0.0192745877946537 0  0.680945370151755 0.03203944254539727 0  0.7998444453329963 0.05559542716587947 0  0.6909445159172324 0.03168339785880642 0  0.679966191144982 0.03379720041427893 0  1.033293730620596 0.05489276557273959 0  0.6520073122083017 0.0347179178882889 0  0.6929220665868652 0.03163340121429586 0  0.6769527762840504 0.03217415469934215 0  1.030382692802032 0.05319749518821888 0  0.6959475406378517 0.03326145104295627 0  1.028360513537944 0.05328927257374317 0  1.148058116351883 0.0787252426687132 0  0.729545545877735 0.05466917907202241 0  1.027358249217537 0.05506037557232921 0  0.6759742144440565 0.03393016341461062 0  0.6529853994459958 0.03295846478845714 0  1.024383159363125 0.05342422071196942 0  0.634265147573867 0.06484167088306247 0  1.023343054909717 0.05521736696594985 0  0.6729846665560609 0.03228539948582764 0  0.6560051763776527 0.03458719591112776 0  1.020416317464749 0.05353095721006659 0  0.5618871418700233 0.06760449488636806 0  0.5597970673004597 0.0629779891020988 0  1.018417211088823 0.05360666714929888 0  0.3003256532994282 0.01680702401338256 0  0.5693139938366715 0.04378266877376374 0  1.017375898174867 0.05540560112347058 0  0.9831733365564516 0.04616079537397276 0  0.6569832292821454 0.0328267167268454 0  0.6709689783383866 0.03236918125358136 0  1.014414127782128 0.05375778323088497 0  1.013373368952148 0.05555081484468966 0  1.218264728584619 0.04928229380777755 0  1.010447300532498 0.05386413926212902 0  0.6600040312877062 0.03445237149605625 0  0.6699886725353622 0.03412787069986131 0  1.008448108834166 0.05393999611429098 0  1.167752847800462 0.003498561414552586 0  1.085634412347868 0.0965178735802894 0  1.007406141267723 0.05573893668501983 0  0.6610090658820943 0.0326711869970112 0  1.004444813947554 0.05409135992309617 0  0.666970095038395 0.03250393500979043 0  0.6207404268156465 0.09289044536885255 0  1.01472441220746 0.03623831835053144 0  1.003403404995062 0.05588427315541233 0  0.6488191015129119 0.05905783996985828 0  0.5995512775101184 0.04869639085905804 0  0.878891810357322 0.03235961822861971 0  0.6022952323726138 0.07266051774543088 0  1.000477962935632 0.05419732995112032 0  0.7723780268983365 0.0483109629903458 0  1.207733644021363 0.0300860012570983 0  0.6629934397944133 0.03261602300445963 0  0.9984786623596034 0.05427337544663854 0  0.6659906154649489 0.03426069639193816 0  1.12029440172713 0.01826964832949163 0  0.7353681044069778 0.04758171532016764 0  0.9974360454452977 0.05607229340424907 0  1.007882082310766 0.09653226516993162 0  0.6522260015684367 0.005315422551613158 0  0.994474970452911 0.05442575341324753 0  0.9934465774713623 0.05620747487777451 0  1.426078486922902 0.01041743272798419 0  0.9904881140504311 0.05453853759443064 0  0.7261641216486034 0.04264625019439 0  1.038962702028027 0.04085114761820983 0  0.5924693211344971 0.06689561218799886 0  1.238111802986045 0.08547188230631753 0  0.7015965166051996 0.09497819477531413 0  1.248451538325425 0.03988519088717333 0  1.244960510163418 0.03607307426991154 0  0.9801934235463007 0.04799694193668142 0  0.5994230155092179 0.07809740056305708 0  1.341889595414683 0.01804278462706806 0  0.9772303891293124 0.04635738732295989 0  1.075623878805308 0.09646440287130478 0  0.8301971043720431 0.09653057548307911 0  0.9761934743813661 0.04815007460212375 0  0.9732715878378015 0.04646266756975038 0  0.6508135166103743 0.05896694477529297 0  0.9712706610261308 0.04653929528286011 0  1.244118667718819 0.02781624636358843 0  0.9702413436726159 0.04832162470205151 0  0.96726320505819 0.04669618253356068 0  1.210849244296826 0.02435426146248208 0  0.4419931918703706 0.04378679756027802 0  0.8134957344768783 0.05540162389982864 0  0.7078763248454041 0.0328614374213303 0  0.9662230052675894 0.04848422954576534 0  1.227365169539822 0.02881662410346692 0  0.9632981672586698 0.04679720547767292 0  0.8561039063007088 0.008856632201503463 0  0.6323296879354845 0.07177105221979763 0  0.9612710238470241 0.04688755653254218 0  0.9602651228886987 0.04865666188826867 0  0.6916353265122309 0.05931467150824141 0  0.9572924250845396 0.04702427493383186 0  1.127380083683954 0.04002921653500831 0  1.289759089295077 0.06408036318752097 0  0.7088524977577171 0.03111007145828186 0  0.7048698410490949 0.03123963836693652 0  0.9562511039583059 0.04881643387452674 0  0.9533286777927431 0.04712840947066495 0  0.9347596866274586 0.003438713628445514 0  0.7118696031062477 0.03272945437997609 0  0.9513003550834235 0.04722198316076424 0  1.226949825325469 0.07317667418409292 0  0.9502922618422313 0.04898969876519967 0  0.1333588946189745 0.009376396086493844 0  0.9473188142875171 0.04735905475347184 0  0.6729978946409932 0.09122767267614941 0  0.5082857714309231 0.01720495279442186 0  0.946276982736554 0.04914998721843332 0  0.9433541053067053 0.04746370862668065 0  0.9413250952737597 0.04755645125606403 0  0.7630210250453671 0.09500979586491856 0  0.7128425955472056 0.03097796375526821 0  0.9403165574674515 0.04932266130149748 0  0.9373439605484589 0.04769141844469282 0  0.6167647215310079 0.02377633165162338 0  0.6244176466971005 0.07545506198904768 0  0.6158279993776155 0.02553536965766988 0  0.7158631765854828 0.03259701364603353 0  0.9363411569569392 0.04945824910802711 0  0.6168645051758639 0.02721924436823471 0  0.6159194937556079 0.02898706426251482 0  0.9333543795813407 0.04782334023757385 0  1.425693205941359 0.07291541545888755 0  0.9323516591285538 0.04959187129092153 0  0.5770435017044746 0.06501359641884391 0  0.7168354562726692 0.03084959007890244 0  0.8479498686841782 0.0273408970169137 0  1.161691339125627 0.03857212731932701 0  0.6414672207517205 0.07339283506965459 0  0.9293737892129155 0.04796148182962845 0  0.7033663503640197 0.003450366113861287 0  0.9282879489340669 0.04977815805382815 0  0.4020952068055994 0.01037658666707526 0  1.205454070796044 0.05209403496757919 0  0.9263750240291337 0.04979987767478976 0  0.7198414765486156 0.03248693280911333 0  0.8731064038848001 0.003489950103403769 0  0.5884478971508071 0.07411692514707566 0  0.5769350642373284 0.04088165572412928 0  0.5739020212170822 0.04311947246151712 0  0.5708231167022231 0.03987376378982856 0  0.571218841924316 0.0356544970442107 0  0.5683072439569834 0.03224651399624957 0  0.7337171281336305 0.05801806126762347 0  0.9233947150222486 0.04816445899772927 0  1.042563510026923 0.021485541801978 0  0.72183285865006 0.03242700034679329 0  0.7367483789655742 0.0596594936761078 0  0.9222975769622669 0.04997895984719851 0  0.7303159030652822 0.04600101650506559 0  0.5894697887758525 0.01953394920421201 0  0.9203735563233288 0.05000105827756134 0  0.7387437638899189 0.05959634852609845 0  0.7238491027840293 0.03236060486461124 0  0.5808652179238596 0.04414536832234058 0  0.7333520370835729 0.04764136299987806 0  0.7407413537598659 0.05952806014528016 0  0.7268855874337532 0.03399444441539023 0  0.0442654579824675 0.06231183029397803 0  0.5647525679938927 0.08051463395180372 0  0.9173900837081069 0.04836655641044212 0  0.5076628045993103 0.04228842089066825 0  0.7289053763537269 0.03392539690436405 0  1.635084400865019 0.07266192938668961 0  0.6335564764498484 0.05096149793704303 0  0.9163047672772863 0.05017987806139999 0  0.7417034394932617 0.05775380763427141 0  0.9759025495910563 0.03792542673339235 0  0.5988211645743865 0.02784111554345474 0  0.9143793992779196 0.05019946106016174 0  0.9418660467908375 0.0965109966768313 0  0.7426655477061702 0.05597982704187407 0  1.044089090286153 0.04236206608599526 0  0.7436367198278115 0.05420580482959701 0  0.9113651819791208 0.04854678331484275 0  1.201153615078075 0.05264228963298707 0  0.9083937751704181 0.04687499298027938 0  0.9063786465737544 0.04695551131322231 0  0.7456303862600262 0.0541373058716428 0  1.025972706659178 0.07799772380313508 0  0.904368406830943 0.05051094066416524 0  0.9014296191495317 0.04886002119474307 0  0.8994243735523371 0.04893446214717965 0  1.112881265555656 0.07468130519677757 0  0.6324950912359903 0.04924551214450676 0  0.7476068566815003 0.05407177872296291 0  0.7485652983898499 0.05233306674655634 0  0.7516003913565705 0.05396019242974888 0  1.045969746014427 0.03879282400053882 0  0.5715398956822395 0.05487322975446613 0  1.264538462053939 0.03352659100931314 0  0.6103973373173848 0.04652388717055902 0  0.7589661253155244 0.06584540787851667 0  1.174841549139927 0.079544522943217 0  0.6007127944795144 0.02078211470486517 0  0.6093428907954841 0.04482659382188965 0  0.8316632975302594 0.04298319071700282 0  0.5954378998075157 0.0499902363493026 0  0.7609868336204628 0.0657876720765817 0  0.7640512877337864 0.06741493624999118 0  0.610275904820192 0.0430712960253493 0  0.6112181210854926 0.04130714501780829 0  0.7670772848432899 0.06905297997744766 0  0.6314222527093947 0.0475423251807659 0  0.6121738649114273 0.03951641112620756 0  0.6151077330538224 0.03768569999421748 0  0.5705338017096772 0.01988749151173142 0  1.153649353296079 0.09654838376830446 0  0.5587833538150478 0.05766307584324111 0  0.6230859887541662 0.03743480540491796 0  0.7690699846791438 0.06899239030417631 0  0.6322138191944431 0.0648487408065518 0  0.6240488760254094 0.03565516762246661 0  1.251535958375806 0.01260417800278604 0  1.272919421854777 0.06431485773030064 0  1.270958959274546 0.05689789596040048 0  1.037283267278299 0.05125915676878802 0  0.7710688881568544 0.06892616847805623 0  0.05730948409384455 0.01953506925690553 0  0.7730713358309902 0.06885469706084421 0  0.895913371101106 0.00514616129722609 0  1.08856834591382 0.09481148132522089 0  1.075914743710549 0.02739444091294621 0  0.7750913625366579 0.06875974682286004 0  0.7760626037292108 0.06702367477241689 0  0.780128258785415 0.07034817949599845 0  0.9890050321318584 0.07866431976204293 0  0.5409646913624849 0.05947153387836605 0  1.041018806171905 0.01651042573450064 0  1.286169336975352 0.05696723269499648 0  1.009535311706731 0.09461878550213229 0  0.6520981764935692 0.09353777031065107 0  0.782146006198484 0.07025939207561172 0  0.7243049276046412 0.0965861285263598 0  1.204346991222244 0.0785789606218962 0  1.205431610728273 0.08091044841473378 0  0.7831133015015794 0.06852413868509526 0  0.7861240763872487 0.07015313772590302 0  0.8955335883768701 0.05601234155213029 0  0.7722029235263377 0.09657366975354648 0  0.1789186442509465 0.06469801973525489 0  1.337051616664883 0.01016556909622449 0  1.228820007524948 0.08453005235478372 0  0.7881417352047808 0.07005590419474592 0  0.8709771478408603 0.09492085264274111 0  1.20409054739894 0.01223149773638107 0  0.8730102797465191 0.09486837500857051 0  0.6693984432656594 0.003362741751799057 0  1.173847636881778 0.04152102844351833 0  0.5166329215741856 0.01740902776588529 0  1.78347264254432 0.05206790523659467 0  0.7891162414514126 0.06830883342887793 0  1.68292448458564 0.01954562655447743 0  0.8508369895203037 0.02643605952044852 0  1.089919684533848 0.005348616541046203 0  1.252039600750732 0.05542160685916957 0  0.7450438830370837 0.00746070234684311 0  1.282341672906333 0.03578529888717162 0  0.7911194446029953 0.06823376652862669 0  0.6333540492335732 0.07002412946184569 0  0.5612660775779906 0.02005740389084612 0  0.7038960775428377 0.03299722175718538 0  1.669854258809915 0.06270492449915778 0  0.7931261834471601 0.06815466102880663 0  1.217858847574556 0.09560478131025299 0  1.200723623273578 0.08365623405053815 0  0.7951215100684387 0.06809340028589408 0  0.5716370956475465 0.008796519128983563 0  0.9152207973807569 0.04157167264900656 0  1.012462641637621 0.003420314110031576 0  0.7971122565776869 0.06803042818753778 0  0.964988673887479 0.07832177729031918 0  0.5536689230033033 0.03360145382033611 0  0.3887435394161639 0.07098833963266148 0  1.202376891981948 0.09102587210419799 0  1.203640390254176 0.08924676334243062 0  1.204380554303833 0.09138734957353714 0  0.7990725671965653 0.06796471105192523 0  0.7511749590017552 0.02173695708153971 0  0.7999973173721905 0.06623379208338062 0  0.7988438636817518 0.06106994871194502 0  1.225314036527082 0.05026235691642337 0  0.5869836233612516 0.03983962854664438 0  1.655140667877505 0.07188048873538223 0  1.240940250141586 0.05426981335059375 0  0.5237593839649258 0.04239962428903411 0  0.5961824126396649 0.05748583889971637 0  0.6273681271630602 0.07365208555349928 0  1.240438199490811 0.01488903397956738 0  0.7997874889287784 0.05928493933917448 0  1.194386673409008 0.09491626141492954 0  0.6535860034056964 0.003398627787834689 0  1.235491100254137 0.07296541386526151 0  1.0509489553531 0.07670587638743803 0  0.6187980981847602 0.09300294603463073 0  0.1944921833996359 0.07259728558314517 0  0.577567375393733 0.004664637874937606 0  1.086025218204183 0.07571602694920748 0  0.9533121724329982 0.005192831408364436 0  0.5854355006981605 0.09576965447945868 0  1.435557532900208 0.01047587769213724 0  0.5797445526642905 0.05381135796602096 0  0.8278692290522757 0.09462808962777342 0  0.6733999900093106 0.05952320201744702 0  0.5735521309351816 0.07851345993784277 0  0.5757454156228047 0.08173157275058987 0  0.5809162872289512 0.07811087870594584 0  0.583250823357623 0.08116705297040183 0  1.209009091563668 0.04442374154479699 0  0.6041361121224434 0.03634673480355363 0  0.5944156495416166 0.02832512549353608 0  0.5432641471699149 0.04292344470129952 0  0.5354167868480799 0.03610912495821909 0  1.245582748789553 0.08200077002109477 0  1.253040017443741 0.0878176639173722 0  0.9448073477045882 0.09483413711117314 0  0.9578356377296862 0.09661684807369554 0  0.5961272433055814 0.06507748263019758 0  0.6012773229800485 0.0707586168001258 0  1.231709471164846 0.06107341754797116 0  0.6702182045222553 0.09303974455671229 0  0.949656575132198 0.03677366273696941 0  0.2309249793337761 0.01931588588865923 0  1.140412051031162 0.03036695295088949 0  1.216883550331047 0.02479597867444187 0  1.210954620324958 0.09049076876450257 0  0.6031659100788588 0.0382238705861441 0  0.59537030176999 0.08936776185270003 0  1.089612607040773 0.09653037731288386 0  1.155307063992205 0.09466618279584955 0  1.160664356906107 0.03687061385104877 0  0.7049766376262019 0.005320905790102431 0  0.6170742520834602 0.004868712021377655 0  1.414985166786708 0.06282465214559403 0  0.9779173986214795 0.03775477565318777 0  1.625150489571927 0.0729666409157394 0  0.6310751523581117 0.0631428223452532 0  0.9774884074479214 0.01011009083453499 0  0.600531753549661 0.07982633190533731 0  0.9129632212845007 0.005601309588080541 0  0.6039908520791903 0.003470647302502 0  0.5805745412939964 0.0649011799903961 0  0.5750767895382805 0.06827716804304507 0  0.5821716279228811 0.06790951855494871 0  0.8969909183588186 0.03086745622045299 0  1.311832566150366 0.05649781395153665 0  1.012073923888593 0.09647895165564802 0  1.20989707345273 0.08296946166236982 0  0.9910659518040437 0.07870381358282631 0  0.586082028879072 0.05256053650967766 0  0.02882734265811312 0.054555329982177 0  0.5885994661391273 0.009742668656727916 0  0.5893482698803014 0.08263857186951673 0  1.210231536381832 0.06918482855882373 0  0.8541625184124603 0.008970671070202703 0  1.216012522423994 0.04113744601742575 0  1.205088862112681 0.08328887370006448 0  0.6363405804770688 0.07171404329686568 0  1.24805276777433 0.06808690749765123 0  0.5913538225357772 0.05715585125892988 0  1.073127293015894 0.005180816387316653 0  0.5899862104713844 0.06377880512244971 0  0.5665929777270361 0.06718049128325486 0  0.6144406003361687 0.06161064324662059 0  0.8778872566431085 0.03072859593601695 0  0.5877576276615033 0.02197638645407032 0  1.03224979050453 0.003496363676874282 0  1.254985045264709 0.02826654863395528 0  0.5947446946523662 0.03893550751691624 0  1.206221755895314 0.06294634598242377 0  1.145495704715351 0.08058216007003022 0  0.628368768654205 0.07185384935503666 0  0.5975088162021167 0.01585697530363674 0  0.6886509719487068 0.05762099712243511 0  1.202996419680603 0.03871322888696228 0  1.238765153033079 0.0277384563300738 0  1.177885459750884 0.07773629080213676 0  0.4165317955743983 0.01869427742662484 0  0.5936848710647514 0.07311032257692746 0  0.7800850306118168 0.09645061456350745 0  1.555160520958859 0.009370399024376022 0  1.043048039764672 0.01632262783115334 0  0.722452950567641 0.09654323743333611 0  0.7701211519219223 0.09653274216621888 0  0.5954270035824676 0.02247391260897894 0  0.5961144993756208 0.04317622303691265 0  1.236143590940159 0.05365640529877708 0  0.8700029939742859 0.09658567006551184 0  0.9460269987905954 0.08285289315293595 0  1.113179771647437 0.005079247508598356 0  0.9458733929951537 0.09656988224314329 0  1.695807968738981 0.01003230713295041 0  0.9302083013382436 0.0789918342822097 0  1.106925028416627 0.04208775757095229 0  1.198389996887147 0.09130924439265979 0  1.174350226563545 0.02922209936345603 0  1.044278445806974 0.05275513987008019 0  1.048175199821763 0.04914099510407219 0  1.267155153876488 0.01662399154729932 0  1.047209181819183 0.05091148932011056 0  1.129800250054242 0.003543614550472686 0  0.5964010208902466 0.0830783149498141 0  1.092543058082871 0.09484003379142814 0  1.045035205048763 0.04059230996267374 0  0.6554392588653735 0.003456621672820984 0  1.107761474691907 0.0730738926803568 0  1.189928656830566 0.0034479072336925 0  0.007209037761100833 0.08341699469276384 0  1.791873647693557 0.0833719415149111 0  0.008120143388820535 0.01663881264589116 0  0.6174903357319268 0.09489888110061212 0  1.157783473194743 0.0965668374165153 0  0.9812004777252158 0.04621914467971822 0  1.034312470286203 0.05308753699034725 0  1.041051900730617 0.04078740461411329 0  0.6282689943547322 0.06493289327804454 0  1.449854070699612 0.01880494519903789 0  0.6519127266749392 0.06057509188784904 0  0.9184901824765834 0.08296400119002503 0  0.8263374240229991 0.09646723271673507 0  0.9249299244236135 0.03760710403135953 0  1.110900476152362 0.07468123418804726 0  0.5939312145702034 0.08062415887349156 0  0.8965288434730716 0.05421489081020432 0  1.151163287116632 0.005179584989810109 0  1.207511488563374 0.04182961744064527 0  1.171923424296479 0.07783985983257088 0  1.01336083067486 0.09474906627982338 0  0.5545490195281763 0.04271892518531008 0  1.200718276616361 0.06549273932113332 0  0.6690174983611192 0.09132130896719401 0  0.3303506964900693 0.01519764395410802 0  0.905369802661357 0.04873713496557969 0  1.233232540520035 0.04243841994956576 0  0.8984450396389585 0.05068880660240344 0  0.8974894583611848 0.05245544935477726 0  1.200731680451938 0.03881548178024579 0  0.6013515752515413 0.008801081892525004 0  1.095849408256341 0.04073243368359401 0  1.023914969482492 0.07584741079240409 0  0.6144383426951429 0.07208357014418354 0  0.5332089567508373 0.06670984745835469 0  1.212652607310096 0.06483134627410418 0  1.212151793809016 0.05400630227559703 0  1.215305321151104 0.05422233514130771 0  0.9034664848245959 0.08180629974792752 0  0.8969790658562189 0.06805021778255502 0  1.05184660842085 0.005219936610966182 0  0.8935987088862819 0.05603661720495808 0  0.7075888057155667 0.003498486515370083 0  0.6393888306098441 0.07338632392980771 0  0.7484092644063158 0.0196178353810998 0  0.8907863779843326 0.06142526902426775 0  1.002020328217447 0.08084211297596068 0  0.8918332032972713 0.06312804241490295 0  0.8919698935657192 0.0665747931373212 0  0.8980456018914804 0.06973388899398567 0  0.899104223724593 0.07142252988406018 0  0.90240731847508 0.08011271384249313 0  0.90015616789588 0.07313608614078329 0  0.9011925463115429 0.07488092142469469 0  0.900306813201875 0.07668473029626845 0  0.9013548503207359 0.07839911399213136 0  1.074662256555403 0.02931510212173827 0  0.892653373486806 0.05779746375480414 0  1.620208348608815 0.08156223436369578 0  0.06396170325930138 0.01026826534382354 0  0.8917186631289871 0.05960599945605868 0  0.8928721201941758 0.0647839601024284 0  1.217375658483777 0.08531322369369543 0  0.6490660795439773 0.09533969716240065 0  0.7477157849413492 0.01142155290297641 0  0.6885962790280687 0.09680111631310219 0  0.1890910559033537 0.06424005525645908 0  0.914074550001884 0.03982731317758249 0  1.0120563577941 0.04025269080647106 0  0.6051037148349178 0.005153377441592987 0  1.2153657657362 0.07974293358742515 0  1.045092639550622 0.01618814844466623 0  0.948802556200967 0.09489426986833094 0  0.8372356140481408 0.04074280168455118 0  1.170549520940979 0.005166523768847999 0  1.048951490681177 0.076707638113355 0  1.094562415751995 0.09489397219154706 0  1.181621992131118 0.003232554341592045 0  0.9630560364400992 0.07593281841331842 0  1.083660549407182 0.07385513405415521 0  0.9367280851715007 0.003394292481793367 0  0.1632867714981512 0.00904617102132816 0  0.8680245502840034 0.09660352665993634 0  1.248582601118433 0.05950911271623074 0  1.176550051864215 0.03266887731838573 0  1.400828556424486 0.08217714175851824 0  0.244120555693397 0.009955527450018349 0  1.11516562685073 0.004966717307601135 0  1.206090251938067 0.0282837235569834 0  1.365378420956444 0.0311723163678694 0  0.7689626008466299 0.0948070059054034 0  1.374813827780018 0.06349612738016251 0  1.595464798437769 0.0901024974691523 0  0.5858799037764781 0.07960568850798272 0  0.7196562731472869 0.09482895346598388 0  0.9750464416268438 0.03964549470659905 0  0.9482661353256066 0.03870718728548311 0  1.016118496771803 0.09649425583006799 0  1.706405534228785 0.01027240213439842 0  0.6755105359351704 0.003388942466467777 0  1.665033074705213 0.07152808800732963 0  0.8703532673193239 0.01883032733776122 0  0.6583438786765317 0.005113092278189424 0  1.160633352089282 0.03360049113461203 0  0.642360549993096 0.07505329206563369 0  1.169954599407472 0.03813894870418164 0  1.259620057920164 0.06711006735651578 0  0.6630975289182215 0.05956657232632232 0  0.6156207179529786 0.09483106528569454 0  0.874723071111041 0.005232962425526772 0  0.5863746596685737 0.006992988329347656 0  1.334182844656025 0.03327167088263455 0  0.9880171051070035 0.07704421250868564 0  0.5997222504354011 0.01903870983668402 0  1.208103086226204 0.02412512057481363 0  0.8239100440511469 0.09443328953832658 0  1.160392589867986 0.09301792186314965 0  1.215116865374746 0.04918691014322089 0  0.5988028008401152 0.09025631270965297 0  0.4221194864262742 0.01000853587683279 0  1.45607492008462 0.00972440225966064 0  1.212831356587267 0.09320626601951479 0  0.9818189248014534 0.004840452630870134 0  0.8830636051652536 0.03919121984801299 0  0.9130045310711996 0.03810743546270644 0  0.6661999963182345 0.09308129729958277 0  0.8777247364904787 0.0273701497164237 0  0.3721277739964401 0.06359863606456835 0  0.8978995603777984 0.005052575103257462 0  0.9498512474587192 0.09657117462503735 0  0.864985802628276 0.09504018266866746 0  1.077058934731818 0.005094734983713265 0  0.7570030685159659 0.03996939037415001 0  1.610372497585618 0.08185044071940095 0  0.7088483554416991 0.005193181274303114 0  0.9381555556265454 0.08238934559095566 0  0.9725589871134191 0.003319264552245848 0  1.364327374015115 0.06255099117514365 0  1.095605260310857 0.09656740457515836 0  1.042333894367922 0.003350589494261559 0  0.5612876064197686 0.08516052506453012 0  1.144080055113178 0.07879198921261571 0  1.586838956848014 0.009252226770010306 0  1.175470230184425 0.03095533333987098 0  0.5838350334139593 0.09288099575538145 0  0.5751192499057645 0.09517838660312093 0  0.6079957126853476 0.003431207796194542 0  1.092114972003929 0.003114593160804688 0  0.4866854926744315 0.06524883553195976 0  1.014618464141987 0.003433795761550147 0  1.136873723101649 0.02715831960719554 0  0.6524085512092228 0.07488345590860523 0  1.105004681461998 0.04213575221801784 0  0.9282341140735435 0.07900565849579669 0  0.7528947430772742 0.0953350592766585 0  1.0175449722093 0.09470287658872292 0  0.6443577096745685 0.07500954090188849 0  1.111544185199919 0.09665744329283454 0  0.8941600787857702 0.03321874179594474 0  1.21700809151683 0.05668008795994463 0  1.240914388447495 0.03252390502578176 0  0.7498425578089487 0.02819234860122876 0  0.9794482002241318 0.009995309064307333 0  0.5951058394356841 0.06323371547335553 0  0.6135192342609381 0.07379678565863355 0  0.8850490086565881 0.03916205033183123 0  1.109891319617049 0.07299860586359061 0  0.6622701091137995 0.005152975493423491 0  0.5959308767494746 0.03314658632811485 0  1.03798972296324 0.03928911185988951 0  0.9545738703062395 0.003398841669161748 0  0.866976465207114 0.09498627234579227 0  0.718506085962912 0.09654654439438404 0  1.372763055226969 0.07948237484607007 0  0.1742203945890052 0.07293045088163823 0  0.685218092554909 0.09450060479117631 0  0.7669565123664894 0.09483477521879005 0  1.169868520172332 0.07788426613675312 0  0.3612258031167292 0.03042240920815936 0  0.07396259134227023 0.009958446223114771 0  1.095897881818382 0.03743871115880872 0  1.033021581153666 0.04116941639458969 0  0.9527253143356769 0.09487648005214766 0  0.6594371557821531 0.003431763521373083 0  1.214364352135394 0.09578805409771099 0  0.6248879627661024 0.05970226769342423 0  1.162592709694541 0.09517043104374097 0  1.098514794527548 0.09490344960900862 0  1.712443929227547 0.01861849665536338 0  1.02196871615243 0.07562765326761781 0  0.5289113567681276 0.03602791349914199 0  1.188590505043138 0.06549507848546347 0  0.5029312501452903 0.009257423914314722 0  1.075132902490401 0.005120208997049814 0  0.5944710735222695 0.005699852434327626 0  0.9796800161860919 0.005071947361575638 0  0.6117814590207782 0.09141029859493879 0  0.9147953371606168 0.003057358052077688 0  0.8220974134280863 0.09691271778052242 0  0.01866202015700145 0.05461630491185071 0  1.384854955238053 0.09004364602617632 0  0.6431626941736766 0.06293364053313352 0  1.035098943393088 0.005136871082377212 0  1.061810191292769 0.03996399929037524 0  1.465725960378774 0.009840217366995441 0  0.6649764770782163 0.09136687951257158 0  0.5439426728350338 0.01858710005025562 0  0.9849189739302744 0.0390170202479347 0  0.2545403003387585 0.01009661828049728 0  1.046908966512307 0.07667675637525584 0  0.9857792613955662 0.03713833140747526 0  1.202862222099694 0.04570970914775755 0  0.6463472652195565 0.07497076936087171 0  0.7909119967162803 0.05803352246193176 0  0.6271786310130445 0.06322945527598006 0  1.605371366969437 0.09007255619706056 0  0.7115666489845098 0.003456954101331275 0  1.185810578594746 0.07783879324053829 0  0.5673479985604097 0.008984360246062867 0  1.019428324622023 0.09477791313443326 0  0.5857025772671844 0.04245415123046269 0  0.9610735317643556 0.07830410231666483 0  0.5403651230059816 0.08755842301835515 0  0.973011408836833 0.03973714821314525 0  1.0818097085056 0.0736156498735742 0  1.087781517091541 0.02623463404341577 0  0.1490960989161952 0.06563263159606053 0  0.7835900979974585 0.05653077948583327 0  1.307140541785467 0.0345641451424878 0  1.792606482278225 0.06447251482991079 0  1.188726014557435 0.06891377810633278 0  0.9455674953384788 0.03708968303202441 0  0.5114643146997263 0.06300136237615209 0  1.161877935473998 0.0811838881759024 0  0.8964739713031227 0.09661795481390137 0  1.216045319804794 0.01379702516373519 0  0.5825479957600854 0.05635659533985881 0  1.164511973162271 0.09280336204527892 0  0.6091088703355756 0.005064622792967714 0  1.13225939521668 0.005483423369158812 0  0.986021835876973 0.07710365297557371 0  0.6642696222382234 0.005112261220313687 0  0.9547862299382244 0.09497296792665262 0  0.6230276753712004 0.05981611925459417 0  1.107992320857369 0.04016433967662719 0  1.158516646233554 0.03356662490739183 0  1.58028196966102 0.08154816719991972 0  0.9717795577063815 0.09669202809166147 0  0.5952562525002526 0.05560090245871711 0  1.276849549776152 0.08403594576060912 0  1.237290921377342 0.06034454180370312 0  1.100492149849949 0.09491354276239752 0  0.5950279202402906 0.07473527718672196 0  0.5930663481850273 0.02243044559863687 0  0.715663948702038 0.09491049817830055 0  1.191236099543728 0.005110609580547093 0  0.9839358920136921 0.004460973309336113 0  0.8639879960529322 0.0966461183352833 0  0.3631281953534492 0.06236812795803209 0  1.616498067707432 0.008976408999130828 0  0.6859952266053888 0.09260679481296248 0  1.298027942381459 0.06401502468599825 0  0.5514428167626619 0.03847499219909901 0  1.153044220690937 0.005064138169961646 0  0.7649924602629767 0.09492947158199302 0  0.8757165985136004 0.02736098523328905 0  1.257045981965581 0.007623399654707431 0  1.190760853770331 0.06899968247117694 0  0.9138443896143245 0.03641990042999273 0  1.009057772664494 0.04221092857587727 0  1.054424383788015 0.00333373356280721 0  0.663281433321506 0.06953862895099416 0  0.6483458283497504 0.07492629676982111 0  0.6260709452103159 0.06148794935830237 0  1.020835876472075 0.04152530260006307 0  1.725878745292361 0.009662347940125183 0  0.9879567892800405 0.04065502340888611 0  0.540269597403319 0.01321157385858442 0  0.9953661468683529 0.005135931504649667 0  0.8534156088439622 0.01413154832034838 0  1.102127878318539 0.04053530640740921 0  0.5978819551533998 0.02965251372120159 0  1.044926995439559 0.07665859035981787 0  1.175730786549075 0.03445173832075281 0  1.02208796853808 0.0965389294485061 0  0.6394637602112928 0.003814854357276035 0  1.166866253915911 0.03669464243895119 0  0.6097267995749693 0.09150638031865393 0  0.1643666656678019 0.07311520749189535 0  1.141739575969184 0.08092697013068606 0  1.135104290668556 0.02712878926595272 0  0.5858773431862982 0.05682783104628162 0  0.9377717059120695 0.005013795466765435 0  1.045026393332211 0.007686595485834217 0  1.415147794211018 0.02875513596548671 0  0.8203548356684482 0.09660565313056776 0  0.9272051781192213 0.08070310417108033 0  0.662207438182302 0.0931254410009404 0  1.47979988965044 0.01808047279824615 0  1.202187772462165 0.05083103510285229 0  0.1974882517984276 0.03029880032709614 0  1.590332422941603 0.08186740518101343 0  1.171677247374357 0.003443342418542458 0  0.0879645653500595 0.0180476002733696 0  1.071880597019162 0.03832403743964041 0  1.201829677453175 0.08192921885573146 0  0.7129600443063129 0.005171955457809014 0  1.106876625729384 0.07469165753876489 0  0.5651235180142974 0.01318942308720354 0  0.520891394478345 0.09133782066890545 0  1.23145444856933 0.01670665973912121 0  0.8620205722652883 0.09666445881484301 0  1.036013214303947 0.03943919141271859 0  0.9558423815580973 0.09660443296618733 0  1.166461907543013 0.09512978642158675 0  1.102497988002544 0.09494620103629359 0  1.116129031687087 0.003348482816733948 0  1.167898019718306 0.07793145046570632 0  0.585219928100599 0.03237983380717358 0  0.6118923300407055 0.00329095940090816 0  0.8589799465962132 0.09516992096688875 0  1.193970955259933 0.07075513053809714 0  0.6663426554035575 0.004997135181945625 0  1.579991762704428 0.06512095711785831 0  0.6503746959880951 0.07488691115481938 0  0.714457024833917 0.0966390683732295 0  1.176771693861792 0.03615149069721514 0  0.876967202363355 0.003071847967429269 0  0.7621802962152828 0.09669458291546111 0  1.256480864122661 0.08239634169165352 0  0.9710511807694095 0.03982068719497627 0  0.9471333499320815 0.08129855815980189 0  1.020051765609502 0.07804395154185492 0  0.6538672149584542 0.0603891371122645 0  0.9292293611345493 0.007231945779755775 0  0.6211397924247533 0.05982568054677538 0  0.8998698987097429 0.004970096477500009 0  0.8913048571275659 0.03519978866281338 0  0.2605660976098369 0.0181768024264799 0  1.023483303137637 0.09483170369287697 0  0.6928264316960374 0.06787356341674716 0  0.9764718096707035 0.003116041555250846 0  0.4521768128240981 0.04336230306712745 0  0.6348318069273319 0.09571623817197183 0  0.9587269719218576 0.09495794225911061 0  0.6022609708747853 0.04005626806706374 0  1.710913975800211 0.06135167800935418 0  1.646857890605695 0.01068347920957161 0  1.201655185215724 0.06367579313266446 0  0.4738959726515584 0.07421419258314298 0  1.095849366071974 0.03416156654872917 0  1.056799803945375 0.04025857690261507 0  1.73633013982751 0.009947241908618712 0  0.8433596480226625 0.0371333649730109 0  0.8696786176073894 0.01253833043372022 0  1.003181240458446 0.07806498091725211 0  1.207231461589445 0.0605254149725966 0  1.198620371959956 0.02166859319519659 0  1.104483900500938 0.0949624349880594 0  0.7400294723926445 0.006100769808182204 0  0.6086724061377226 0.09319400160786337 0  1.420363219138601 0.01955350291396723 0  0.9590883957151983 0.07598946113592991 0  0.4666587153968695 0.03505659987456342 0  1.554868979670968 0.05726921010003311 0  1.07990450113347 0.07598929522731168 0  0.8179147847335836 0.09458191717566802 0  0.7426453325648519 0.09556687561077055 0  1.094048155600667 0.005402937602628477 0  0.6609847745370906 0.09144120801611588 0  1.015848083592938 0.005035413978817046 0  0.653466290687467 0.07644471545645573 0  1.191469636283151 0.06033423876015332 0  1.485906619428626 0.009275047574695473 0  0.6692837346220331 0.06945647412336239 0  1.118131544231943 0.003340006994938543 0  0.354431915483241 0.07443897437676972 0  0.9850912953096269 0.07872724493665735 0  0.6244683423582514 0.09675379955542127 0  0.7674128921549028 0.04682034127977476 0  0.7152389044717726 0.003059944027933425 0  0.5926520460832407 0.01649371282407365 0  0.8756280321099177 0.02406752911029702 0  0.9569971260451983 0.005385594217717574 0  1.20919963554436 0.01777164028601548 0  1.169672458692849 0.09668455669538956 0  0.9127438162643664 0.03474445707644246 0  0.4572464519919711 0.03526119786035824 0  0.679120358557196 0.09136818509358376 0  0.6200113264862529 0.0581303628032573 0  0.6188907033311232 0.05650425336859877 0  1.081657850005213 0.02711010036854031 0  0.7116635764698214 0.09501012268116993 0  1.041933550007615 0.07515874658470886 0  1.025800276006565 0.09693943821177534 0  0.6674154077825106 0.003380455008958576 0  0.6907054353431492 0.06783085328741628 0  0.6554370997753346 0.07637905424345694 0  0.6272513710631561 0.09278561589378126 0  1.100175944535983 0.04062878650635819 0  0.6874873216573112 0.05926311783726543 0  1.007108783110426 0.03999904892852867 0  0.6139624351976012 0.00335293044469536 0  0.1589756234295502 0.06524964280173741 0  0.9746343642394731 0.08192975190644333 0  1.132770383195655 0.04140100262761522 0  1.57007483639041 0.06488291148601404 0  0.9745905854016931 0.005229182266028955 0  1.209155461988026 0.003491292579740711 0  0.9607003470085131 0.09496129025622695 0  0.8609671727847874 0.09511125271165066 0  0.9252906929306747 0.08072288986723941 0  0.5995812008869699 0.08159473815606179 0  1.684517772151154 0.07040784369227768 0  0.760211863960949 0.09670340402830047 0  1.037087754375415 0.00505230979648375 0  0.99632929609563 0.003428916982701921 0  1.106560348186511 0.09504402000440559 0  0.965765225753371 0.03871541561511666 0  0.8869205765295598 0.03723373815257514 0  1.165747482195883 0.03848453871681725 0  1.047248623905896 0.00748562441685165 0  1.035044663984761 0.0410933760513041 0  0.09418000030996573 0.00917523448501216 0  1.183551518093285 0.03461632594636724 0  0.9165411175002522 0.003349312474972657 0  1.125533678009736 0.09675851797237026 0  0.5718140759666289 0.08198924570703543 0  0.5902961102917558 0.08918881054484819 0  1.139893184405968 0.07859506275203118 0  0.6896726141961655 0.003142398451703944 0  1.74225987051583 0.01804819388213328 0  0.7492726623311451 0.02151332922513975 0  0.5548658567087159 0.01559469058708853 0  1.212823955607248 0.06922054738459166 0  1.104867728115312 0.07468326426926372 0  0.9335319109379765 0.04110568210134918 0  0.6013477206379154 0.04178641512943542 0  1.166836379694931 0.07960027299155042 0  0.5732937152655702 0.06500376012696249 0  1.154972646564741 0.004950096293521881 0  1.027004063668502 0.04140084583490027 0  1.043909714012815 0.07509184808072818 0  1.302858120285891 0.05650555107659035 0  0.9280580153357916 0.005450864606812373 0  0.6160620162186277 0.05830098999789424 0  0.7559145039613424 0.0383346264507941 0  0.6582102784314605 0.09317617452294986 0  0.5921068081132363 0.02038987230060575 0  0.8237457418519267 0.0516478568983938 0  1.694579425416298 0.09088443271612349 0  0.9802789513149816 0.008313023479415482 0  0.8160905376289205 0.09690387279969398 0  1.293530078875938 0.01659658953274679 0  1.238040102230188 0.0421659471232009 0  1.027653717360534 0.09466770397894138 0  0.016369959174588 0.07194292318641886 0  0.2737724565447575 0.009164666530768488 0  0.6702358858711635 0.005019508311603328 0  1.193858339645292 0.003241364604279194 0  1.495614110586262 0.009403702415992615 0  1.108528581658554 0.09508409835534681 0  0.593693822645054 0.04070325454676551 0  1.134033459596102 0.003088934910270609 0  0.7170352829519753 0.005344536774828627 0  0.9627094656031886 0.09500204772250827 0  1.065437805476157 0.03870944107064018 0  0.7366919243222785 0.09574053628048727 0  1.187548329600415 0.03437375968280083 0  1.204566788153689 0.05800356629366486 0  0.6726286576217041 0.0712430930359962 0  0.89221934350579 0.03701329886981644 0  0.5934988765309085 0.03050384428582134 0  0.8529754797031115 0.0952969754319562 0  1.203899459867709 0.04048576090010719 0  0.9699594157372219 0.03827571279022875 0  0.6066868627384085 0.09331428367532582 0  0.7103837582491184 0.09677392019925235 0  0.9861853126703064 0.09684512442919624 0  1.017718788056294 0.07598133786435619 0  0.9397365931999668 0.004921947948496477 0  1.172572077687952 0.09296518824767763 0  1.233360432110419 0.01263369926695346 0  1.056535576446678 0.003357759713224293 0  1.755993373424779 0.009839547032829299 0  1.195032200747375 0.009741640195807384 0  0.1190694878041205 0.06674785182358989 0  1.094795291116503 0.03252145520531118 0  0.6564637648773086 0.07472011470093999 0  1.152414711522905 0.03374046508671383 0  0.8579736107284945 0.09670860656965688 0  1.068847023045913 0.04010922563859558 0  0.6150940154966954 0.00492751946345873 0  1.175975002821908 0.03791760489460156 0  0.7591687209109752 0.09508453468649372 0  1.080399489283904 0.009915251727500124 0  0.8560171849760734 0.09672574490913551 0  0.3834911991464235 0.02939326348151612 0  0.8522122744186543 0.01225857240558746 0  1.146199779263697 0.003651045601296813 0  0.6846834481127259 0.0575534316945323 0  1.174448492395781 0.005059965464770868 0  0.6585441533252574 0.07453578041813969 0  0.3421603936416978 0.06450867381545491 0  0.9570806459999794 0.07827716873903545 0  1.191823098641003 0.07060396514097422 0  1.097818156559542 0.0731995450216664 0  0.9900270966646337 0.007392884215974189 0  1.077852668906934 0.07369893907760729 0  1.315727526394764 0.06401189851543797 0  0.9157913013949398 0.0920078464734842 0  0.9116534383831922 0.03299497288937971 0  0.6055389384792702 0.0950646627586367 0  1.206494505978051 0.09162429209575017 0  1.029733323731046 0.09692954274742858 0  0.8745633100618684 0.02241429444739731 0  0.1441051053650289 0.07347071971717793 0  0.9830199377466773 0.07881945936001267 0  0.5520663473890337 0.06717316598404788 0  1.196683964444954 0.009348882314145969 0  0.5551914416243006 0.080219098584419 0  0.9647068647434689 0.09502932556936766 0  0.9420963370436943 0.04256433132263376 0  1.10958089772913 0.09666055223241668 0  1.217133416384624 0.0520512356626977 0  1.564816261682344 0.0570434228102053 0  0.5775278621459166 0.09129175140254775 0  0.8139659691186418 0.09469447734317897 0  0.6570301196541615 0.09158922687626472 0  1.098095546579979 0.04072878541885837 0  0.9101605757633737 0.02800750794467247 0  1.524886693717626 0.05795260235526523 0  0.6733978831754062 0.07282711258100659 0  1.208118652851129 0.08094163434294199 0  1.198167968966088 0.03215986589006237 0  1.004882160721184 0.0421747856979185 0  0.655839266445053 0.06011787045555454 0  1.509708141483568 0.01749409088899773 0  1.130615393719999 0.04139661935619428 0  1.174534239615868 0.09522356970968267 0  1.085360644384864 0.007683926373443454 0  0.9018776808951442 0.004893295358151726 0  1.212545596851274 0.03671269480910963 0  0.9242998098276574 0.08242368542412801 0  0.730579774255158 0.0963755138353467 0  0.5948272007070996 0.09398588205079345 0  0.8788631552546255 0.005307348726235342 0  0.1038394536183584 0.00926176245621519 0  1.031952491603858 0.03971704429234574 0  0.6722048204851856 0.004997215089976983 0  1.227982670497337 0.09111538466798004 0  0.175132978228811 0.03166723457053257 0  0.7945697682168744 0.05461425214092924 0  0.5678044594278562 0.05441355596358836 0  0.5863920977273882 0.01936193193783302 0  1.163762492445904 0.03853160414324919 0  0.7194218990213932 0.003299663476483625 0  0.9650240343013802 0.04033208913238497 0  1.060679370412983 0.03536102193886926 0  0.6178762336916017 0.003219752981156423 0  0.599300255764267 0.04188341488132809 0  1.222307171238164 0.03344074780812208 0  0.7084498712623801 0.09674186619873262 0  0.6825169692561419 0.05776867465346028 0  1.176984531676638 0.03977456215969165 0  0.6595448604548844 0.07278533389651234 0  1.129463777991187 0.07664147956626127 0  1.102805086543019 0.07464133602860179 0  0.9106122798489623 0.03132249335771729 0  1.263177422029822 0.08233991041834575 0  0.1342945377545323 0.07362880892679445 0  1.137785018438571 0.08086548939014665 0  1.200678051804518 0.007736205168132693 0  1.283891468222242 0.08460769546288056 0  1.112460558935393 0.09505453939544448 0  1.239943355584207 0.0374852597180932 0  1.164905739880053 0.07965634873638168 0  0.7571481076633471 0.09510323489588021 0  0.5970867095943361 0.09043412140063789 0  1.031568044341628 0.09470164189697354 0  1.316664861207262 0.02498549108352385 0  1.19561594882942 0.02891610487245059 0  1.01848030432883 0.00318317750972103 0  0.563690428520332 0.01681605999951855 0  0.9667963761480843 0.09512637777474099 0  1.223258685910248 0.01841955973859562 0  0.2843391683590317 0.009572315356390301 0  0.5670826701175731 0.04049637114675401 0  0.8627752905110355 0.006924724315911396 0  1.09637159958469 0.003262060378281752 0  0.5783513512441267 0.02122806873204668 0  1.767522160814528 0.02633102627209215 0  1.540097198528299 0.06513597406981718 0  0.6035145653319619 0.09514532193525216 0  0.7802551542163484 0.05150866047849127 0  0.673306554033299 0.0758969731295422 0  0.5987695487669047 0.0542916339868745 0  0.5888940776010195 0.05704342421641138 0  1.17651501477149 0.09293547610237941 0  0.9679080804874129 0.03843372790478564 0  1.549986214175044 0.06505371482765977 0  0.9157146528154061 0.09677864509297507 0  1.04098951392818 0.07673827539945424 0  0.5986555511568407 0.01740255529673139 0  0.654252857235508 0.09338626531280837 0  0.9687627769317372 0.09516398664770379 0  0.9586287828619743 0.00303044165464618 0  0.9482109023559829 0.00426016517563229 0  0.980913729168357 0.07893888968319439 0  1.281544523501695 0.0153660108398719 0  0.5551985721481187 0.06213881328478518 0  0.9716047979314203 0.08009444374238367 0  0.8121004878718909 0.09701877056856174 0  0.6732626815417384 0.003332842881753424 0  1.09366237778219 0.03083992173117289 0  0.6604186576693623 0.07109625277410533 0  1.015937103305522 0.07571735891435696 0  0.3694726552907451 0.03046166391904814 0  0.9990384235545944 0.00503423311946799 0  0.6813821054867991 0.05938496335271667 0  1.100839234518101 0.07462776126601274 0  1.066842154015726 0.04021966860293419 0  1.515296140948857 0.009625177145417906 0  1.151350476992434 0.03210984872914843 0  0.8114892240837249 0.05568659772316979 0  1.761809542616447 0.01807996085935119 0  1.030010597266299 0.03985966651554392 0  1.039012190785542 0.004984597559689228 0  1.033826308952747 0.09682254608412805 0  0.3333661744388295 0.0634884905346776 0  1.119111322332524 0.00483520789103877 0  0.7856579883162571 0.05668697974798652 0  1.209992601673714 0.02995221815364848 0  1.209227114681136 0.02724909453743134 0  0.7211774905430204 0.003004351692928675 0  0.7056584945287616 0.09513546222814431 0  1.072915087524771 0.02944872106433215 0  0.1840252575996213 0.008833013249412176 0  1.114468219675015 0.09509132098869599 0  0.491713249648164 0.01908025791629482 0  0.8734525810842184 0.02076599858173216 0  1.139939725960621 0.0967600325616407 0  0.9810270923549802 0.006557929322674046 0  1.328154314985679 0.08513852016096474 0  0.9165733026165226 0.09353260380021944 0  0.854958980050066 0.09523520734510872 0  0.7552001634142984 0.09517631616605311 0  0.9550965674092142 0.07596844021587751 0  1.156957478668739 0.004857835677023407 0  1.075906294210009 0.07596190509873747 0  1.224396859017102 0.07113779607080471 0  1.793598205253821 0.02624541042422109 0  1.783293755661692 0.03534609830565637 0  0.9944713109206003 0.006961877201508376 0  1.178239534015735 0.09326721999001103 0  0.619827741779969 0.003219705200503523 0  0.9189687107535228 0.005204521193579367 0  0.5384399871954001 0.08261540828879221 0  1.157457894308989 0.03211487932441823 0  1.24259196377857 0.08516445860931536 0  0.1178356445025315 0.01714440981561143 0  0.9223460369499226 0.0824631582448805 0  0.9619981015185741 0.04189759031749872 0  0.6786614067633514 0.05771698911663391 0  1.021918275068279 0.03704270363036988 0  0.6016009356163077 0.09511813592926631 0  1.003037587148771 0.04235729782662996 0  1.064818122788137 0.04037928062166109 0  0.4317191300124218 0.07698596371650789 0  1.195975355882217 0.00332194029707492 0  1.312809299520913 0.08539557530820213 0  0.5870668477411134 0.06709382538802985 0  0.6761694210140381 0.00495068047642864 0  0.8500515795568968 0.09677523576530817 0  1.205358502628271 0.04598529871426615 0  1.129349513717765 0.03987987562424405 0  0.5257471743180735 0.06657196062218976 0  0.8186730882050112 0.05722699826911719 0  1.493091789460344 0.05914557000298846 0  0.9417454107292044 0.004849177732376978 0  0.9139298276044914 0.09701285495231182 0  1.136179713507303 0.005187989968978731 0  0.5077284339519404 0.07035643962550416 0  0.5819848419644912 0.03216982498317404 0  1.144720969139385 0.02642220916112413 0  0.9698209036277109 0.09669770644464354 0  0.1035939196777394 0.07627730403075864 0  1.035825217518485 0.09684121564552048 0  0.6512082879357608 0.0951622710851634 0  1.528814683973777 0.01799943471546275 0  1.163846860414269 0.08122998106036247 0  1.186791658729763 0.03111606332800108 0  0.8524267064199584 0.009102524961908545 0  1.202686680244388 0.06172999006531193 0  1.116475056485833 0.09513323918898223 0  0.8425920282309625 0.09562584817905165 0  0.8101559288893667 0.09692469315109477 0  1.204871995357579 0.06136510095508155 0  0.8635770711963162 0.005145757622775466 0  0.4640911255802424 0.07454183830000266 0  0.5936746717877898 0.0913662148534746 0  1.057801553913574 0.004877285600245621 0  0.2903586851908298 0.01723229952882892 0  0.7482066182276499 0.02300137507159173 0  0.6613377174936631 0.06956416643817709 0  1.193452543351915 0.0310030447835631 0  0.8212102127857213 0.05302040607755742 0  0.7652239224606433 0.04004085622179875 0  1.135902838009874 0.07857429999719938 0  1.267487523689172 0.03866322197095606 0  0.7520752212308477 0.09676803234208473 0  1.176551931191472 0.00495518068748533 0  0.7566028409219254 0.0365742345995646 0  1.180590693091496 0.09529190212750537 0  1.776784671287695 0.02681569400747669 0  0.01477027742115834 0.03070331356007305 0  1.359644354340786 0.05504052572682618 0  0.7044475589775108 0.09675660355883357 0  0.6798055286295084 0.07622245367027336 0  0.7230638595993188 0.005185123359002984 0  0.9726925242049174 0.09512419462058633 0  0.6135612289459881 0.06024824574374953 0  0.5938596141261501 0.06511288750120502 0  1.155496017460145 0.03223288454604689 0  0.9389822075195087 0.03898702026466429 0  0.8520136804716302 0.09678013298162037 0  1.20769609719772 0.01273323523477203 0  1.291861666979972 0.08467780103539163 0  1.038971697015254 0.07673084862128461 0  0.7506417072682172 0.02678737806990639 0  0.6765255332951808 0.05792266522583382 0  0.7649099230593288 0.04294682084689819 0  0.6208717388856686 0.004799837072020037 0  0.6643358234614136 0.07101712949010261 0  0.9113104013036925 0.02962620569707821 0  0.7774401092666312 0.05008613174098169 0  0.9038719595641399 0.004807795779371731 0  0.1289419046329497 0.06621336190718793 0  0.9800697210643152 0.0805603645806382 0  1.217251468258833 0.01628746242392014 0  1.510219480626239 0.06520159229954323 0  1.118473348465098 0.09516313197497062 0  0.9069028648088548 0.02639310098329329 0  1.092562482919163 0.02917178099856507 0  0.5977995163318128 0.08172304753101489 0  0.6662810490063324 0.07096326944612005 0  1.034949771359348 0.07656750662848666 0  0.8811521285727597 0.003218251998692038 0  0.3246652630529782 0.07500998115879148 0  0.9725285169699704 0.07737671021432431 0  1.151419337868747 0.02899020685107301 0  0.5910693313196245 0.08053208269958476 0  1.325087378393052 0.06409839562076305 0  1.072093411852314 0.03119994951602667 0  0.01562875342188369 0.04801831648076601 0  1.235853914547094 0.03148454395452129 0  0.9213402973494567 0.084199627532689 0  1.534774535552414 0.0576471532348957 0  1.013996144131638 0.07794956145574451 0  0.8383089700322672 0.03922431248171593 0  1.350157813069102 0.05538129025347152 0  0.9120360429041217 0.09480452741075696 0  0.5210755460660059 0.03615022096051283 0  1.182509718479267 0.0931039334476165 0  0.8714710327091914 0.02071229904035717 0  0.6781789004103274 0.00490604493959413 0  0.6482391252969183 0.09677798885313856 0  0.8508139291004864 0.0154537896107315 0  1.122507838510952 0.09528087982513218 0  0.1893260854345562 0.03117242176642876 0  0.8079083188745865 0.09483331118985533 0  0.5883637429829048 0.08007657766677376 0  0.7501796435682919 0.0967424664590891 0  0.5957490476190477 0.02984865451832887 0  1.038534629149342 0.09326993056718799 0  1.539511006829582 0.01702749743889271 0  1.020454524957846 0.003198420819867509 0  1.335256082210922 0.0635096636466673 0  0.07285123205570997 0.09104845403137321 0  1.126786306996462 0.04174905011466301 0  0.7967447932837707 0.05462841391085238 0  0.1234557280377095 0.009443480249592073 0  1.203140242955329 0.09275975342830614 0  1.073860379025248 0.07379016366739431 0  0.9533782307502069 0.07632172839876064 0  0.9640980284885933 0.04188712967015522 0  0.8297994863637167 0.04809038132322803 0  0.9924252470316883 0.003100139735311753 0  0.6753924514462893 0.05949288203361484 0  0.5173797857623716 0.08507817573274518 0  0.8259105284673306 0.04846885685552626 0  0.974691464923778 0.09515332405558247 0  1.098133972820587 0.002961446122654026 0  1.120492633105662 0.09520426876054884 0  0.7251510318055819 0.003022257153394167 0  0.5466373848803092 0.03914647321784283 0  1.029040469348021 0.04140691264457449 0  0.6228166973665187 0.004775368409167224 0  0.6857791751627366 0.076134433809444 0  1.211633738000084 0.006524083209895602 0  1.250274300231496 0.06391886637722964 0  0.7457575535630326 0.008909110649606818 0  1.46306936936033 0.05990654337529458 0  0.5696839886243745 0.06491266645960837 0  1.031558852141434 0.07539446260611107 0  0.3034787064374591 0.008357122496735031 0  0.9610054919120505 0.004984340401966758 0  1.160953061150175 0.07963854198622256 0  1.344920059858115 0.06317024278198176 0  1.264974186804619 0.08741304157867012 0  1.087354290417776 0.07376935070862255 0  1.017619401583734 0.04004648110476998 0  1.143735810184953 0.0283647247263332 0  0.774020507619544 0.04828529618446417 0  1.099793162656047 0.07313768930651682 0  0.6726782645999128 0.05784755653539675 0  1.121104613638265 0.0047649369704152 0  0.5997420427553123 0.09504983110208161 0  1.263653939037317 0.005913131279841716 0  1.184488973763126 0.09528534232215977 0  1.001073434370622 0.004920983227842382 0  1.230013924182156 0.08769346500593132 0  1.520026543190993 0.06538167764239858 0  0.4754697612932486 0.03445785449447006 0  1.040015139500313 0.003279950838512535 0  0.5822754212570539 0.009929678635126418 0  0.7008065396586192 0.09334824536902553 0  1.203826359562214 0.0819561641282357 0  1.02360294534436 0.03963837405068818 0  1.040792938266965 0.09530670784473834 0  0.5804911835390545 0.01813454308440812 0  0.9097095647889388 0.09678377366547802 0  0.6801864404959653 0.004846611282769843 0  0.1141152085334458 0.07479846807931545 0  1.134221850221542 0.0788892029933211 0  0.9766974880148578 0.09519700658015348 0  1.036941920575402 0.07666805685025666 0  0.908270753686837 0.02801583838866663 0  0.8061087665078359 0.09710161302778517 0  0.7952567611263808 0.09378897694599735 0  1.158974815514353 0.004784879385161379 0  0.8315135875668015 0.04470443179858249 0  0.9445409496344729 0.03879722876821299 0  1.326230071074958 0.03512139997674792 0  1.203794777940039 0.07088788220569296 0  1.133900765990051 0.02958713898029391 0  1.081107699173712 0.0047505215239075 0  0.6463472864706757 0.09676115486126263 0  0.8712566012227174 0.01740418749020685 0  0.570267738743557 0.09113664349741879 0  1.545198758004177 0.009448529950378285 0  0.9586836081374046 0.04030289848616797 0  0.8429899650762387 0.03406767025928409 0  0.6673119296695404 0.06944830499628249 0  0.8404148043554872 0.03733790621586922 0  0.1368145151239447 0.01763986358349037 0  0.6828111671614642 0.07735436121597099 0  0.5826107015033125 0.09032593556929276 0  0.9997572100024796 0.03898167241161288 0  0.9462318271327991 0.07807206282560998 0  0.5934886861341793 0.007832475426019645 0  1.091325641685023 0.02744015174101709 0  1.478217552340307 0.0653803586473518 0  0.7430573603958098 0.005897944439176642 0  0.5928448955493557 0.07493164872917644 0  0.7469322787847587 0.01457009587328994 0  0.8490599033006473 0.09527879669845667 0  0.08770012869115115 0.08523716582484724 0  0.6247897162317975 0.004739207137517631 0  1.186428023855593 0.09311897895423377 0  0.7269902824968588 0.005129614636452404 0  0.9437697833863791 0.004788084930121441 0  1.190281089457498 0.03269530874559348 0  1.150656820133709 0.02744715082642417 0  1.037135044193612 0.09506360254520951 0  0.7491790130890831 0.09526521755218867 0  0.5755981001373656 0.03079575199304777 0  0.9696694659670271 0.07677979175023091 0  0.4169334889562796 0.08575517915787211 0  0.9791459414189726 0.08212931615553912 0  1.073037951614833 0.03290713297552848 0  1.042650487365078 0.09309031497961551 0  0.8649462179406529 0.00298209309998644 0  1.223862526157365 0.03001336347181495 0  0.4539340374230597 0.07471604791927985 0  1.197107307166357 0.004815001480934178 0  0.9827258489872271 0.09541857925996197 0  0.6702328407542514 0.07102661357008425 0  0.9207454315857927 0.002977275495375497 0  1.012006182183 0.07581606287752214 0  1.138011390563049 0.002879462163619434 0  1.716965680619166 0.06913517965234101 0  0.6118996026626313 0.05796940325153136 0  1.060495455563332 0.003107660089725491 0  0.6706768006420409 0.05790534739318765 0  0.9787122780765534 0.09525885591769974 0  0.5317284017356975 0.02000247151236887 0  0.4020835558222435 0.09087516102271727 0  0.9355321549048083 0.0377327190075331 0  1.246256225205364 0.03164706059364683 0  1.247560148956249 0.01009058878187948 0  1.123571055420225 0.09676234605496109 0  0.5635620039164083 0.06395575725711901 0  0.563625126390807 0.06014073622224289 0  0.6541878340520564 0.06512005107899647 0  1.218685604380957 0.09304602900731211 0  1.026332841027373 0.03996684624462482 0  1.159028644112937 0.09480659204876407 0  0.5954758991753676 0.05373092002099145 0  1.559096839492886 0.01724188467099372 0  0.05754256474697571 0.08171349234278227 0  1.154500372268559 0.03374897776218136 0  1.084157414403557 0.002969336827247275 0  1.178329595440657 0.00506857278989349 0  0.6821926069928712 0.004785342365356011 0  0.792467638307311 0.09387647451989263 0  1.3006559946703 0.0846134468079269 0  0.008159238141719415 0.009994057444571294 0  1.212164844477371 0.02644807232158776 0  0.8096952659710919 0.05593675567398539 0  0.8396821223546569 0.09688220307010997 0  1.791373480040804 0.01026258868696995 0  0.9079370968700753 0.09705652632211099 0  0.6988478722763012 0.09332302970182285 0  0.9510944914824464 0.0783512129029903 0  0.008002969058062397 0.08971999601495173 0  1.791520575832719 0.0900722898930347 0  1.124811460282148 0.04181667618084865 0  1.071919941989334 0.07594557317515405 0  0.6234952055902083 0.09534833923273112 0  1.126466562868483 0.09525506297183266 0  0.8042374567331481 0.09695794790702339 0  0.9058634785607029 0.004718884940770298 0  1.096854100631419 0.07468210312165573 0  0.3130969992471308 0.007742772472663 0  0.6453057922780617 0.09528562640211763 0  0.6224735878152362 0.09263110839132535 0  1.211342244883659 0.03171966702930888 0  0.9666391767018375 0.07587511342659682 0  0.9034919970580984 0.02483355371761511 0  0.5680735775247429 0.08237146563453351 0  1.044514753749508 0.0933004867883022 0  1.018717279465344 0.03539464344341244 0  0.8470391388349561 0.09528926726038252 0  1.289356220748406 0.02886781339982145 0  1.337414383992684 0.02528433459598399 0  0.68878158829074 0.07699937712258889 0  0.961335253740081 0.04048256609358228 0  0.792164050432521 0.05646366348310049 0  0.9807431330367335 0.09532770041674027 0  1.158958963543957 0.07963796817222485 0  0.5950208902471609 0.03154360433354381 0  0.626804980335727 0.004735287674569617 0  1.196926687475956 0.03048504338676241 0  0.8828448419665054 0.002919196146634762 0  0.7472108173956193 0.09527697446602378 0  0.6693030794615976 0.05981087429264945 0  1.189879862815128 0.09168943188120283 0  0.6558221837167636 0.06301119302778938 0  1.216864078936907 0.06227684894691068 0  0.6862075707958208 0.004566036191441344 0  0.6753256650646409 0.07605723861518746 0  1.170946567474033 0.09511992625733139 0  0.3088958663313364 0.08344751243199361 0  0.834699767052374 0.04273647281915999 0  1.1316441730922 0.08061023888661639 0  0.6102610185168281 0.05828713035693644 0  1.001722825673581 0.04076960285401494 0  0.7663149779892021 0.04538833123013324 0  0.7714798167685087 0.04700932230854865 0  1.013505378881929 0.03783611976910005 0  0.6567885001300636 0.06145061524550316 0  0.9437166054160422 0.04041989603933553 0  1.215133206502586 0.06542347575762807 0  0.3727681686323049 0.007863748519782611 0  1.506213389167614 0.0579662868093357 0  0.1004480225216438 0.0835381711549443 0  1.072335848599114 0.03465258239542918 0  0.5807151883452216 0.02973855213207822 0  0.6842406020093384 0.004674821487457254 0  1.197558537790059 0.01435096539180247 0  1.219756388464577 0.05184838845580219 0  0.9591336195204773 0.03743559454720782 0  0.5792286658283567 0.05661841347520272 0  1.230476359579386 0.02726808567348077 0  0.6283908389144987 0.09407237467825504 0  1.021317333728991 0.00466419222663666 0  1.20802073684441 0.08934342825589611 0  0.9780694628935083 0.005371144733349784 0  0.6088104729423102 0.05645219579696927 0  0.6968396059260022 0.09336596653180712 0  1.090410400853216 0.02585513399147662 0  0.4442372340837943 0.07515585912095737 0  1.023518415797409 0.04157313909183757 0  0.9059972532613585 0.09497275956528942 0  0.9980275133265892 0.03884850771817416 0  1.208968238496052 0.05813716277577631 0  0.1475811064636674 0.01642605768033278 0  1.046767376083264 0.09535951566988378 0  1.043031541562215 0.004807270452643604 0  0.5973646137710997 0.04196760174758866 0  0.9338540186169233 0.03764111545370734 0  1.128484641924594 0.09532583426396153 0  1.136899496996483 0.09560278829460088 0  0.8019287291177449 0.09496360200363936 0  1.100007855363322 0.005018810314423337 0  1.147861017587518 0.027169838670069 0  0.8700584492155854 0.01565207500075994 0  1.123072536343671 0.004668345804352545 0  0.9630359901284847 0.004904824775580156 0  0.6434094688906032 0.0953223359095999 0  0.9773921080055485 0.08214680916394473 0  1.568901228934846 0.01675249534098396 0  0.05251604753518387 0.07390971784645767 0  0.6673481712172109 0.05984710658664093 0  0.6772296102716913 0.07604530458958224 0  0.3970283428586388 0.08248633449175968 0  0.7952641240641659 0.09506816395255474 0  1.19160464320434 0.0914737206151215 0  1.090589778841575 0.07436434502216646 0  0.9843789632282856 0.002978597457844897 0  1.192750636903375 0.01373312975070119 0  1.683560730187632 0.09074528061266841 0  0.8451767695590719 0.09534939772636979 0  1.200007903585275 0.03223058578051322 0  0.5056657916556212 0.08361965253588766 0  1.26696687465172 0.06090543691732667 0  1.204134462972747 0.05077652527470027 0  1.315877775073589 0.09210255256030839 0  1.003041027364559 0.004863099326888112 0  0.6896506074526434 0.07535153271921413 0  1.199188804503627 0.01991765047439341 0  1.693568051854995 0.06903971785848924 0  0.6287962676867845 0.00470362080545413 0  0.7453314309461511 0.09533783362309102 0  1.134957394586466 0.03052879880523564 0  1.010080890333605 0.07794471723551588 0  1.198967737095399 0.01678190214718632 0  1.40863145063413 0.07048876980533186 0  0.01446920394701936 0.05946273496297278 0  1.786290815356158 0.05976965318179157 0  0.5960414195909405 0.05200401600675202 0  1.784494828777903 0.08213328236816372 0  1.491210658536004 0.06603032163044797 0  1.270864119000627 0.03292059515625614 0  0.948072909128 0.08001747707821974 0  1.06994495366927 0.07383541684851726 0  0.905421293178001 0.02672571810899182 0  1.12369409470362 0.04025439695180812 0  1.160973314171839 0.004694916603569192 0  1.130481331372124 0.09534854224625891 0  1.094870961266438 0.07472370458748231 0  0.8667760663840813 0.01395605067407128 0  1.048565641714065 0.09323651483858146 0  1.775122203014213 0.09241001920641104 0  0.4797400607203561 0.02609181781843647 0  0.9834636109574575 0.09690280187077185 0  0.7397910541255315 0.09688340427125147 0  0.3208350483149278 0.01723225118964099 0  0.665837970011541 0.05973786793127452 0  0.7621485257605116 0.0400635547566003 0  1.134074511087933 0.03305218241217291 0  0.8496104951560147 0.02378777301333496 0  1.034131232890374 0.07510923624863865 0  1.188588609020703 0.0330239357608182 0  0.6802313173746227 0.07758305534963163 0  0.5636584028086766 0.04034696035352417 0  0.6948113811027004 0.09341433668015783 0  0.9455941921638897 0.00463353918537803 0  0.9016454950856719 0.02484715642629797 0  0.5225269924433888 0.0610406837862288 0  0.9039930698284312 0.09710715520931776 0  1.003938598023545 0.0812894513932616 0  1.19346196039493 0.07343082978377186 0  1.057393987581356 0.0387362458393875 0  1.156939626113049 0.07966761087138807 0  0.3181158569446469 0.07310545109974687 0  1.573013950940147 0.008975520544582921 0  0.9866935532175274 0.09532435109269276 0  0.6628171473532491 0.0581451505458763 0  0.742412807922325 0.09694828626936648 0  0.1772251839434783 0.01722527428464616 0  0.8692582852746593 0.01410489225019786 0  1.193391712449838 0.09363683829793573 0  0.5446868263116142 0.0625251955633767 0  0.585265352287946 0.01708203020937851 0  0.8001732543213755 0.09711178818567724 0  0.8500563780569914 0.01818401472512759 0  0.6413914018407172 0.095319634440129 0  1.205383803443478 0.05956236290809504 0  0.5792231200942691 0.01019686930688682 0  1.190908906591687 0.07707532034482634 0  1.20130928343232 0.009173505060142449 0  0.8422918407699168 0.0969720935926108 0  1.010662679895818 0.03981155784299394 0  0.5291771341513137 0.08401572005396742 0  1.214636809863926 0.03626708123225713 0  1.062143070508344 0.00284147306951884 0  1.39425451801206 0.07959068518370123 0  1.13988075826924 0.002955308910229303 0  1.132478444459784 0.09536896947205309 0  1.198871412612062 0.004809430434511873 0  0.4300553068890828 0.08359970824960955 0  0.03789985384218519 0.06532823036131197 0  0.7819828987508464 0.0516452589193992 0  1.050822736443201 0.09526961244388918 0  0.9916651000051947 0.007431307531676756 0  0.6308100712339009 0.004698305918550546 0  0.9205012178328558 0.08584827537312197 0  0.6927046390759636 0.07336255429230472 0  1.195472031486321 0.09165965275699731 0  1.198215340465635 0.01830810934473484 0  0.9869879845295886 0.003211344502289915 0  1.087537942395229 0.02766109858619186 0  1.073298235948303 0.03596632423340514 0  0.7986358360076937 0.05456157618248439 0  0.9078543232397288 0.004625891285435853 0  0.974325188999611 0.08051740044617171 0  0.7332851914073124 0.00305627605128965 0  0.5128744652783102 0.0364496448290368 0  1.045036008699932 0.004735860594928253 0  0.1533107526857816 0.009154376979804594 0  0.9961369799070792 0.04104375814016924 0  0.606769800492328 0.05639667134790555 0  1.07763177061084 0.006577772902977929 0  1.588134163249907 0.01652563659028734 0  0.9938050171703257 0.005350953207540401 0  0.3821563940176888 0.0738577931307924 0  0.9510571387871292 0.003179237783059812 0  1.179813209223793 0.002866581470261625 0  0.6869529322105523 0.00309220391790363 0  0.7282921394731541 0.004743404074600173 0  1.167815513451982 0.09463002570055935 0  1.20064012111432 0.004850264988004636 0  1.210125710378845 0.03392732964742404 0  1.060033583959991 0.04243788307277005 0  1.138917580023216 0.02915545485088124 0  0.7554796676784493 0.03512147638148583 0  1.121763880807269 0.0403782362721901 0  0.9189226391415117 0.08780251064220856 0  0.7471420976645156 0.02434011782495038 0  0.3323414424791837 0.007649290423289747 0  0.5903217044135917 0.008144992465679766 0  0.9406547745650909 0.04097153170382269 0  0.5829487174335958 0.04260904680567306 0  0.692893663746263 0.09337411694291689 0  1.046234154757798 0.003001225466379967 0  0.6602473293007116 0.05833071735715838 0  0.902002503668587 0.09502978195093451 0  1.199058102684865 0.0078441328111232 0  1.182029838722632 0.03223225636137261 0  0.7874862294529513 0.05673110205423394 0  1.134336199022174 0.09531277117381788 0  0.9887037242398892 0.09539433897293775 0  0.7980654860926208 0.09523755231937478 0  0.8848484512360164 0.004963285108317088 0  0.8678773172024861 0.004692753887917246 0  1.187698300473691 0.09357445473269232 0  1.21806816605318 0.0591297412453764 0  1.378960515561278 0.08295584895307433 0  1.224957110870538 0.02703662209657394 0  1.052980877569942 0.09525022449373063 0  0.573948670302174 0.01797288579631403 0  1.083823457070443 0.007935292884150152 0  0.5996470801520551 0.008882349257026977 0  0.6936869342676388 0.0714889910214051 0  0.6393943945610016 0.09536660370143807 0  0.5980525379599733 0.09498248800199177 0  1.063262212308384 0.03518929694271264 0  0.6831978647602285 0.07599971806021022 0  0.7922065626628179 0.09705769943822987 0  1.008061485262565 0.07587025189201528 0  1.093030249112978 0.07478556228754718 0  0.7300785941466335 0.00683046663318951 0  0.8220992926077172 0.05194272718729927 0  0.8175731316810156 0.05574644202898852 0  1.210926962481379 0.08094413026305797 0  1.085040296189876 0.02742405772108753 0  1.19821526457145 0.009553907473517838 0  1.347096841471443 0.02529764727240612 0  1.325642848211946 0.09238900036244568 0  0.6901736568162578 0.00461830688180975 0  0.9306721308044241 0.0412838178609298 0  1.128714508914038 0.07361805863673157 0  1.068008105405883 0.07587676361805046 0  0.1675340974607069 0.01663239481359097 0  0.6326316078955205 0.004593095642852957 0  0.484380960851357 0.01758190314840084 0  1.079216454036875 0.008624710587096995 0  1.47605072345222 0.05869264486923974 0  1.193387929217126 0.01197081932898526 0  1.125010410108017 0.004557087853723891 0  1.202543155229247 0.004940475159686265 0  1.601147508175689 0.01542124519874254 0  0.5524548451451645 0.02010120664089335 0  0.7350321580013175 0.00281871275049793 0  1.238235485042651 0.05677846639504948 0  1.155091934660629 0.07959543009164079 0  0.5003644394355086 0.06948731401102813 0  1.102019163279488 0.002929547552259759 0  1.200982650727714 0.0338907750654914 0  0.7338519843580424 0.09681631906901839 0  1.030976415939499 0.07676471130720031 0  0.08641352864368353 0.09167137605142815 0  0.990694696917951 0.09542319751784961 0  1.20553044543631 0.04776438282252891 0  0.9648848283365249 0.004870641947275223 0  1.070490388253913 0.03794697744376144 0  0.5968220709613224 0.01747389261555653 0  0.6919061921429991 0.09498400110054533 0  1.192548463985932 0.07495195500877971 0  1.054750824405122 0.09544520356146467 0  0.7400132665425592 0.004692365258004491 0  1.211178077742457 0.0582422651011989 0  0.6595286175333233 0.05973937241370803 0  0.6946624684368928 0.06999141811290842 0  1.004956116174696 0.004844471276418655 0  1.130605195089683 0.07904025921539297 0  0.2830988772632371 0.06558746059937967 0  1.188960221529713 0.07511798801332822 0  0.5909479420706318 0.03333536362982363 0  0.5914307122806834 0.06517875267422912 0  0.6861444799253408 0.07742852064440617 0  0.9000295860904579 0.09715441098478705 0  0.5914787524628864 0.01847826831516935 0  0.8438553979337312 0.03247370578109592 0  0.8392586911286397 0.09556362396653867 0  0.573889425903098 0.0341238770571463 0  0.5986443342962652 0.04984175355343723 0  0.6374557054103355 0.09546220754899686 0  0.2994941080055173 0.08434271769430289 0  0.3794307558065363 0.01729543741079582 0  0.8960105104811686 0.09518097781929021 0  0.5897669792339615 0.0759874973581027 0  1.162874162224373 0.004531043828208114 0  0.6319817090037614 0.09680995400829071 0  1.211703751540905 0.01789595784221872 0  0.9376202221374965 0.03940580273107419 0  1.135107013920985 0.03391167428108272 0  0.992691557267329 0.09544043419490607 0  1.119866556688153 0.04051191230216259 0  0.9484606262992082 0.002949799012975123 0  1.460436605869642 0.06688167516476053 0  0.8857434195215692 0.03782565625000876 0  0.7393324499969371 0.09554435825322162 0  1.137227223303592 0.0969028886831752 0  0.688672419332776 0.06572457491564514 0  1.134438256109491 0.03640069366938863 0  1.056796741712811 0.03548609558962254 0  1.182198503628166 0.004725304283871131 0  0.6577583035674981 0.05988281699291742 0  0.8011001172366381 0.05421273918297826 0  0.3455999394673505 0.00886735282876982 0  1.056564780065115 0.09335542958443586 0  0.7370077735498599 0.004749087207737077 0  1.31103496602123 0.02836911530388306 0  0.6009039082389718 0.04992017340164411 0  1.199842717629482 0.00630429285011569 0  1.200755444705272 0.01953510880387035 0  0.6903638340734596 0.09721275170592261 0  0.6346249652376478 0.09704725986388607 0  1.140304233894256 0.09542963050638506 0  1.063096478007852 0.04059084513355872 0  1.218289079221166 0.08326219444165252 0  0.5914137758235257 0.04352454524641254 0  0.4154125121198973 0.09224081069797725 0  1.351313096440117 0.03253327435754224 0  0.8273579780273959 0.04855186902993195 0  0.6920154255149498 0.004685085626122023 0  0.7364096947500433 0.09710513174213145 0  0.585112523305394 0.0665935563908495 0  0.9097849622065909 0.004502980894286289 0  1.206736777056944 0.07076703779191162 0  0.9931678252709877 0.04292089546611914 0  0.8979036447564493 0.09523434094657 0  0.7534764437041874 0.02527522784341301 0  1.450612131862212 0.06722478035917313 0  0.9226594478902546 0.004905417518922504 0  0.5849729109934413 0.05458737827151991 0  0.8969466127557775 0.03234334424447038 0  0.9571367969805591 0.03737647397905236 0  0.9946228658437016 0.09532448555367595 0  0.5050484818708034 0.03631892455378859 0  0.6880795853604837 0.09528920743607419 0  0.6523576882738675 0.06538740282765711 0  1.603216857516218 0.008504525869890549 0  1.058635686817575 0.09538434525198411 0  0.7430622698080789 0.002875850698280545 0  1.063976655245772 0.004810258453117681 0  1.029030175350466 0.07679452830172001 0  0.07102425787150249 0.08473263069172129 0  1.126863146999333 0.07358465837966849 0  0.9497526292942692 0.07799855604755747 0  1.27743408733421 0.03250001573218647 0  0.7276770005360156 0.09687119887024115 0  0.9693066997419588 0.07549683531789361 0  1.143321647294898 0.00312579847083064 0  1.713549772206475 0.07675926411373621 0  0.6054477257466654 0.05679148388957444 0  0.6897476367891062 0.06431273029568584 0  0.7313658199199427 0.004876843332050016 0  1.19854229829958 0.08990110549012204 0  0.5660827082919543 0.09585324083134102 0  1.130467923998971 0.07566580165424806 0  1.192095831990988 0.03067161793161188 0  1.213626398747177 0.06702635060039244 0  0.6037254561795311 0.05478277178099045 0  0.1937417004386058 0.007044030725463701 0  1.147435528658373 0.02591122775783401 0  0.01338430516615859 0.07975141790262202 0  0.6242351530714778 0.09244319215140534 0  0.8697621942401625 0.004632181431141003 0  0.6284683341853869 0.0971613297384129 0  1.3665131745769 0.02397867046677259 0  0.587813837685735 0.08899499098815714 0  0.2736426511680759 0.06528789398590223 0  0.9732997390021142 0.004605370155852989 0  1.630378003474042 0.01364782389263369 0  1.61785825418071 0.01604500632386665 0  </DataArray>
</Points>
<Cells>
<DataArray  type="UInt32"  Name="connectivity"  format="ascii">874 875 3080  411 412 2905  402 403 2695  865 866 4781  16203 23343 23762  7551 16811 16813  13653 21994 24164  7419 16583 24855  16206 22762 24420  14128 16879 21275  2730 2919 16795  14212 16538 17184  7478 16504 17708  14212 16538 17150  1246 1253 17877  14110 18369 18370  8859 8861 23558  7583 16540 16828  12980 14081 17129  7377 16865 16867  20010 20013 20268  13768 17023 17355  10619 16532 16724  14136 14137 16962  12063 16528 24795  7509 16535 17558  7478 16504 17709  7583 16540 16962  1148 1155 7699  7347 19032 19033  7499 19084 19121  9637 16784 21487  3976 7333 17580  9161 19702 19705  13178 16600 16601  18810 18812 22236  7532 17999 25020  18812 22236 23047  7344 18204 21786  18600 19408 19516  16886 17554 20987  7468 16775 17229  7633 16613 19616  7700 7706 16993  7412 16534 17104  15643 23268 23672  11510 18600 19516  7617 16836 16838  17697 17698 17718  7377 16867 17553  8118 8119 16968  23407 23856 24401  3234 3241 7700  3983 3997 24053  12063 16528 24973  13768 17023 17024  9331 19484 24945  7685 16503 21187  11920 11922 17355  7551 16813 17254  7344 18204 23052  7685 16503 21188  13707 18812 23047  11030 11033 16955  15609 16898 23487  1610 1617 18978  2506 2527 16953  14020 17096 24348  13707 18812 23483  7702 16761 17459  17209 17210 21901  7347 19032 19041  14113 22049 22051  7657 19118 19120  3164 3178 18001  7414 21188 21415  2821 2947 17178  7444 16595 16983  7532 17999 18000  11537 16684 19910  14227 17101 23649  18723 18724 21802  9331 9333 19484  7675 16525 17210  7333 17579 17580  15076 23214 24580  17075 23686 23889  7617 16838 17269  7667 19065 19072  7675 17210 21901  10619 16532 17378  17999 18003 25020  14086 16989 16990  19301 19305 19307  7354 18974 24880  18712 19339 21973  15609 16898 23614  18964 22041 24798  18460 23214 23684  16254 17083 24017  18460 18461 23684  7870 7873 17317  16621 18964 22041  7419 16583 20568  16503 21188 21415  7509 16535 17559  16596 16761 17459  7344 23052 23761  7585 16587 16894  11833 19266 22670  11264 20220 21273  13661 19378 19379  2352 2702 17341  17838 23052 23761  16658 16879 21275  8156 17322 24044  11833 19266 23540  8333 17433 24787  9949 16631 16856  7675 16525 17684  13661 19378 23399  9193 9506 23258  13259 13613 18898  1253 16843 17877  7685 21187 22984  8333 8335 17433  7444 16595 16984  7577 16636 16638  14020 17096 24611  13638 19339 21973  17320 17322 24044  12754 14113 22051  13002 17738 17740  14110 18368 18369  8137 16599 17200  7637 16527 17962  10681 10683 23926  16424 21187 22984  8569 16660 21242  2324 2891 24267  3031 4081 16984  8164 8166 24140  7486 20386 21806  9627 18017 18018  12435 18934 18936  18600 19408 19671  16885 16886 16904  6531 6538 23302  8173 9949 16856  7412 16534 17086  7637 16527 19653  16427 24047 24266  16269 16684 19910  16103 17025 17567  16206 22762 23611  7448 16975 23045  16528 16529 24973  16521 16805 24034  5103 7460 17246  17785 17786 17787  14113 22047 22049  7354 18974 18977  16203 23343 23783  7657 19120 19121  7580 16993 23617  16993 16994 23617  14146 18238 18240  18460 23214 24580  14158 18363 18365  13118 19675 23948  16256 21271 21272  11307 13577 17447  19483 19574 24159  7418 23663 23780  16256 21272 21273  7467 23568 23690  12707 12709 17261  8357 8359 18947  7603 16937 16939  16454 23568 23690  20489 23663 23780  9096 19302 19304  7584 16658 16879  9193 9665 23258  9094 19689 23632  7626 16537 19638  9094 19689 24706  16874 23658 24578  15707 21994 24164  13613 18897 18898  9627 18018 18485  9227 9229 17050  7604 16695 24377  16775 17229 24412  16424 22984 23432  16527 19653 23028  7393 16647 16783  7388 19653 23028  7494 17768 22229  16424 16634 23432  19273 19274 23800  19274 23800 23957  15135 16603 25015  7626 16537 22538  12607 16948 16949  15446 16598 17166  7483 18724 21802  11833 19273 23540  12819 12990 17353  16452 23497 23877  11928 16585 17435  7452 16608 25003  7446 16285 24557  11833 19273 23800  7494 17768 23700  10952 16639 16640  2527 7402 16953  7691 23497 23877  7442 24047 24266  16583 16654 24855  9688 16741 24321  13762 23856 24401  6538 6545 16830  13707 18818 23483  10524 10526 23667  12538 16628 16630  10797 17435 24907  7672 17559 17640  11264 21272 21273  2702 16671 17341  7452 16608 16827  7340 20240 21440  13707 18818 23694  9094 19768 23632  6545 16830 25019  7399 16607 24969  14163 17061 17085  13591 17787 17788  7399 16607 18102  11928 16585 17434  11007 16948 23606  7388 23028 23345  6727 7393 16783  16054 20386 21806  9094 19768 23846  14161 18241 18242  13664 17365 23519  7637 17709 17962  19306 19449 24123  7388 19777 23345  23440 23882 24401  6538 16830 23302  17783 17785 17786  13712 16935 16951  15135 16603 22770  7595 16798 24828  7678 16596 17459  13482 13484 19182  15551 16249 16722  16468 23520 23908  7686 20585 23966  15629 16860 23959  15446 16598 17167  12181 17442 17443  7686 20585 23883  8137 16599 23003  7563 17269 23941  11920 12674 17355  15524 16992 23832  13664 17365 24781  16989 22955 23487  11967 23575 23576  13643 16632 23679  3976 3983 17580  13178 16600 17080  7581 16868 17189  16452 21171 22584  16504 17709 17962  9858 10009 23576  13591 17786 17787  16537 19638 21885  17041 18243 18244  5670 5677 24312  7335 23984 24074  19032 19041 23615  17840 23984 24074  9106 16610 24890  18095 18096 23873  13687 15052 17224  14147 19408 19671  3983 17580 24053  10527 23668 23861  2919 7577 16795  9036 23658 24578  16256 21271 23365  7617 16836 17254  7585 16587 17051  7463 19638 21885  9106 16610 17316  12894 12896 23339  7667 19065 19073  7659 19041 23615  2947 7495 17178  16229 20013 20268  8897 9032 23500  16487 22977 23424  9108 19381 19383  19702 19704 19705  16553 18398 23634  7657 19118 21792  13485 19180 19181  7393 16647 16698  23736 23928 24523  16920 20217 20218  8859 9628 23558  7446 16285 24793  16928 17083 24017  13525 13527 23781  16452 22584 23497  15643 23268 23673  17990 23810 23902  7443 16805 23759  9688 16741 24671  14161 18241 18243  16198 16487 23424  19306 19449 23814  16553 18398 24784  7673 23810 23902  15617 16997 23716  15199 16898 23614  11235 21271 23365  6769 6776 16756  6720 16783 17051  7489 16646 23915  14681 16875 24748  6720 6727 16783  7489 16646 24136  13643 16632 17167  16562 23491 23692  17446 21755 24168  13638 19339 19340  16490 24052 24107  13712 16935 16952  7379 24052 24107  7494 17775 23700  16626 23731 23909  9637 16726 21487  18666 23682 23864  7343 17714 17718  16805 24034 24586  11992 12481 17114  15241 16962 17263  7503 23491 23692  8173 8183 16856  11008 16951 17103  15199 16898 24830  16635 22757 25022  7422 16885 16904  17775 23965 24193  17775 17776 24193  9180 16748 17092  7633 16613 19617  11962 23731 23909  7494 17775 23965  7463 21885 23061  9096 19302 19303  13732 23682 23864  7678 16596 22366  11003 11007 17109  14163 17085 24589  16673 23865 23923  16249 16722 16808  11959 16997 23716  7470 23865 23923  7337 16561 18088  7463 19785 23061  16633 23707 23788  16273 23414 23591  2317 18165 25085  1253 1260 16843  7643 23707 23788  15609 22955 23487  11242 16721 24057  7378 23414 23591  15472 16954 16955  13638 19340 23181  11242 16721 24197  12394 21154 23932  12719 17554 20987  13726 18891 18893  7337 16561 23070  2282 2317 18165  12166 23885 24292  10997 11003 17109  7340 21440 21807  13762 23882 24401  8866 19899 23746  13678 13687 17224  11967 17015 23575  13261 13263 24156  8861 16965 23558  12754 12756 22051  6713 6720 17051  16453 16990 21344  14205 23975 23978  7603 16939 16953  13692 20906 25074  23377 23569 24671  12538 16628 25067  18163 18166 24115  14146 18240 18242  16957 23712 23878  7337 17684 18088  15533 19376 23836  7419 18035 20568  14681 16875 24805  7869 7870 17317  16635 22757 24980  9060 19893 23515  14965 17319 21952  19895 23499 23500  16525 17684 18088  14143 23130 23728  7501 23049 24212  15533 19376 24738  12707 13614 17261  16022 16781 17441  11181 11307 17447  10519 10583 17167  1393 1400 21794  18018 18485 23288  7595 16798 24475  15530 16863 23714  7498 23659 23938  10707 16733 23786  18973 23890 24024  19895 23500 23501  16603 18268 22770  16813 16836 17254  7499 19084 24754  8121 8123 17080  7577 16636 16795  2702 2723 16671  5096 5103 17246  7482 23890 24024  6776 7441 16756  16454 19777 23345  16624 18485 23288  11434 11436 23273  10524 10527 23667  14528 14530 17245  15705 16963 23720  14158 18365 18367  16454 19777 23568  14081 17129 24987  7418 16634 23432  14185 16983 24045  10683 16869 23926  18690 23659 23938  13692 13740 20906  7437 23574 24034  7604 16695 24221  13783 18403 24026  7625 16766 24162  7625 16766 24223  15652 17060 23674  7382 16659 19618  7418 16634 23663  14137 16540 16962  13783 18403 24144  11007 16948 24494  9331 9700 24945  7343 17714 17716  14147 19349 19408  16561 16562 23070  403 404 17451  2891 17719 24267  7448 17165 23045  17101 17102 23649  17041 18244 24204  12607 16949 16950  7661 16625 16998  20903 20912 20913  13655 14145 23668  10797 10916 24907  9949 16631 17231  13726 18893 18894  16840 23859 23905  7662 18698 24151  13521 13523 18242  12950 23859 23905  11031 16701 16954  7662 18698 24374  7402 16947 24176  19118 19119 21792  16562 23070 23491  8164 16968 24140  12401 16687 21649  16586 16663 23847  14136 15241 16962  18005 18075 24265  9078 16737 16739  18005 18075 24385  11244 16693 20338  1729 1736 19121  13652 19305 19307  7501 21794 24212  10952 16639 17124  6328 16654 24535  9675 16623 17050  4081 7444 16984  13674 18894 18896  13736 19696 19698  15700 19655 23954  16471 17066 23657  12478 19449 21909  16663 23847 23992  15653 19675 23948  12435 18934 18947  15241 16795 17263  15700 19655 24005  15656 23884 24675  17331 23109 24489  17697 17700 17718  6328 16654 24855  7483 18724 18726  16530 22407 24922  12727 16847 16849  17698 17714 17718  11030 11031 16955  12756 22051 22052  10797 11928 17435  7413 23913 24294  16273 19785 23061  16054 21806 23392  16959 16983 24045  8118 8164 16968  8119 13178 16968  9769 16731 24058  1617 18978 24555  5110 5117 17243  10527 23667 23668  7495 17173 17176  14086 16990 21344  9036 16586 23658  16287 23928 24343  12980 14242 17129  16273 19785 23414  9769 16731 24613  10445 10447 17105  11432 11434 17788  8154 18268 22770  16914 16991 24320  7706 16993 16994  9717 19574 24159  16676 20972 23134  14219 17072 17073  11434 17788 23273  16915 16960 17046  15049 15051 19617  14050 23267 23874  9036 16586 23847  13774 23592 24372  18666 19340 23181  16530 22407 24785  7669 17796 24148  15555 18817 23853  7603 16937 17062  10990 14220 16746  16520 23688 24468  7669 17796 24232  9675 16623 17441  23426 23928 24343  16179 23596 23717  16745 23943 24028  9506 23258 23789  8125 8127 23003  17367 17368 23711  14046 16958 24628  11244 16693 20339  9717 16665 19574  16972 23344 23916  12181 17443 24192  18896 23943 24028  3178 7532 18001  7678 22366 22854  16685 23023 23609  13002 17740 17741  8223 16860 23959  18666 23181 23682  8854 18120 23875  9107 16536 24037  16920 20216 20217  19127 24251 24469  14220 16746 16747  15555 18817 24806  12509 19697 19704  7661 16625 23207  13529 14188 18236  19289 19290 24247  9107 16536 24169  7349 24251 24469  19290 24247 24384  7577 16638 16671  7588 16855 16907  9858 10603 23576  14214 16841 23642  13631 18730 18731  7333 17579 17581  7382 16659 19619  13002 17738 17745  17368 23711 23967  11053 11056 17128  16287 23928 24523  17331 23109 24660  16675 16676 23134  10799 10984 23567  16684 16685 23609  16867 17553 22538  7626 17553 22538  16625 23207 23808  2730 16795 17263  19630 23884 24675  1792 23907 24592  16555 18035 20568  5460 5467 20358  1246 7517 17877  16520 24313 24468  15551 16722 16723  8854 18120 24827  6300 7581 16868  20585 23966 24063  8569 16660 21243  16054 16757 23392  7443 17511 23759  7467 17540 23690  9164 10707 23786  3031 7607 16984  11008 16951 24353  13775 16686 17737  12698 20911 24676  7495 17173 17178  20584 20585 24063  12672 17162 23755  12984 16834 23685  12978 17367 23711  12696 17378 20216  7467 17540 23772  16774 16868 17189  11816 16663 23992  7642 16670 17227  7527 17950 17952  9717 16665 22974  15616 16081 23969  7498 18687 23659  13811 18096 23873  18559 23831 24456  16978 17013 23838  7696 22762 24420  13775 16686 17736  7708 14417 16774  13485 19181 19182  16471 16986 23657  7424 20961 24134  11816 16663 24133  13527 18236 23781  7471 16802 24282  7424 20961 24220  20010 20011 20013  15576 17135 20198  1610 7354 18978  7488 23207 23808  7471 16802 24347  15569 23686 23889  7372 16716 16749  7498 18687 24896  16678 22366 22854  16878 16881 23442  3164 18001 24742  13178 16601 16968  13829 23520 23908  9060 19893 23499  17075 17078 23686  7642 16670 17228  14086 16989 22955  14209 15578 17229  15135 18100 25015  6811 7700 16993  8866 19899 24230  10659 10661 17124  11377 11379 23903  21440 21807 23086  16838 17269 23941  5677 17483 24312  11235 16626 23365  17022 17025 17567  16689 24257 24391  13637 16624 23288  9733 17135 20198  11971 19768 23846  16744 23871 24013  7595 16895 24828  14134 16689 24391  2107 18179 23910  7648 17735 24007  7689 16677 20357  7689 16677 20356  13482 13485 19182  10501 10517 17140  7514 23284 23594  16911 16913 21361  11244 20338 20589  19446 19449 21909  16972 16973 23916  20537 23109 24213  6769 16756 17151  16914 21509 24320  8361 8363 18948  13736 19698 19699  13710 16722 16723  11992 13768 17114  9327 16668 23993  16216 23583 23824  10468 16759 16760  15872 18718 21243  13710 16723 17128  13619 17011 24962  11971 19768 23989  7648 17735 24231  12435 18936 18948  10669 16688 24838  12672 17162 24878  17785 23049 23213  19301 19302 19305  18974 18976 24880  7405 21554 24095  11235 16626 23731  21562 23488 23691  16214 23284 23594  14220 16748 17092  13170 23871 24013  8359 12435 18947  8357 9051 18947  13679 16883 21104  7395 23862 23940  16628 16629 16630  18453 23862 23940  23129 23130 23728  13655 15655 23668  13637 16624 23705  16532 17378 20216  7522 23579 23827  7727 23869 24532  16863 17079 23714  1260 7361 16843  16520 23688 24346  19919 24415 24552  19919 19920 24552  7407 16579 23557  9227 9675 17050  7402 16947 24567  7341 23842 24070  18403 18404 23895  403 17451 24689  7405 21554 24314  13259 13261 18898  16429 23129 23551  7364 24403 24485  12978 17367 24871  11971 19916 23989  12756 22052 22055  9729 23583 23824  16623 16781 17441  7527 17950 17957  17939 23579 23827  7607 16984 23610  10952 16640 21650  7483 18726 18727  9108 19381 24579  6783 7441 23832  16487 24403 24485  16895 16896 24828  15196 17104 17196  19783 24366 24422  16730 16731 23918  7425 20353 20354  7641 16699 19620  2107 18179 24845  9628 20910 23558  19783 19784 24422  19281 24238 24300  12401 16687 21650  13527 13529 18236  9327 16668 24759  7539 18166 18168  16896 20825 23192  7378 16633 23591  4011 4025 17559  7596 16704 16705  14595 19281 24300  9229 17050 17135  18403 23895 24026  7680 24022 24093  11971 19916 24130  16947 17165 23045  11967 17015 23590  16734 17043 23669  15638 23712 23878  9676 23799 24297  7441 16861 23832  19019 24022 24093  10522 10525 23704  16731 23918 24058  7378 16633 23707  12819 12821 17353  14188 18234 18236  7456 24160 24245  9032 23380 23500  17663 17664 23005  13790 23194 23621  7575 17348 17349  11469 16770 18548  11432 13591 17788  10799 12066 23567  14147 19349 19409  16611 17318 17319  8849 17446 24168  18905 18906 21040  13288 19970 20011  16325 16327 20357  16694 23618 24712  7470 23923 23987  13176 21562 23691  16436 24160 24245  15700 19630 23884  16535 17559 17640  15057 15059 19619  5005 5012 17228  7648 17838 23761  20241 23842 24070  7514 16656 23284  16179 23596 24301  7686 20489 23780  6293 7699 16868  9054 18939 18941  19426 23907 24592  18262 22193 22711  7470 19778 23987  7659 16646 23615  2506 7603 16953  2352 7576 17341  16920 20218 22583  7525 24765 24889  7584 16658 23302  11032 12730 16791  11036 11040 16780  12727 16849 23317  17971 24765 24889  16213 17081 24863  9168 9637 16784  7547 23418 24129  15700 19630 23954  17030 17093 17094  7492 20239 24681  13445 13480 19194  2723 7577 16671  7492 20239 24897  16073 17014 23838  6545 7432 25019  15472 16954 23653  16521 23574 24034  7686 20489 23883  16878 16880 16881  7656 19141 19142  7903 19385 24042  11306 12410 23462  7539 18168 22636  11071 11073 20339  10669 16688 24000  7695 17016 22680  7524 24428 24549  12478 19449 24123  17985 24702 24826  14042 16963 23720  16213 17081 24077  15698 23979 24442  8861 8863 16965  7531 24702 24826  7397 17076 17077  14046 17114 24628  16932 16935 16952  11981 16803 24339  16932 16934 16952  13261 18898 24156  19380 19382 21931  7655 21807 23086  23266 23267 23874  7503 17990 23692  19084 19120 19121  7351 19119 21792  7648 17838 24007  7539 18166 24115  17833 24428 24549  7523 24071 24191  9733 20198 20199  11981 16803 24476  18893 18894 18896  12896 18375 23339  7641 16699 19621  18289 24120 24199  14156 17005 24631  13631 18729 18730  17322 23975 23978  12394 17105 23932  16216 16665 22974  7659 16646 23915  16691 16775 24369  16611 17317 17318  13651 23680 24018  10683 24105 24239  7514 16656 25062  11922 13768 17355  13692 14238 25074  7575 17348 24790  8151 16655 24596  13485 19180 19194  16691 24369 24448  7460 17245 17246  7503 17990 23810  15642 20338 20589  7397 17074 17076  13630 16539 24253  9090 19274 23957  11099 24001 24458  13619 17011 23974  13630 24253 24287  13866 18906 21040  16629 16630 17186  7597 16915 16960  7460 16736 17245  16974 18072 18073  13713 18404 23895  17830 24071 24191  5488 7425 20354  9160 19446 21909  10599 23129 23551  11369 11375 19699  7536 24120 24199  5467 7689 20358  14156 21611 24631  9684 16730 23918  20904 20907 20912  9688 23569 24671  18170 23300 23613  16896 20825 24828  16701 23680 24018  16214 23594 23743  16886 20987 24474  7903 19385 24761  13709 14135 17166  9175 9178 16796  16676 24105 24239  13731 17319 17320  17071 24313 24468  16608 16852 25003  9090 19274 24100  15558 16889 24622  12405 17663 23005  15558 16889 24121  7522 16678 22854  7599 16719 23913  2317 7540 25085  7698 16690 17575  16660 21242 25059  7676 16697 17641  16216 22974 23583  13721 17160 23042  16920 22583 24924  13731 17320 17321  9950 16675 23134  7651 18737 24109  16214 16772 23743  16914 16991 17454  16481 24437 24653  16291 23922 24414  3759 23867 24381  7372 16716 17226  7687 20932 24295  14046 16958 24910  7538 23300 23613  18283 23866 23956  11031 16701 23680  15524 16861 23832  16860 23998 24035  7597 16918 16960  7687 20932 24380  16432 16889 24620  17646 24354 24470  6293 6300 16868  15622 23998 24035  18902 23592 24372  9180 16748 17266  16886 16904 24474  16526 18820 23968  7676 16697 17747  14175 14176 17200  7361 16785 16787  7656 19141 19143  13629 24061 24189  16913 21361 23981  7537 23866 23956  12024 12026 17745  19357 19358 24626  19358 24626 24763  10663 10665 21650  7339 24437 24653  17949 23245 23683  19139 19143 25056  8897 9060 23500  11925 17253 22993  11925 16806 17253  19034 19036 22986  23713 24519 24539  14209 16670 17229  14230 16667 24539  8765 18127 24915  7530 24354 24470  19871 19881 19901  7366 23831 24456  7501 23049 23213  8765 18127 24847  11077 11079 20590  13731 17319 21952  14965 16611 17319  13613 23039 23466  7406 18489 24135  7532 18000 18001  7588 16855 17111  16502 16960 17046  16217 16285 24450  14079 24257 24679  20904 20906 20907  13643 17140 23679  7873 17317 25041  14214 16841 24749  12966 23343 23783  16613 19616 25054  18168 18170 22636  10519 13643 17167  1393 7501 21794  1400 21793 21794  5488 5495 20354  7355 18737 24175  2821 17178 24967  7522 16678 23579  7631 16764 16844  7422 16885 22779  16734 17043 24442  12178 17107 17108  13713 18404 24895  7460 16736 17243  13635 23618 24712  20193 23767 24023  7651 18737 24756  13613 18897 23039  10583 16598 17167  7679 16767 17244  8123 8137 17080  8121 13178 17080  1876 1883 19143  18261 18262 22711  9090 19289 24100  16172 19790 24249  16172 19790 24730  6503 7594 16880  6685 7595 16895  10468 16759 17045  16218 23976 24106  14530 15529 17245  8125 8137 23003  9684 16730 24904  23256 23501 23502  14528 16736 17245  17015 23454 23590  7355 18737 24109  16689 24257 24679  5474 5481 20356  10442 16799 17045  18884 23039 23466  12984 16834 24686  11305 16978 17013  7528 23245 23683  17956 17975 24319  2072 24218 24790  16435 24306 24443  14128 16879 24687  12698 24016 24676  7643 16673 23788  7546 23777 23888  13791 23681 23791  7707 7708 16774  9178 16796 16797  17347 24218 24790  5117 7679 17243  7434 16782 16979  18170 22636 23300  19655 21422 24005  16415 19679 24172  18572 18573 21793  12045 24142 24621  13715 23295 23297  9090 19289 24247  10517 13643 17140  16941 16953 24567  17094 17096 24348  20267 23869 24532  14158 18363 23339  17030 17094 24348  13744 20825 23192  17956 17975 24537  7643 16673 23865  16217 16688 24000  7676 17641 22999  6713 7585 17051  7410 17690 24402  14206 14207 17227  20903 20904 20912  13293 20912 20913  12709 17261 23270  19655 21422 24082  13521 14161 18242  13523 14146 18242  7529 23976 24106  11537 16684 23609  14215 17244 18212  7410 17690 24487  7425 20353 20355  9506 9610 23789  7402 16953 24567  9113 24306 24443  15524 16992 24569  18441 23777 23888  18116 24662 24724  13810 23893 23973  18869 23681 23791  7406 18489 24802  6076 24194 24669  1141 7693 7707  14150 16930 24625  1729 7499 19121  1736 7657 19121  16947 17165 24176  18359 18360 18375  10521 10522 23704  12607 16948 23606  16536 19434 24037  11073 11244 20339  7351 19119 22949  6531 7584 23302  9126 19967 19969  13577 15530 17447  19070 23917 24138  15640 23116 23588  17949 17950 17957  15652 17060 23675  11843 24662 24724  7394 22322 23097  8196 16967 23804  7545 24066 24141  12596 22045 23857  16399 21023 23740  14240 17053 17252  12999 24238 24655  13819 16559 24072  11033 16955 24418  6370 7392 16988  18096 24054 24188  16074 16978 23838  9126 19969 19970  14026 24065 24137  16081 21121 23036  18016 18017 24707  7466 16752 19622  13635 22223 24712  7699 7705 16868  7543 24543 24618  16449 16887 24732  16526 18820 24866  7490 23767 24023  18017 24707 24837  11056 13710 17128  7909 24209 24564  14075 24215 24296  19898 19901 19902  11039 11306 23462  18873 23893 23973  7544 24305 24390  16285 17048 24450  13484 19182 25016  18725 18729 19218  10447 12394 17105  10445 10468 17105  18109 24498 24556  18677 23418 23661  15638 17065 23878  23387 23885 24292  15061 15068 19621  16432 16889 24121  4991 4998 17226  16550 20825 24828  7361 16785 16843  18312 24066 24141  18298 24543 24618  16763 17641 22999  9078 16739 23550  15049 16613 19617  15051 16659 19617  7495 17176 18208  12481 14046 17114  17368 22778 24224  16939 16941 16953  7598 17223 23009  18877 24065 24137  16550 16798 24828  4830 24015 24453  8850 24498 24556  14150 16930 24294  9160 19444 19446  7372 16749 17372  16081 21121 23969  8864 23252 25032  18881 24215 24296  16451 24331 24387  18306 24305 24390  12039 24039 24472  7496 19066 19068  7533 18256 22843  14231 17231 21762  16466 16834 16835  10009 11967 23576  17068 23194 24076  12990 17353 24800  16415 19679 24779  7496 19066 19073  7423 17019 24362  13748 24054 24188  8863 8867 16965  19969 19970 20011  13772 16841 16842  7691 21554 23877  10526 12145 23667  18677 18678 23661  19566 23655 23771  9133 24331 24387  20932 24380 24464  15632 16840 23859  12894 14158 23339  10990 10992 16746  16988 16989 16990  7407 16579 24732  19697 19698 19704  7466 16752 19623  7518 22757 25022  16642 16792 24303  11051 11053 17128  16758 18488 24599  15472 16955 23462  17949 17957 23245  19627 19628 24725  12432 13693 17252  13779 19177 19195  21120 21121 23036  19627 24725 24786  16758 24599 24690  20931 20932 24464  19281 24238 24655  12538 14102 25067  7352 23917 24138  18410 18411 24271  16927 19565 24704  5110 7460 17243  16842 23805 23927  9102 16700 24290  8325 24274 24582  10619 16724 16725  13724 16973 24117  7341 16757 23392  19065 19066 19073  13745 22054 22055  16051 24799 24879  14177 24302 24721  9054 18939 18948  8847 24734 24757  11379 19592 23246  21039 23655 23771  7698 16690 24810  6307 16754 24266  17939 23827 23947  7397 17077 17155  16717 24734 24757  16642 24303 24434  8365 8367 23176  15052 17222 17224  15687 16800 24108  16883 21104 23442  7392 16988 16989  10437 10439 17012  17020 17022 17566  16794 24799 24879  10707 16784 23735  7679 16767 17243  13055 16727 24829  7500 19143 25056  7656 19142 22956  17240 18261 22711  18410 24271 24397  9041 18938 24276  9733 20199 20200  14017 18410 24397  12654 19591 19594  16770 18548 21243  16674 24194 24669  17240 18261 23068  9165 16735 24902  15687 24108 24164  7393 16698 16704  18153 24728 24747  7611 16588 24684  16797 24302 24721  2016 2163 17093  11379 19592 23903  7182 7189 19618  7520 16864 23960  16022 16781 17442  7508 23415 23652  16249 16808 24841  7607 23467 23610  15082 17149 22658  7673 17840 23902  7446 16969 24793  7631 16764 17372  13055 16727 24803  7691 21554 24095  7407 16887 24732  14017 18410 24516  7351 22949 23727  13506 24648 24745  20183 24001 24458  13732 18671 23864  13649 15196 17196  16653 24142 24621  14188 18232 18234  13772 16842 23927  16103 17054 17567  9041 18938 24417  9126 19967 23403  17938 17939 23947  9374 9376 23506  7338 24728 24747  8864 23252 23253  12509 19704 19705  16607 16981 24969  23194 24076 24351  12145 16771 23667  16719 23913 24294  16751 23799 24297  16536 19434 24862  15239 19347 19348  19380 21931 24710  11031 16954 16955  3997 7509 24053  18149 18150 24518  17077 17155 17156  10659 16598 17124  10661 10952 17124  16529 23979 24442  13773 16666 25001  16012 23109 24213  3143 18003 25020  7362 16715 25027  9950 16675 24187  7673 17840 23984  1120 16743 24246  16994 21611 23617  16484 23575 24794  16321 16323 20355  17022 17566 17567  17717 24658 24867  13819 16559 24882  6748 7596 23639  7421 23812 24200  9102 16700 24740  7362 16715 24977  15757 23415 23652  15576 17050 17135  12148 13611 16875  13724 16973 23916  17368 22778 24807  3143 18003 24909  14240 17053 17253  7496 19068 23630  6125 23925 24291  3206 7438 17008  18149 24518 24641  16742 23723 24571  6272 7175 19620  7341 16757 23842  13653 15687 24164  13000 18361 18373  8363 9054 18948  8361 12435 18948  13790 23194 24201  11436 13026 23273  17716 17717 24867  13732 18671 23999  18253 18256 22843  17214 23404 23679  12631 16793 16794  9161 19702 24627  19189 19193 19491  14151 19783 24307  17060 23674 24427  15872 16770 21243  11469 16770 18549  14959 19691 24379  7611 16588 24438  16660 18718 21243  7594 16880 16881  18723 21802 24974  8169 8178 23494  10681 10945 23926  17136 23870 23951  16909 16912 16915  10508 10515 23498  14151 19783 24366  16649 24648 24745  3220 7520 23960  13779 19177 19196  17032 22223 24712  20907 20912 25024  12596 22045 25034  19034 22986 24680  7541 16556 24961  15196 16534 17104  16497 17019 24362  19591 19592 23246  11509 23754 24012  7915 23949 24190  8151 16655 24674  14127 23312 23985  17690 17691 24324  12263 12265 18731  9095 19916 24130  16849 23034 23317  7394 16961 23097  10494 10501 17140  7702 16761 23770  4431 7446 16969  19871 19873 19901  15643 23672 24563  9030 9053 23642  10468 16760 17105  14959 19691 24517  7014 7445 16977  15082 17149 19623  7601 17086 24318  16650 24209 24564  17241 23068 23441  16980 17223 23009  10442 16799 17012  18842 24091 24174  7334 23870 23951  6258 6265 19622  16255 16906 24622  10442 10443 17045  19965 19967 23403  19881 19901 19902  10999 11001 23685  7519 20218 24650  7596 16704 25043  17690 24324 24402  16784 21487 23735  19565 19566 23398  13176 16744 23691  7361 16787 21791  14220 16747 16748  12922 24254 24505  7330 17054 17567  4025 7672 17559  4011 7509 17559  13768 17024 17114  23575 23576 24794  22052 22054 22055  20907 20909 25024  18240 18241 18242  9095 19919 24272  18359 18361 18375  17016 22680 24522  15617 16997 17538  16855 16907 24737  16073 16074 23838  15856 16466 16834  7541 16556 24893  11962 16721 23909  8886 8892 23515  16767 17244 18212  7508 16763 22999  3668 16753 24198  16103 17025 23798  9095 19916 24272  7655 20193 23086  2016 7612 17093  17009 23974 24045  2177 7443 17018  9173 9175 16796  9166 9168 16784  6307 16754 24460  19420 22949 23727  11027 13772 16841  20885 23687 24113  7411 23922 24414  12263 13631 18731  7631 16844 18132  16669 24274 24582  13118 15590 23948  17240 17241 23068  15578 17229 24412  16614 24654 24717  16327 16397 20357  16325 16677 20357  12181 17442 17444  18283 18284 23752  5012 7468 17228  5005 7642 17228  15057 16659 19619  15059 16699 19619  12938 24091 24174  7358 18572 21793  7500 19136 24865  16994 21611 24631  13649 17196 23830  8127 12226 23003  16169 16170 24259  7383 17146 17148  15632 16840 23941  9170 9637 16755  13525 14146 23781  7428 20752 24538  16534 17086 24318  19139 19141 19143  9095 19919 24415  15446 16632 17167  14234 15984 23476  14417 16774 17189  1120 16743 24824  7519 20218 24466  12680 17332 17648  19566 23398 23655  9165 16735 24310  11004 12631 16793  13480 13485 19194  13445 13779 19194  11536 18852 23419  7500 19136 25056  7508 16763 23415  10658 10660 17328  11034 11036 16780  11029 11032 16791  7428 20752 24606  7333 17581 17747  20075 21120 23036  18677 23418 24129  7587 18035 24830  12897 12900 18374  13265 13267 18894  14992 19647 24597  7627 16696 24153  12226 16833 23003  11044 16863 17079  7473 16846 18131  13709 15446 17166  16697 17581 17747  16519 17164 24313  4396 7598 17055  14146 18238 23781  16842 23805 24292  7693 7707 7708  7049 7600 17056  13176 16744 23871  7063 7433 17058  12861 23034 23317  14992 19647 24649  13791 18884 23466  11962 16721 24057  18052 23867 24381  9702 24298 24502  18253 22843 23493  2289 7602 17063  7434 16782 16980  15239 19348 19409  8169 14271 23494  12935 23736 24523  2443 7603 17062  17785 17787 23049  4361 7599 23913  10508 13773 23498  3647 7427 17067  5964 24534 24615  11048 11087 17097  19607 19608 23535  7864 11837 23382  18283 23752 23866  3430 7403 17064  6503 6510 16880  6685 6692 16895  19003 24186 24325  7395 16772 23743  15239 19347 22952  16170 24259 24389  7672 17640 24954  15171 24186 24367  12145 16771 23666  7424 20584 24063  7376 24654 24717  7021 7028 16928  20075 21120 23005  18095 19910 23873  4319 7396 17069  17053 17253 22993  7126 7397 17074  7538 18284 23613  7521 17028 17029  7921 23421 23775  3045 3206 17008  8185 23894 24033  12730 16791 24727  3045 3857 16959  6489 7422 22779  14176 16599 17200  6958 6965 17269  12966 23783 24519  17000 24061 24189  7383 17145 17146  14145 16771 23668  10439 10442 17012  12686 12995 23653  11816 18938 24133  7424 20584 24134  13791 18884 23681  6349 7587 18035  11369 13657 19699  11375 13736 19699  7692 17688 24562  10945 16769 23926  16741 16742 24671  11981 24476 24602  15836 17138 18231  13764 24454 24601  16933 16937 17062  7664 23899 23961  15070 15082 19623  14227 17101 24250  7453 16745 23943  11925 16806 17328  23071 24117 24467  7692 17688 24638  9103 19003 24325  9030 14214 23642  19965 23403 23725  14188 18232 23016  6573 16991 17454  7395 16772 23862  13000 18361 18374  17058 17059 17060  16217 24000 24450  15590 16751 23799  12966 23713 24519  16490 19778 23987  7497 17705 17706  4977 4984 17372  16695 17032 24221  7538 18284 23752  14606 16922 18852  18253 18254 23493  8886 11982 23515  15873 15875 18549  7433 17061 17084  18907 24055 24128  6398 7400 16888  6517 7430 16876  6454 7416 16899  6426 7407 16887  6699 7401 16890  6356 7587 16897  6482 7422 16902  6664 7408 16900  6405 7400 16906  6461 7416 16905  6643 7415 16907  6552 7432 16916  6594 7597 16908  6636 7415 16917  6615 7423 17019  6601 7597 16918  18983 24534 24615  7481 18980 24555  10585 19900 23226  19257 24514 24604  7655 20193 23767  18573 21793 21794  11816 18938 24276  11040 16780 24202  13288 20011 20012  11981 21049 24602  12916 23994 24171  10999 12984 23685  16270 24495 24684  15629 16856 23959  2548 16768 24027  18619 18624 23222  14163 17061 23423  7761 23891 23933  11006 12148 16875  17007 19142 22956  7534 23738 23887  15361 16243 17153  2177 2226 17018  12785 24299 24525  16490 19778 24052  7430 16876 16877  7400 16888 16889  7401 16890 16891  7587 16897 16898  7416 16899 16982  7408 16900 16901  7422 16902 16904  7597 16908 16915  11088 17613 23119  15757 23652 23765  7346 18914 24560  9233 9235 20200  7400 16906 24622  7473 16846 18132  7502 17717 24449  7715 7717 17378  15702 17104 17196  3192 3269 16956  15467 17810 23063  5474 7689 20356  12026 13002 17745  6972 6979 17254  17600 23894 24033  17664 20075 23005  7438 17010 17087  12024 13775 17745  10663 10952 21650  10665 12401 21650  16635 24127 24980  7028 16928 17083  17011 24201 24962  1673 1680 19073  9766 17001 23851  7602 17100 17101  16640 16687 21650  12779 18835 24446  7473 18131 19788  14135 16639 17166  16831 17129 24987  1134 1141 7707  9556 24510 24605  7596 16706 23639  4431 4438 16969  12439 17047 19201  14882 24055 24128  10983 10985 23503  7367 16732 24111  7007 7014 16977  14207 16670 17227  20752 24606 24699  11079 11260 20590  11077 20589 20590  13000 18373 22379  18914 18915 24357  2387 7602 17100  17347 17348 24790  7589 16905 17026  16269 19910 23873  21039 23771 23876  8367 18951 23176  18441 23888 23972  7688 16832 21023  18772 24039 24472  19898 19902 23687  16021 17441 21715  15590 16751 23948  16858 16859 24396  7346 18914 24773  13074 13076 19409  12983 17329 17330  20751 20752 24699  9378 9488 17809  14175 16600 17200  1876 7500 19143  1883 7656 19143  16557 24015 24453  13754 23686 24755  8166 9949 24140  14151 19790 24249  19068 19070 23630  11506 23533 23764  15757 17726 23765  4396 4403 17055  7688 21023 23740  7042 7049 17056  7056 7063 17058  7843 24430 24553  19965 19966 23725  12399 24514 24604  16549 23702 23704  2289 2303 17063  11260 22860 23737  8156 17322 23975  2429 2443 17062  16890 16891 16894  16902 16903 16904  16908 16909 16915  7347 19033 19034  16974 18073 23263  13790 24201 24962  3647 3934 17067  3353 3430 17064  16859 24396 24455  13631 18729 19218  5138 5145 22765  16922 18852 23419  7502 17717 24658  7383 17145 19632  9637 16726 24968  4319 4326 17069  7488 19126 23808  23377 23569 24378  7119 7126 17074  16667 24519 24539  19709 24404 24521  5600 24478 24540  18262 23738 23887  21039 21040 23876  19348 19349 19409  14151 19790 24307  12983 17330 17648  3668 16753 24898  18441 18442 23972  21192 22968 23718  16967 23804 23805  10988 14220 17092  16641 16687 23801  16723 17613 23119  10987 12432 17252  18730 18731 18733  10984 12934 23567  18395 24454 24601  7359 17776 24193  3045 16959 17008  8137 17080 17200  18185 24536 24561  21953 24542 24642  7546 18678 23661  11007 17109 24494  20731 23812 24200  11510 18600 25008  7869 17317 17318  17662 23572 23697  12779 18835 24743  11041 11044 17079  14236 18070 24436  14110 18370 18371  5635 16762 24825  19126 19127 24038  13693 14240 17252  7588 16900 17111  7584 16876 16879  18914 24357 24560  9376 17809 23506  11046 11048 17097  3192 3913 17131  16641 21154 23932  7589 16903 17026  14219 17073 25082  7481 24046 24184  2142 2884 17351  17244 22322 23097  10443 10468 17045  17808 17810 23063  10944 23268 23673  23407 24400 24401  10585 19900 23227  18011 24510 24605  7438 17008 17009  10806 24358 24598  17352 18847 22850  7443 16805 24586  10707 23735 24242  15602 19587 19589  15701 18131 19788  16944 16945 16948  7335 17796 24074  16218 17921 23854  16446 24501 24513  9054 18941 23176  11049 11050 11051  16801 16807 24515  11047 11048 11049  13772 23927 24926  9160 19444 19450  11045 11046 11047  11048 11049 11050  14205 19027 22004  11046 11047 11048  19483 19484 24159  8191 12063 17043  12686 15472 23653  5481 7425 20356  18832 24508 24590  8315 23766 23934  9700 16703 24945  11044 11045 11046  9173 16755 16796  9166 10707 16784  16958 17131 23962  15061 16699 19621  15068 16752 19621  4998 7642 17226  4991 7372 17226  16942 16943 16944  16610 16612 24890  16945 16948 16949  16531 17027 24714  4018 4074 17020  8333 12443 24787  12429 23572 23697  9662 9719 23425  7546 18678 23777  21276 24241 24413  15577 16585 17435  15577 16508 17435  7662 18690 23938  16943 16944 16945  7481 18980 24894  7975 18624 23222  11043 11044 11045  14060 24286 24378  1596 18976 24880  11013 13635 22223  7528 17921 23683  11038 11040 11041  11034 12730 16780  11029 13772 16791  2114 2604 18208  16742 23723 24670  9233 9733 20200  16106 23754 23920  10483 10494 17002  7468 16775 24369  14206 16716 17227  16631 17231 21762  14231 16601 17231  16632 23404 23679  7563 23941 24927  7452 16827 16923  14205 19027 23975  7694 16995 17005  18231 18232 23016  16974 18072 24117  11478 19608 23535  18393 24254 24505  16465 16466 16735  16539 21443 24253  16250 17102 24668  7371 16691 24448  19647 24649 24709  15960 24426 24491  16899 16982 23331  16531 22041 24798  7335 17796 24148  16749 16764 17372  12503 23136 23732  9662 9786 23425  12408 13649 16978  16937 16938 16939  7627 16696 24900  12791 24132 24293  15614 15615 17737  17145 17147 19632  17010 17011 24201  15614 16686 17737  12178 17108 25004  16531 24714 24798  7688 16832 22722  14969 19594 22018  19646 19647 24709  16912 16915 17046  17157 17161 22279  7509 17558 24053  16939 16940 16941  7371 16691 24529  9376 9378 17809  7598 17055 17222  11260 20590 23737  13614 17260 17261  12757 12760 22055  16807 24515 24722  7359 17776 24424  7488 19126 24038  19070 23630 23917  15602 19589 19594  12166 23805 24292  11041 11043 11044  19302 19304 19305  15856 16465 16466  11071 20339 23312  16897 16898 23487  11032 11034 12730  11036 11038 11040  11027 11029 13772  7683 20626 24463  18725 18726 18729  14247 15856 16834  10980 11027 16841  7182 7382 19618  16844 16846 18132  16218 23854 23976  17330 17332 17648  9168 9170 9637  9170 9173 16755  9164 9166 10707  7357 18692 24375  4438 7610 16969  16941 16942 16943  14041 16963 16964  9107 16792 24169  7619 16923 16924  3913 7447 17131  16956 16958 17131  7007 7611 16977  11004 11006 16793  8145 17138 18231  7433 17058 17059  15984 19935 23476  16929 16930 23912  9694 23670 23687  11002 11004 12631  2135 7521 17028  10708 23307 23722  19127 24038 24251  7438 17009 17010  8151 24596 24761  2324 7497 24267  19650 24542 24642  16477 19644 24766  14799 14801 17581  10983 12723 23503  7466 19623 23431  15685 16921 18854  18013 24298 24502  14164 19794 24481  11050 11051 23119  17146 17149 22658  13783 18411 24144  14186 16458 23428  16477 19644 24821  10520 10987 17006  7436 17089 22580  17853 23919 24092  17787 17788 17789  14164 19794 24531  12595 24484 24528  7408 16798 24475  17063 17102 24668  15707 25014 25067  12654 19591 23246  4389 7598 23009  7189 7633 19618  9488 17805 17809  16832 22722 23309  10494 17002 17140  6272 7641 19620  10470 16821 24486  7528 17921 23854  14102 15707 25067  19999 23489 23811  16787 16789 21791  16555 18035 24830  13808 23688 24468  5635 16762 24848  14681 17184 24748  15642 20589 20590  14197 23852 23911  16106 17113 23920  10525 12414 23704  4452 18073 23263  7662 18690 24151  16599 16833 23003  8142 16702 24619  5145 17259 22765  16323 16677 20355  16321 20353 20355  18355 18373 22379  8570 17003 18719  16453 16990 24993  15701 19787 19788  16476 16806 17329  10944 23646 23958  16933 16936 16937  7433 17059 17061  19723 24404 24521  8381 24161 24210  17009 17011 23974  7354 18977 18978  11540 16800 24108  9107 16792 24303  16597 24478 24540  13715 23297 24149  16938 16939 16940  16936 16937 16938  7578 23967 24522  15724 15726 21273  16641 23801 23932  12405 17663 23371  8215 24124 24764  1071 1078 17553  6258 7466 19622  18200 23750 23855  10916 22158 24907  16659 19617 19618  13779 19194 19195  17351 17352 22850  16940 16941 16942  16449 16887 23841  14606 16922 18853  15685 16921 18855  9742 9791 23227  17662 17663 23371  9700 16703 24881  7663 17179 18207  13493 19190 24936  14236 18070 24760  2611 23860 23983  7578 23967 24807  15664 16756 17151  8427 8429 19450  8367 8369 18951  16661 24727 24741  16549 23704 25038  7505 24090 24163  12269 23698 23930  10980 16841 23642  16692 24430 24553  2184 24084 24143  9613 19390 22674  5250 24441 24493  19384 22529 24596  14971 14973 18853  7386 24536 24561  14970 18855 21875  13783 18411 24271  14979 14982 19202  7175 7382 19620  14299 17082 24425  17069 17070 17071  13441 13443 19196  8865 8870 23253  8369 12603 18951  10945 16769 25047  7459 17161 22279  14247 16834 23685  13773 16666 24632  7516 20738 24772  15633 24089 24273  9742 10585 23227  7583 16962 17263  9162 23669 23786  16587 16894 24905  15361 16241 17153  16746 16747 25026  18241 18243 18244  7105 23625 23952  14215 17244 23097  7379 16766 24107  7420 22722 23309  15630 16701 16954  16687 21649 23801  1596 18976 24788  7645 17147 19632  18288 18289 24043  7497 17705 23164  12265 18731 18732  21940 24316 24394  16430 24170 24260  12201 18945 24551  7516 20738 24854  11006 16793 16875  17830 24191 24315  16950 16975 16976  16436 24245 24330  17065 17066 24593  10513 17006 17052  13028 24508 24590  12935 17272 24752  11006 12147 12148  16459 24335 24388  11004 11005 11006  17047 19201 19202  11051 17128 23119  17149 19623 23431  18932 18934 18947  7442 16851 24535  17662 23371 23572  13721 17160 23635  13775 17737 17745  17956 17974 24319  1134 7705 7707  9175 9177 9178  7645 23027 23393  15701 19787 22988  10707 16733 24242  11002 11003 11004  17223 17224 23010  12183 17443 24192  18603 23925 24291  14219 17072 23912  17061 17084 17085  7359 17784 24424  7379 16766 24162  13443 13779 19196  21876 24285 24376  16630 17186 23451  14595 16826 24300  17078 23686 24755  6265 7641 19622  7358 18572 18574  7649 17785 23213  16891 16894 24480  18829 24299 24525  17241 24110 24155  9175 9176 9177  9173 9174 9175  17919 24090 24163  9170 9172 9173  9168 9169 9170  9166 9167 9168  19589 19591 19594  9164 9165 9166  16471 16986 23628  12201 18945 24696  16812 24545 24576  7453 16745 25051  20195 24088 24178  7394 16961 22765  6370 6377 16988  12979 24501 24513  10658 11925 17328  10660 12983 17328  13009 19037 19039  11837 18856 23382  20910 23558 24809  15655 23668 23861  7502 17735 24231  16476 16718 17329  14041 14042 16963  9162 9163 9164  7373 23286 23531  12959 24545 24576  17054 23701 23837  13265 13726 18894  13267 13674 18894  12896 12897 18374  12900 13000 18374  3192 16956 17131  11050 11087 11088  17956 17974 24849  16949 16950 16975  7745 7747 19970  16436 17185 24330  17270 23914 24006  14595 16826 24363  16275 24352 24373  18289 24043 24120  16223 23197 23779  11041 11042 11043  7513 17820 24235  15640 23116 23802  14735 17125 23056  16695 17032 24712  16409 23744 23858  9135 19290 24384  23004 24461 24465  13740 20906 20907  15987 21183 22886  9078 16737 24751  8142 16702 24715  17953 17955 24405  8365 9054 23176  7606 17068 23193  17705 23164 23785  16839 24484 24528  19873 19884 19901  18389 24284 24338  7413 16930 24294  12410 15472 23462  7687 20961 24220  12662 24110 24155  17830 17924 24315  7021 7445 16928  10462 10463 17214  20022 20024 23043  7706 16994 16995  11051 11052 11053  17929 23289 23303  12178 17107 24003  16629 21755 24168  16505 24206 24344  11966 23289 23303  17067 17068 23986  13904 17186 23451  7489 18915 24136  17070 17071 17225  7331 24170 24260  17077 23637 24281  6958 7563 17269  6965 7617 17269  18322 23276 23277  12434 23276 23277  18163 18165 24115  19024 19027 22004  12142 23454 23590  19003 24186 24367  10916 22158 24876  17059 17060 24427  9511 17808 23063  11036 11037 11038  16496 23949 24190  11034 11035 11036  11032 11033 11034  3857 7444 16959  11029 11030 11032  13674 18896 24028  13810 18869 23791  7564 16720 24635  11027 11028 11029  16927 19565 24697  17740 17741 17742  18828 24360 24368  9603 14124 23024  15510 18589 23363  16598 17124 17166  13805 15987 17220  17022 17023 17025  10494 10495 10501  17608 23027 23393  7359 17784 24656  5460 20358 24938  11377 13736 23903  13676 24279 24336  7645 17147 23027  10980 10981 11027  14610 15812 18856  17099 23286 23531  7612 17093 17094  13712 16951 24353  11088 11089 11092  17088 17090 24886  16638 16671 16672  2163 7521 17093  14605 14608 18854  24002 25000 25042  14959 19693 24379  2548 16768 25053  17070 17073 17225  16260 18151 24452  15630 16954 23653  7687 20961 24295  20339 23312 23985  18206 19399 23159  2884 7575 17351  15987 17220 22886  10437 17012 23154  8864 8865 23253  7396 17069 17071  7392 16989 23487  6006 6013 17709  4984 7372 17372  4977 7631 17372  17081 17082 24863  9135 19290 24526  8867 14041 16965  7599 16719 24617  7689 20357 20358  12910 23601 23834  5145 5152 17259  15052 17222 23990  15856 15857 16465  15875 17003 18549  14251 17115 17116  7527 17952 17953  17090 24886 24963  7502 17735 24449  4963 4970 18132  15873 16770 18549  15821 23449 23450  17039 23439 23444  17042 23452 23457  15820 23436 23438  7373 19787 22988  16106 23754 24012  8084 23449 23450  15825 23461 23463  7370 24002 25042  11813 23439 23444  17038 23430 23433  11808 23452 23457  7683 20626 24791  8072 23436 23438  15070 16752 19623  14251 17115 20464  8088 23461 23463  17044 23465 23468  11815 23430 23433  16244 19357 24626  18360 18375 23339  17023 17025 24932  11541 23465 23468  7606 17087 23193  11013 11015 22223  10642 23416 23417  4438 4445 7610  15839 23470 23473  15810 23416 23417  11517 23409 23413  8096 23470 23473  17036 23409 23413  7000 7007 7611  17115 17117 20464  17049 23474 23479  7367 16732 24997  10641 23396 23400  16931 16932 16933  15808 23396 23400  15548 23482 23484  14247 15855 15856  19957 23474 23479  11516 23391 23394  17035 23391 23394  11563 24261 24332  19943 23482 23484  10640 23385 23386  15805 23385 23386  11482 11484 17585  15779 17117 20464  11514 23378 23381  15411 23490 23492  17034 23378 23381  18784 23490 23492  10637 23358 23774  7634 23676 23751  19181 19182 19183  15636 17001 23851  10638 23370 23372  7610 16969 16970  14299 17082 24863  11019 13712 24353  12538 16630 17585  15802 23370 23372  11515 23364 23367  6972 7617 17254  6979 7551 17254  19565 23398 24704  18763 23505 23509  17003 18549 18719  10992 11002 16746  7614 17156 17157  15420 23505 23509  17033 23364 23367  16169 19207 24259  7715 12696 17378  7717 10619 17378  7684 23744 23858  14230 16667 25001  17176 17179 18208  10987 17006 17252  13263 13726 24156  18447 23521 23526  17055 17222 23990  15425 23521 23526  1673 7667 19073  1680 7496 19073  7670 23701 23837  16747 16748 24125  19146 23318 23760  10470 16821 24783  21930 23742 23839  12437 23323 23757  12626 23448 23620  7506 23914 24006  16522 18100 25015  18355 22379 23220  7663 17179 18208  19884 19896 19897  7572 24014 24069  16799 17045 21015  16759 17045 21015  13810 18869 23893  12134 12139 23153  16946 17108 17109  5299 5306 21188  14242 17129 23985  6566 7593 16991  6804 7580 16993  7534 18254 23493  7680 18453 23940  8134 24434 24735  15812 23427 23773  16905 17026 24558  7477 23582 23689  15616 16686 23969  16734 23669 23786  10988 10990 14220  16021 16022 17441  9675 17441 21715  10992 10997 11002  13501 19191 19197  9667 17141 17143  23256 23501 24355  7443 17018 17511  12408 13648 13649  14164 19784 24422  13076 15239 19409  7667 19072 24984  15455 17141 17143  13074 14147 19409  12414 23702 23704  10463 10466 17214  8866 23251 24230  9096 19304 23014  19837 23953 24041  12935 17272 24523  19092 23305 23310  7442 16851 24047  8091 23305 23310  16622 24426 24491  11496 24363 24729  16260 24452 24580  16934 17100 17101  16651 16652 24951  15584 16587 17051  15584 16783 17051  17006 17052 17053  9511 17808 23506  15240 17125 23056  7614 17157 22279  10501 10502 10512  19056 23290 23299  19050 23282 23285  9603 14019 14124  11881 23290 23299  8085 23282 23285  2926 24034 24586  8031 20024 23043  16670 17228 17229  15654 17012 23154  13724 23071 24117  6377 16987 16988  12455 13568 17636  13493 19190 24326  9663 9766 23616  17610 23582 23689  7373 22988 23286  3269 7403 16956  19000 23271 23274  18995 23261 23264  11879 23271 23274  19113 23247 23249  8079 23261 23264  11428 11430 17791  17020 17021 17022  18628 23239 23241  17029 17031 17032  11876 23247 23249  16580 16582 23331  8439 8559 9162  8189 8191 12063  17064 17065 23878  8867 8869 14041  7596 16705 16706  16161 22538 22750  14186 16203 16458  15233 15598 17120  7489 18915 24357  10523 10527 14230  9135 19298 24526  8067 23239 23241  17327 23676 23751  8183 16856 23959  2226 7604 17018  17180 18205 18206  3948 3955 17747  7459 17161 17163  17348 17349 17350  4074 17020 17566  16458 23428 23699  11260 22860 23554  17006 17053 17252  15233 17120 17122  12226 16833 23004  12144 23662 24004  7575 17349 17351  18624 23230 23233  16643 24124 24764  10466 17002 17214  11040 11041 17079  11874 23230 23233  15630 15631 16701  10987 12143 12432  18612 23216 23218  8093 23216 23218  17905 23448 23620  14164 19784 24481  15791 23421 23775  16651 24951 25059  19873 19883 19884  16725 21621 24820  10662 10664 17648  8439 9162 23669  7661 16998 16999  17929 17930 23280  18978 18980 24555  16980 17223 23010  20654 23320 23321  12691 20654 23321  18322 18323 23281  17929 23280 23289  18322 23277 23281  7811 18244 24204  8570 17003 22859  7476 23840 23897  10520 10800 10987  11305 12408 16978  11868 23205 23209  18505 23201 23204  18512 23205 23209  8089 23201 23204  19674 19675 24118  14251 17116 17118  9088 9205 23223  16457 19657 24587  16931 16933 17062  6510 7430 16880  6692 7401 16895  8569 18548 21243  16725 21621 24850  9374 9511 23506  16933 16935 16936  19440 23587 23709  19201 23350 23577  17349 17352 23868  3031 3276 7607  18312 24141 24228  10480 24256 24270  16457 19657 24637  5670 7399 24312  17126 24046 24184  16580 23331 24609  15779 17117 20465  17737 17738 17745  20870 23898 23939  19884 19897 19898  19568 24244 24280  7434 16979 25070  14964 21742 21999  9135 19298 24657  15744 21742 21999  7680 18453 24022  13736 19696 23903  17157 17158 17159  11834 23191 23195  15744 21895 21999  5138 7394 22765  10466 10483 17002  10483 10491 10494  18220 23188 23190  17180 18205 18207  9979 10879 20466  8082 23188 23190  16918 16960 24872  18227 23191 23195  11540 16800 24983  15836 18231 23016  16485 21993 24334  2604 7495 18208  2114 7663 18208  17056 17057 23675  5229 24258 24264  9211 9498 10980  7607 23467 23960  18370 18372 24731  16833 23004 24461  23380 23500 23501  2191 2226 7604  7669 17691 24232  9650 18149 24641  1540 1547 18727  1540 7483 18727  17893 23168 23170  15620 24051 24094  7677 24252 24393  17741 17743 24672  8191 8220 17043  9663 9720 23616  15654 23154 23476  9177 9180 17092  10501 10512 10517  7534 18254 23738  12992 17780 17782  11835 23168 23170  18960 24185 24229  11037 11305 17013  7348 17007 22956  12654 19594 22018  19895 23501 23502  15231 15234 17123  14969 15602 19594  9178 16797 17250  7427 16986 23628  12756 12757 22055  19852 23541 23793  7517 16807 24722  16519 17164 24935  15969 23953 24011  17180 18206 23159  14801 16697 17581  12183 17443 24918  7600 17056 23675  14799 17579 17581  14124 17538 23024  14134 18150 24391  12760 13745 22055  11017 13017 14247  16248 23840 23897  23251 23252 25032  3605 3612 17684  16699 19619 19620  9177 9178 9179  18143 23605 23607  7653 23164 23785  8070 23169 23172  17885 23169 23172  17002 17214 23679  10590 12066 24358  13591 17786 17791  18936 18939 18948  7429 20359 20360  16930 23912 24625  18312 18313 24228  16539 21443 24958  7375 24352 24373  17871 23145 23171  9650 18149 24774  11539 22805 23514  15615 17737 17738  19244 23977 24050  16471 17066 24858  11515 19490 23362  11514 19480 23375  7517 16807 24923  11515 23362 23364  11516 19479 23388  11514 23375 23378  18000 18001 18002  11517 19433 23405  17700 17718 17719  13679 16883 24943  11516 23388 23391  2142 17351 22850  11517 23405 23409  11536 19406 23419  9071 22857 23523  13748 24188 24323  6237 7383 17148  12623 18323 23197  6237 6244 17148  10874 10973 23317  7357 18692 24836  15554 24420 24482  16399 20354 23740  15820 19717 23434  11095 24206 24344  7535 17239 22720  15820 23434 23436  23254 23255 23256  19104 23899 23961  7862 7864 23382  13007 13956 17118  15784 23323 23324  13601 18805 24630  7523 17938 23947  12696 20216 20217  15784 17047 23324  15551 16723 17613  17901 22968 23718  15821 19751 23446  15821 23446 23449  7384 23844 23906  17040 17041 24666  9333 19484 24159  19092 19095 23304  7350 24888 24914  12139 17168 23153  19092 23304 23305  10877 17635 23420  15825 19850 23458  16999 24888 24914  19050 19053 23278  15825 23458 23461  19050 23278 23282  17834 23835 23892  18995 19282 23259  10513 10520 17006  18995 23259 23261  19024 22004 23316  13657 19700 19701  7387 17821 24771  9136 23145 23171  11676 17242 20600  9488 17805 17811  17041 24666 24769  11045 11135 16966  15238 17121 17127  7564 16720 24744  14234 15654 23476  7669 17691 24324  19674 24118 24255  11676 20600 20601  2338 7426 16931  9129 17106 20692  15839 21753 23469  11476 24290 24911  15839 23469 23470  14161 18243 23269  12148 12221 12222  13805 14462 17220  15041 19781 24979  10592 17247 17560  7602 17063 17102  7515 24241 24413  18618 18619 23222  15619 15969 24011  18627 18628 23236  18612 18615 23215  18355 18356 23220  12655 23224 24149  12603 18949 18951  14462 17091 17220  18628 23236 23239  18612 23215 23216  15621 23599 23784  9141 18589 23363  15724 20220 21273  15726 16256 21273  7374 24010 24081  18387 23994 24171  1071 7626 17553  1078 7377 17553  12882 12884 18371  16089 23533 23764  15041 19781 25021  12884 14110 18371  13033 18047 18048  15140 23528 23695  13668 14059 15630  14134 18150 24518  2996 7535 22720  14416 19390 22674  17123 17247 17560  14246 22934 23510  18505 18508 23200  7334 17726 23765  11242 16803 24197  18505 23200 23201  8427 9160 19450  8429 11823 19450  20601 22923 23219  16877 16878 24392  17953 24405 25075  18784 23492 23495  12434 17930 23276  7441 16756 24633  18784 18785 23495  14971 15685 18853  20012 23891 23933  14973 16922 18853  12434 17930 23280  11837 18855 21875  14970 15685 18855  14979 14980 19202  14982 17047 19202  13494 19184 19185  7420 20225 23309  16203 23762 24512  12623 18323 23281  13657 19699 19700  12066 17004 24358  17874 23140 23143  8065 23140 23143  17576 22860 23554  11088 11092 17613  18763 23509 23512  12473 17628 17675  15908 17669 17670  15598 17120 17121  12312 12473 17675  18220 18223 23187  10404 24139 24165  18763 18764 23512  18220 23187 23188  17632 17639 17693  12306 12474 17731  7625 16802 24223  4347 7413 16929  23440 24401 24686  4312 7396 17164  7358 18574 23459  16664 24441 24493  15900 17811 19554  9561 18016 24707  8220 17043 23669  15578 16585 24278  9711 23038 23548  5152 7511 17259  12626 17910 23136  13773 23498 25001  15908 17668 17669  16761 22743 23770  16437 23445 24651  19738 23844 23906  15236 15627 17127  11050 11088 23119  7523 17938 24071  11053 11054 11055  19175 19176 19195  14977 19197 21918  16942 16944 16946  15892 17683 19523  4424 4431 7446  18447 23526 23530  20465 22963 22979  4403 4410 7440  4389 4396 7598  4375 4382 7434  4361 4368 7599  7014 7021 7445  4347 4354 7413  7035 7042 7439  15233 17122 17123  7049 7056 7600  7063 7070 7433  7077 7084 7601  2058 7612 23602  7091 7098 7412  18447 18448 23530  17157 17159 17161  14242 16693 23985  9178 9179 17250  11092 11180 11182  7070 7433 17084  2338 2373 7426  3500 7438 17087  2338 2429 16931  2289 2387 7602  10985 23254 23503  2443 2506 7603  2275 2303 7437  2492 2527 7402  2093 2177 7443  10376 16829 24624  3647 3717 7427  3269 3430 7403  3339 3353 7605  15778 22981 23504  3787 3934 7606  3206 3500 7438  20024 23058 23066  12475 17139 17670  3857 4081 7444  7380 24455 24642  3717 7427 16986  18001 18004 24742  15708 23945 24085  15552 19607 23535  8144 23991 24098  15076 16260 24580  18370 24731 24998  7035 7439 17083  21487 23735 23797  4326 4333 7608  19608 19609 23537  19609 23537 23538  14462 17091 17635  7112 7119 7609  10912 11454 22918  9041 18945 24417  15553 15579 23542  9235 20200 23212  15579 23542 23543  16781 17442 17443  4403 7440 17055  7426 16931 16932  7084 7601 17086  17352 23644 23868  7042 7439 17056  4312 4319 7396  16426 24010 24081  7056 7600 17058  23128 23129 23130  7601 17084 17085  12268 12483 17812  7126 7133 7397  7745 9126 19970  7747 13288 19970  14238 21317 25074  8807 24157 24158  7625 16802 24282  2303 7437 17063  17885 17888 23174  19869 19881 19905  17910 23136 23732  17068 23193 23194  13828 15768 22967  12147 12148 12221  17885 23172 23174  22174 23937 24080  2429 16931 17062  16806 17328 17329  11005 11006 12147  3934 7606 17067  10877 17112 17635  6440 7591 23557  6433 7407 23557  11003 11004 11005  12698 20911 24364  15238 17120 17121  3353 7605 17064  13033 18045 18047  15448 17139 17670  13648 13649 15196  18361 18374 18375  3787 7606 17087  13748 21562 24323  11049 11051 11052  7077 7601 17084  11045 11047 16966  21158 23079 23559  19598 24285 24376  12482 17502 17570  13007 14251 17118  12274 12482 17570  17057 23675 24097  18380 23942 24056  2373 2387 17100  17506 17556 17674  11836 23058 23066  16642 24434 24735  13849 21987 23037  16977 24495 24684  11048 11050 11087  9110 24316 24394  11043 11045 11135  14040 23096 23560  8391 19263 24572  11044 11046 16863  11022 17134 21332  14608 16921 18854  7334 17726 23870  12631 16746 25026  23890 23963 24410  7594 16881 16882  16409 20225 23600  8223 16860 23998  17074 17075 17076  11242 16803 24339  7091 7412 17086  14757 20743 22833  7598 17222 17223  9205 17249 23223  4326 7608 17069  7405 16801 24314  19898 23687 24113  9108 19383 24042  16244 19357 24735  4340 4347 16929  8178 8189 23494  12602 18760 21604  15231 15233 17123  7459 17163 22898  18759 18760 21604  21161 21334 23105  7119 7609 17074  18759 20440 21604  10515 10523 23498  6517 6524 16876  6699 6706 16890  6447 6454 16899  6391 6398 16888  6643 6650 16907  6377 6384 16987  6475 6482 16902  6587 6594 16908  6461 6468 16905  6419 6426 16887  6657 6664 16900  6356 6363 16897  6405 6412 16906  6629 6636 16917  6790 6797 16992  6762 6769 17151  6552 6559 16916  6615 6622 17019  6601 6608 16918  11709 20494 23107  16265 18584 24492  7537 18288 23956  12414 23485 23702  11038 11041 11042  5495 20354 23740  17009 17010 17011  9584 22663 23353  11868 18615 23209  19477 22651 23342  19881 19902 19903  12626 17910 23448  16040 23298 23640  11834 18508 23195  19193 19491 24903  12992 17780 17963  13534 14482 17207  11046 16863 17097  6013 7478 17709  6006 7637 17709  11469 18549 18719  9176 9177 17092  17741 24672 25052  9174 9175 9176  16651 16660 25059  12836 23041 23046  9172 9173 9174  11879 19053 23274  8067 19113 23241  9169 9170 9172  9167 9168 9169  8185 19966 23725  15806 23041 23046  9165 9166 9167  14610 16921 18856  11881 19095 23299  19529 22524 23322  11876 19282 23249  14605 14606 18854  11016 23706 24211  4970 7631 18132  4963 7473 18132  14757 15449 17212  9162 9164 23786  15794 19490 23358  17870 17871 23144  9163 9164 9165  3570 3717 16986  10997 11002 11003  11876 19282 23259  8093 18618 23218  5096 17246 24002  15794 19490 23362  8067 19113 23247  6783 6790 23832  16522 18100 25006  8079 19000 23264  17076 17077 24281  11879 19053 23278  9129 17106 20693  10638 17033 23367  14113 22047 25081  20413 23327 23650  11868 18615 23215  8093 18618 23222  19881 19903 19905  8085 19056 23285  10638 17033 23370  8079 19000 23271  15802 19480 23372  11881 19095 23304  16457 19794 24531  11484 12538 17585  11482 15911 17585  12439 17047 23324  17871 23144 23145  11874 18627 23233  8085 19056 23290  15802 19480 23375  7975 18624 23230  8091 19098 23310  7420 20225 23600  12270 12272 23199  10640 17034 23381  11454 17211 22918  8089 18512 23204  11874 18627 23236  8091 19098 23313  10971 23116 23802  10640 17034 23385  15805 19479 23386  9041 18945 24551  16826 24363 24729  9786 23426 24343  7413 16929 16930  7415 16907 24737  11676 17242 20693  11417 11420 22902  15805 19479 23388  8089 18512 23205  11835 18223 23168  7479 16758 24690  16888 16889 24620  10641 17035 23394  11834 18508 23200  11420 11422 17778  12432 12697 13692  10641 17035 23396  15808 19433 23400  10512 10513 17052  12471 23104 23114  14259 16602 17187  15466 19672 23275  15808 19433 23405  16655 22529 24596  17635 17636 23420  12484 17152 17817  10642 17036 23413  16943 16945 16947  18139 23104 23114  15234 17123 17247  16516 21911 24873  13678 17224 24288  18906 18907 23964  10642 17036 23416  15810 19406 23417  6573 6580 17454  9150 20749 22867  14757 17212 22833  8082 18227 23190  17119 22863 23412  7693 7708 7709  8693 22963 22979  7594 16882 22779  15810 19406 23419  18758 21605 22418  9150 22867 22886  15173 15174 23242  17630 17632 23234  8437 23880 24008  14230 23861 24539  7371 18488 24529  17031 17032 22223  17623 17625 23228  14019 14124 16437  16789 21791 22109  9150 21183 22886  12477 23131 23141  8082 18227 23191  9786 23425 23426  12992 17782 17791  15841 23131 23141  15905 17529 17816  16288 23766 23934  15578 24278 24412  15905 17529 18767  17528 17529 18767  12177 24335 24388  11706 12455 17636  11504 17528 18767  9116 23272 23279  13846 23152 23162  16118 23354 23357  17188 23361 23368  7385 24185 24229  17874 17875 23137  17432 23022 23411  8066 17038 23427  20804 23272 23279  9065 23354 23357  20134 23152 23162  7679 17244 22322  11903 23287 23301  16956 16957 16958  8066 17038 23430  19902 23670 23687  15147 15149 23198  11529 23361 23368  15236 15238 17127  5299 7414 21188  11835 18223 23187  5306 7685 21188  20535 23287 23301  11815 19717 23433  23340 23341 24322  17190 23348 23349  16718 17329 17330  7613 17232 17233  9766 17001 23645  11856 23348 23349  15908 17668 23203  11815 19717 23434  9229 9231 17135  9231 9733 17135  7535 22193 22711  17874 23137 23143  9144 23314 23319  9462 9493 17532  7479 16758 24762  9493 17524 17532  12417 17773 17779  13718 13720 23636  7477 17608 23393  7658 19420 23727  20529 23314 23319  15769 17941 17942  15125 15126 23179  18840 24132 24293  16121 23384 23390  11906 23325 23329  8072 17039 23438  14267 15800 22912  16723 17128 23119  11430 13591 17791  11428 12992 17791  16120 23352 23356  9068 23384 23390  9064 23352 23356  20524 23325 23329  8072 17039 23439  10584 17217 17678  14446 16525 17210  7408 16798 24499  17497 17499 23166  9195 23333 23334  9468 9478 17531  9478 17517 17531  13501 19191 24936  14185 16983 24664  15341 23350 23577  11813 19751 23444  15762 20749 22857  17205 23333 23334  18367 18368 24986  8869 14041 14042  12985 17743 24672  16457 19794 24587  5208 24025 24079  13033 18045 22741  23646 23958 24530  8559 9162 9163  8070 17893 23169  21911 24873 24929  11813 19751 23446  15154 15769 17942  8165 8167 20496  6342 6349 18035  15762 20749 22867  9073 23359 23369  16867 22538 22750  8978 8980 23006  11087 11088 11089  12723 23502 23503  17215 23359 23369  11910 23374 23383  16717 24757 24891  13568 17091 17636  17156 17157 17158  11460 18026 23147  8084 17042 23450  3948 7676 17747  3955 7333 17747  17010 17087 23193  17221 23374 23383  11052 11053 11054  8070 17893 23170  14852 23206 23565  8084 17042 23452  11414 11416 22936  11021 12615 21333  9069 23389 23395  9136 17888 23171  17218 23397 23410  16432 16453 24620  11823 19441 19442  16124 23389 23395  7028 7035 17083  15072 15074 23126  17900 23489 23811  7348 17007 23721  11808 19850 23457  14448 17208 17209  11808 19850 23458  11854 23397 23410  8092 23013 23030  11702 23221 23566  16161 16537 22538  10662 12983 17648  10664 12680 17648  20443 23013 23030  11908 12715 23520  14041 16964 16965  11420 17778 22902  20011 20012 20013  7371 18488 24599  7431 16910 17454  9319 9320 19389  13865 14005 23055  15744 21895 22967  14482 17207 17216  17318 17319 17320  9719 23128 23425  8088 17044 23463  6489 6496 22779  8777 23401 23435  7430 16877 16878  16876 16877 16879  7401 16891 16892  16900 16901 17111  13956 17118 17119  11089 11092 11180  7537 18288 24043  8088 17044 23465  13393 13395 17321  13393 13731 17321  16421 17026 24558  16970 16972 17048  7396 17164 24313  15449 17212 17213  9179 9182 17250  16910 16914 17454  12139 23156 23157  20465 22979 23366  16700 24290 24911  17175 23156 23157  19869 19871 19881  15529 17245 17246  11541 21753 23468  7811 18244 24950  9136 17888 23174  16467 23625 23952  16600 17080 17200  11541 21753 23469  16427 16754 24266  18039 18044 22470  10877 17112 22894  22247 23336 23337  9578 17132 20494  3500 3787 17087  14579 14580 17193  14580 17192 17193  11891 23262 23573  9464 9466 23067  16409 23600 23744  7070 7077 17084  19883 19884 19896  7477 17608 23582  9053 9211 23642  10879 17117 20466  9756 9979 20466  8976 17183 17326  23265 23266 23267  17023 17355 24932  15226 20606 23053  9470 9472 23064  19023 19024 23316  16552 17137 24665  11460 17430 22578  16936 16951 17103  15226 23053 23056  8096 17049 23473  15764 17183 17326  11836 17875 23066  8096 17049 23474  9477 19234 23059  7444 16959 16983  14139 16250 23574  12417 17773 17778  14735 15226 23056  9022 17944 23087  16987 16988 16990  17066 24593 24858  19033 19034 19035  10495 10501 10502  13024 18044 22470  17158 17159 17160  23445 24651 24928  11035 11036 11037  11033 11034 11035  15370 17152 17817  11030 11032 11033  16882 16885 22779  11028 11029 11030  15548 19957 23479  7084 7091 17086  7642 17226 17227  10800 10987 12143  18367 24986 25083  8087 20439 21605  15548 19957 23482  20022 20025 23043  12143 12432 12697  18905 21040 23876  9031 17288 17290  10981 11027 11028  14183 15643 23673  7660 21789 24269  19674 19676 24255  12744 17284 17286  16435 18268 24173  21084 23160 23165  5285 21414 24688  18726 18727 18728  11867 23443 23455  11002 12631 16746  9091 21084 23165  18058 23443 23455  18907 23964 24055  11422 12417 17778  8485 8487 19705  9028 17280 17282  12505 17294 17296  17179 17180 18207  8065 17870 23140  12148 12222 13611  8976 8978 17326  15411 19943 23484  14213 14681 17184  14212 14213 17184  3612 7675 17684  3605 7337 17684  15411 19943 23490  17183 18142 22262  9031 17290 17303  14066 23298 23306  20673 20674 22882  9299 9301 18704  14437 15774 18023  12665 14066 23306  9042 17298 17300  8892 9060 23515  11416 17770 22936  15767 18961 22735  12680 17332 23724  11823 19442 19450  8065 17870 23144  7405 16801 24515  15764 17183 22262  15774 18022 18023  8992 8994 22827  13895 21333 22914  19179 19198 19199  10502 10512 10513  12429 17659 23697  9023 18086 22315  9023 17182 18142  11053 11055 11056  18043 18045 22741  11092 11182 11261  18139 23114 23124  17021 17022 17023  16656 17483 25062  14165 16771 23666  17182 18142 22262  4018 7447 17020  9529 9531 18595  19474 22586 22595  11832 22978 23008  12462 22586 22595  18139 18140 23124  20438 22978 23008  11492 18961 18962  14447 14463 17216  15420 18785 23495  17146 17148 17149  9613 19369 22674  9024 23460 23472  10512 10517 10518  9023 17182 22315  7633 19617 19618  13623 17763 17765  15899 17639 17693  9585 17509 22970  15420 18785 23505  8895 9046 20693  15868 17556 17674  14416 19390 22967  16475 16717 24891  23130 23425 23426  6384 7586 16987  6391 7586 16888  6412 7590 16906  6447 7591 16899  6468 7589 16905  6363 7392 16897  6650 7588 16907  6419 7590 16887  6706 7585 16890  6475 7589 16902  6657 7588 16900  6524 7584 16876  6622 7592 17019  6629 7592 16917  6559 7593 16916  6762 7421 17151  6608 7423 16918  6797 7580 16992  6587 7431 16908  12835 17304 17306  19533 22484 22503  19469 19478 22604  14448 17207 17208  9613 19389 19390  16901 20633 24499  17774 17777 17779  12367 22484 22503  19469 22604 22609  19543 22400 22420  11455 17181 18086  18056 23460 23472  19474 19475 22581  10626 18021 22997  11001 11017 23685  19474 22581 22586  10491 10494 10495  12464 22400 22420  10358 10360 17445  17198 20495 23106  12463 19475 22524  10874 12727 23317  17181 18086 22315  15770 19369 22663  18520 22194 22264  19533 19534 22474  17248 22592 23040  19533 22474 22484  13534 17207 17208  16620 16621 24877  12464 19534 22420  15770 19369 22674  8185 19966 23894  12462 19478 22595  15514 23336 23337  13708 24284 24338  12465 19542 22264  8092 20025 23030  12462 19478 22604  17217 17430 22578  12465 22194 22264  19304 19305 19306  19542 19543 22377  12836 20543 23038  16877 24392 24687  11455 17181 22354  11492 18961 22735  12463 19475 22581  9498 10980 10981  18005 18256 24265  15857 16465 16997  19543 22377 22400  13846 20641 23146  12464 19534 22474  22054 22758 24062  12623 23197 23779  14257 15771 19388  16453 24620 24993  12836 20543 23041  12473 17628 17630  15771 19387 19388  13846 23146 23152  12472 17621 17623  17619 17621 21934  12465 19542 22377  12312 12314 17675  12466 18519 21935  9505 9688 23569  12532 17133 17619  15855 15856 15857  12472 17621 21934  15174 15901 17800  12532 17619 21934  15149 15899 17638  12482 17502 17504  17493 17495 21947  12479 17495 17497  18519 18520 22126  13416 19672 21935  12536 17130 21908  15901 17800 17801  12532 17133 17730  15126 15893 17588  12528 17142 17493  12466 13416 21935  16552 24665 24784  15899 17638 17639  7356 21783 24574  12274 12276 17570  18520 22126 22194  12479 17495 21947  12466 18519 22126  12475 17139 17671  12528 17493 21947  20134 23162 23167  19821 19825 22009  15893 17588 17589  12528 17142 17582  7535 17239 22711  9578 17132 20495  15699 23735 23797  15889 18485 22432  20134 20135 23167  15753 17213 17333  11836 17875 23137  8570 19233 22859  15425 18764 23512  16091 24359 24393  11475 17440 22841  7345 23750 23855  15074 15868 17555  17029 17030 17031  3773 7613 17232  11022 17134 21333  6027 17799 24409  15868 17555 17556  16881 16883 23442  10503 17458 18494  15041 21911 24929  18370 18371 18372  11822 18495 22382  12484 17152 17818  14466 17198 20495  17331 17332 24489  10683 16869 24105  17668 17683 23203  15425 18764 23521  16116 18862 22003  15806 20606 23046  14124 16437 24329  10364 10366 18963  15806 20606 23053  10357 10359 18797  7432 23355 25019  12306 12308 17731  12474 17639 17731  18759 20440 21605  11479 17251 17564  17632 17639 17731  7441 16861 24633  15900 15901 17811  12518 17340 21743  9462 9464 17532  9499 17683 19523  8978 17326 23006  9731 9990 23588  9488 17811 19554  9493 17524 17526  14439 18023 18024  15344 21161 23105  11479 17564 19570  9468 9470 17531  16418 23852 23911  17106 17242 20693  7619 16924 16925  14439 18024 18025  12332 23235 23244  9478 17517 17519  17645 17646 24225  14259 17187 17375  17339 17340 21743  7511 17199 17259  14257 15768 19388  17132 20494 23107  15905 17816 17817  9147 19920 24552  9048 17311 17314  8887 12144 23662  19176 19180 19195  19175 19177 19195  18977 18978 18979  15814 18534 18535  14952 17339 21743  13501 19197 21918  17118 17119 23412  15535 17615 17686  4179 16852 25003  19884 19898 19901  18054 23478 23486  20465 20466 23366  14977 16170 19197  14431 15783 17914  14952 17339 18967  15084 15814 18535  16620 24877 24933  11872 23478 23486  15154 15156 17942  14437 14439 18023  7533 18004 24742  10479 23919 24092  16878 23442 24392  17143 17144 23232  12995 13668 23653  15892 15893 17683  18043 22741 23029  15262 20674 22882  15214 16165 23175  18039 18041 18044  18735 23698 23930  15774 18021 18022  17144 23232 23240  17542 23347 23622  18687 18691 24896  7697 22778 24224  11047 16966 23595  10634 12145 23665  9585 13085 17509  14580 17192 17513  15783 17913 17914  15448 15908 17670  12989 24360 24368  9159 9748 23671  13085 17509 22115  15809 18859 18860  15240 17125 23060  16936 16938 17103  12268 12270 17812  14547 15809 18860  12483 17556 17812  15618 23826 23901  19253 24161 24210  15552 18448 23530  16639 17124 17166  13441 19196 23238  8031 20024 23058  12221 12222 13702  15552 18448 23535  4417 17081 24077  15041 24929 24979  17773 17774 17779  12446 19399 23159  15753 17212 17213  8092 20025 23043  14282 18159 21986  18731 18732 18733  12446 18957 23158  19882 23226 24240  16945 16947 23045  12446 23158 23159  14447 17207 17216  12429 17659 23776  12977 12978 17485  10369 10371 22942  11478 19608 23537  11455 17943 22354  15588 23821 23822  16232 23821 23822  987 1953 19041  20438 20439 22950  8384 8386 22962  9492 16810 24349  19698 19700 19704  13017 14247 15855  11479 17251 18985  12134 12136 23153  13686 23150 24286  9921 9923 19976  9180 9181 17266  15553 21131 23541  12136 21742 23155  15553 21131 23542  14255 16423 24640  20535 23301 23308  12136 23153 23155  21030 23217 23481  10986 12934 23621  9911 9913 19948  17247 17248 23040  20534 20535 23308  9545 9547 22915  16932 16933 16935  8996 8998 17895  7540 18181 25085  6468 6475 7589  6384 6391 7586  6440 6447 7591  6650 6657 7588  6363 6370 7392  6426 6433 7407  6412 6419 7590  6706 6713 7585  6335 6342 7419  6349 6356 7587  6279 6300 7581  6664 6671 7408  6496 6503 7594  6608 6615 7423  6398 6405 7400  6314 6321 7442  6524 6531 7584  6692 6699 7401  6482 6489 7422  6727 6734 7393  6559 6566 7593  6622 6629 7592  6741 6748 7596  6510 6517 7430  6454 6461 7416  6545 6552 7432  6755 6762 7421  6566 6573 16991  6797 6804 7580  6804 6811 16993  6580 6587 7431  6636 6643 7415  6594 6601 7597  6776 6783 7441  6678 6685 7595  13004 17759 17761  10699 17912 22946  15782 17842 17944  15780 17379 18703  9481 17379 18703  14059 15630 15631  12110 12112 18048  19981 22921 22924  9000 9002 17922  11454 22921 22924  8821 20059 22837  18755 22929 22931  11054 11055 16181  12110 13033 18048  7550 18071 18072  9481 17379 17381  12600 22929 22931  14376 14378 22948  9481 17381 17431  16996 24089 24273  2996 3591 22720  9494 19391 22972  11453 22935 22939  11832 20443 23008  18760 22935 22939  17213 23211 23315  12294 23180 23182  14240 14241 17253  12161 13724 23916  14241 16806 17253  10403 10405 22017  9028 17282 17896  17506 17556 17812  15769 17941 17943  10591 22592 23110  12744 17284 17896  8890 11676 20601  8888 8890 20601  16089 21745 23533  7585 16890 16894  7589 16902 16903  7592 16917 17153  7431 16908 16909  12744 17286 17878  13252 13254 22889  15768 19390 22967  14322 14324 19578  8986 8988 17878  7634 17099 23531  24234 24389 24435  6580 7431 17454  17390 17393 22807  11504 17528 18768  9031 17288 17878  2135 2163 7521  7690 22407 24922  14328 14330 21849  10462 17214 23404  15790 19829 22747  9493 17526 18768  16118 18564 23351  20600 20601 23219  16752 19621 19622  9021 22782 22789  9104 18714 23007  11623 22795 22797  14951 15780 22947  14070 16484 23575  16118 23351 23354  17194 22795 22797  14431 14433 17914  9020 22799 22804  17195 22799 22804  11889 22806 22809  11660 12681 23688  17197 22806 22809  17216 17217 17678  10373 10504 19815  9019 22812 22813  20438 22950 22978  15813 22812 22813  7705 7707 16774  10504 19813 19815  11681 22816 22818  17201 22816 22818  9181 9186 17266  9018 22819 22822  17202 22819 22822  15782 17842 17945  11892 22828 22829  16434 23860 23983  9563 17468 17482  17203 22828 22829  9017 22831 22832  17206 22831 22832  15811 22782 22789  9543 9563 17482  9575 17479 18594  22758 24062 24129  9004 9006 18007  14338 14340 21863  11921 12967 23733  11477 20064 23002  17479 17481 18594  7511 17199 17615  14446 14448 17210  7612 17095 23602  15550 22805 23514  11460 17430 23147  8087 21605 22418  8992 17303 22827  12505 17296 17895  9575 17477 17479  15794 23358 23774  17741 17742 17743  17859 24256 24270  16686 17736 23969  8982 8984 17896  19676 24255 24382  16944 16948 24494  15783 17912 17913  17205 23334 23346  15784 23323 23757  11535 17338 19577  9117 17337 19577  10833 10835 22692  18043 18044 23029  11535 17338 22077  17337 17338 19577  8546 19707 21848  16121 18537 23373  14348 14350 21878  10600 19944 22775  17204 17205 23346  16043 23318 23760  13720 14018 23636  9610 9856 23789  15785 19707 21848  16602 17187 23611  8547 19400 21862  16121 23373 23384  11533 17273 19400  18494 18495 22382  12750 17473 17475  11619 22923 23219  3591 3710 23074  16425 24279 24336  17273 19400 21862  8548 19359 21877  16397 20357 20358  14579 17193 18019  10584 17217 22578  11532 17308 19359  13849 19825 23037  16120 18589 23360  1134 1148 7705  15762 22857 23523  7600 17060 23675  17308 19359 21877  9042 17298 17895  11832 20443 23013  17159 17161 17162  11395 17397 17399  9942 18716 21854  9965 17264 19829  12516 17393 17395  23291 23292 23555  9042 17300 17922  11531 17323 19333  9931 9933 19455  16435 24173 24306  9021 17191 22652  16120 23356 23360  11527 19219 22551  9051 18946 24814  11530 17325 19328  12513 17404 17406  17439 17440 22841  11508 19129 22632  7468 17228 17229  17323 19333 21847  12432 13692 13693  13085 18019 22115  14358 14360 21846  7382 19619 19620  9147 19920 24692  8549 19333 21847  8558 17324 19310  12834 14056 17375  15792 19906 19975  9563 17468 17470  7612 17094 17095  10496 19819 19820  8066 23427 23773  11505 19075 22690  9543 9545 17482  9963 17265 19906  9963 19906 19975  16671 16672 17341  18427 22642 22681  15785 19707 22590  14005 17512 23055  9115 19549 21927  19867 19869 19905  14352 14354 19334  20495 20496 23106  10371 10373 19815  9585 18595 22970  19442 19444 19450  15811 18516 22792  14453 17257 17455  8402 11531 19335  5187 23748 23850  10504 19813 19816  16973 16974 24117  15811 22789 22792  12477 18140 23131  10821 10823 17429  9115 21914 21927  13256 14453 17455  4452 4459 18073  15795 19548 19549  11473 18747 23032  11451 17842 17945  10358 10482 17445  14362 14364 19329  15795 19549 21927  17952 17953 17954  11396 17408 17410  19182 19183 19184  17779 17780 17963  8165 14752 20496  14342 14344 19360  11397 17386 17388  9177 9179 9180  10482 17230 17445  15370 15905 17817  7098 7412 23625  8087 20439 22950  13623 17763 17819  14382 14384 19520  12069 20537 24213  8586 17309 19219  12477 18140 23124  13895 14466 22914  15813 22813 22814  14366 14368 19336  15813 20575 22814  8340 8342 17277  15510 15512 23363  7416 16982 25035  8586 17309 21941  14332 14334 19401  11397 17386 21827  17383 17386 21827  13254 13256 17455  16677 20355 20356  10487 17484 18796  9282 9283 18040  15800 17484 18796  14453 17257 17458  20064 20065 23031  10912 11022 22918  14392 14394 19486  11451 22643 22652  15774 18021 22997  11894 20743 22833  11534 17268 19944  12809 23101 23161  8585 17279 19129  9560 17462 17464  8412 11532 19361  8388 8558 19337  8167 9578 20496  12519 17383 21827  8585 17279 21958  11021 11022 21333  12615 13895 21333  9194 23077 23078  12519 17382 17383  11410 11412 17819  20110 23077 23078  12835 17306 18007  11886 23080 23081  1995 7583 17263  17154 17596 24678  20115 23080 23081  17309 19219 22551  9142 23082 23085  12835 17304 17922  18755 22929 22933  20122 23082 23085  14402 14404 19373  18754 18755 22933  11887 23088 23089  9965 19829 22747  9477 17514 23059  20125 23088 23089  8438 8441 18436  8584 17278 19075  14306 14308 19776  9132 23091 23093  3220 4095 7520  12753 17413 17415  20150 23091 23093  18656 18795 22012  9470 17531 23064  9320 9613 19389  9319 19388 19389  9464 17532 23067  11888 23094 23095  7684 23858 23944  14590 14591 22965  14425 15815 17749  8584 17278 21984  20154 23094 23095  10485 18654 18656  12837 17460 17461  9127 23100 23103  11092 11261 17613  16124 23395 23408  10485 18656 22012  20249 23100 23103  15804 19345 19775  18653 18654 22022  18203 24084 24143  11395 17399 17428  11424 11426 17963  15771 19387 19391  11502 17275 17276  8422 11533 19402  10485 18654 22022  16124 20548 23408  12516 17393 22807  11848 18795 22012  15841 20641 23141  9967 17448 22853  8374 8376 19521  17279 19129 22632  11451 17945 22643  17318 17320 24044  15074 17555 23126  11852 18653 18657  8990 8992 17303  15800 18797 22912  15807 17564 19570  15841 20641 23146  11852 18653 22022  17191 22643 22652  11477 22944 23002  16705 16706 16707  15617 17538 23024  9966 17274 19724  19182 19184 25016  11304 23945 24085  18758 18759 21605  16864 23467 23960  14463 17216 17217  17320 17321 17322  18657 18658 22016  11852 18657 22016  16685 24261 24332  17349 17351 17352  14416 21895 22967  12479 17497 23166  11623 18516 22792  11623 18516 22795  15807 17564 17568  9020 17194 22797  17059 17061 23423  19698 19699 19700  9020 17194 22799  8821 22776 22837  15807 15835 17568  16176 22934 23510  11889 17195 22804  14653 17436 20040  17361 17364 17369  17278 19075 22690  11889 17195 22806  9008 9010 22352  9021 17191 22782  14653 17436 17437  15126 17588 23179  13859 19743 21872  9019 17197 22809  7658 21796 23970  10845 10847 17685  9019 17197 22812  8364 8366 19487  17526 17528 18768  9051 18946 24952  16998 16999 17000  11498 17310 19658  17268 19944 22775  17777 17779 17780  15779 20465 22963  20065 23031 23048  11681 20575 22814  11399 17417 17420  11681 20575 22816  14380 15797 19522  7583 16828 24822  10708 23307 24439  12518 17340 21872  11492 18962 18963  9018 17201 22818  9018 17201 22819  13828 15744 22967  14270 18715 19456  11892 17202 22822  11892 17202 22828  7545 18442 23972  9017 17203 22829  9017 17203 22831  17310 17448 19658  15815 17748 17749  16935 16936 16951  9967 17448 19658  11894 17206 22832  11894 17206 22833  8990 9031 17303  15149 17638 23198  16501 16960 24872  10841 10843 17724  15769 17943 22354  9925 9927 19830  10837 10839 17915  13576 14169 23730  9048 17311 18007  14750 24244 24280  12270 17812 23199  7703 17360 17369  9282 18038 18040  8485 9161 19705  8487 12509 19705  10482 17230 18159  18382 23601 23834  9545 17482 22915  8354 8356 19374  14547 15005 18860  6342 7419 18035  10821 11397 17429  8157 23937 24080  10371 19815 22942  12936 17755 17757  10944 23673 23958  7658 19420 23970  11397 17388 17429  13811 18096 24054  15984 21212 23648  9915 9917 19907  9048 17314 22352  9301 9316 18704  9299 18703 18704  9088 9129 23223  12472 17623 23228  14653 17437 17439  12473 17630 23234  12697 13692 13740  13254 17455 22889  10827 10829 18539  20135 20787 23167  11494 17255 18714  13004 17761 17819  16165 22776 22837  13867 17336 17573  9492 16810 24473  11494 18604 22111  17380 22232 22335  14466 17198 22914  13807 18451 18452  9205 21112 23229  20135 20787 23173  19179 19181 19198  9111 19198 19199  4774 7703 17360  8821 20059 22944  15783 17912 22946  13004 17759 17797  9311 9313 19391  11494 17255 22111  15174 17800 23242  10830 11865 18740  14589 17336 17573  11416 11417 22902  9964 17267 19946  14294 14296 19947  11055 16181 22699  11022 21332 22918  14425 14427 17749  12936 17755 17790  9529 9585 18595  17277 22945 23000  9531 18594 18595  11865 18739 18740  9062 17256 18604  18049 23022 23411  17256 18604 22111  14300 14302 19945  14026 18873 23973  11454 17211 22921  9575 17477 18145  8132 19514 24048  10375 10377 19978  8344 8346 18435  15615 17738 17739  3094 3332 17957  12463 22524 23322  12129 12131 21872  16053 22651 23342  12751 19454 19455  9933 12751 19455  12600 19981 22924  15770 22663 23353  12529 17422 17424  9062 17256 22140  8895 11676 20693  9046 9129 20693  10833 17428 22692  7634 17099 23676  15789 21878 22975  12600 19981 22931  13416 19672 23275  16620 16800 24933  14308 15804 19776  18001 18002 18004  3332 7527 17957  11405 11407 17373  17357 18245 22166  14165 15647 23666  12750 17473 18099  17121 17127 17136  12750 17475 18145  11453 18754 22933  17374 22139 22614  11543 19908 22919  15804 19775 19776  11453 18754 22935  12510 17385 18152  17569 18862 22003  4340 16929 23660  17193 18019 22115  17646 24225 24354  14019 16437 17272  12602 18760 22939  15782 17944 23087  15817 18716 22162  17271 22875 22876  17004 24358 24598  10933 10935 22840  15788 21863 22964  9942 18716 22162  11697 22875 22876  12523 18245 22166  8689 22981 23504  20074 20077 22707  10813 10815 21817  14310 14312 19971  9050 22878 22880  17290 17292 17303  9070 23073 23260  15846 22878 22880  15816 15817 17583  9563 17470 18099  15817 17583 22162  9062 18536 22140  12511 17436 20040  1995 2730 17263  19180 19194 19195  11928 17434 21980  15816 17583 21873  20059 22944 23002  11811 19831 22910  10795 11928 21980  8583 17569 18861  19700 19701 19702  15786 21849 22957  10496 19820 19823  21783 24574 24777  13849 19825 22009  14267 14954 22912  8528 17599 18278  19821 19822 19825  14959 19693 24885  14651 15214 17439  11404 12936 17790  15809 18859 18861  11822 18495 22976  14315 14317 21884  14591 17598 18278  11542 19822 19823  9627 18485 22432  16024 19628 24725  13592 23524 23696  14056 17187 17375  13029 17357 17358  17598 17599 18278  18039 18040 18041  15653 19675 24118  13029 17357 22166  15084 15086 18535  2282 18165 24115  19181 19183 19198  15535 16175 17615  20543 23038 23548  12511 17426 17436  10366 10472 18963  10359 10497 18797  13258 13260 18493  12838 17377 18269  11549 17370 22352  10364 11492 18963  15459 16549 23702  15815 17728 17748  12505 17294 22827  15814 18534 18536  10357 18796 18797  17385 18152 19861  9560 17462 18033  11402 11404 17790  11261 15551 17613  17336 18152 19861  17175 18957 23157  2583 2618 7448  11406 11408 17797  7465 24153 24730  9063 17258 18747  7550 18072 18073  9029 15617 23024  15889 16624 18485  17199 17615 17686  14954 22912 23183  10849 10851 17672  21789 24269 24479  14276 17264 19831  17098 24252 24393  6748 6755 23639  7456 19019 24093  10831 10833 17428  13494 19185 19186  12831 12834 17375  17175 18957 23158  15767 17445 22735  15803 19372 19373  15812 18856 23382  10503 18494 22382  14954 21987 23037  3570 16986 23657  14402 15803 19373  12837 17460 18033  9667 17141 23221  14850 22982 23062  13753 16179 23708  13661 19379 19380  12837 17461 18060  12139 17168 23156  13867 17336 19861  15685 18853 18854  15823 18228 22482  15675 16122 22966  11414 13623 22936  11904 18551 22884  15513 16126 23355  15835 18449 22940  8810 17486 18269  17117 20465 20466  17377 17486 18269  17094 17095 17096  7701 17450 17451  10490 18423 18425  7330 17054 23701  11294 11296 19307  9063 17258 22375  7404 24088 24178  15814 18536 22140  14964 21742 23155  13286 18429 18430  11837 18855 18856  13544 13546 18450  14288 17265 19908  15824 19845 22920  9283 9592 18040  15799 19485 19486  15455 17143 23232  12513 17406 17915  8342 11502 17277  11461 18228 22631  12516 17395 18539  9883 9885 18581  15823 22375 22482  14392 15799 19486  17230 18159 21986  10490 18425 18426  14954 23037 23183  9191 23587 23709  11395 17397 18539  9067 17262 22732  9063 22375 22482  11396 17410 17724  14589 15818 17573  16250 17102 23649  9179 9180 9181  11811 19976 22910  6496 7594 22779  9535 9537 18145  14282 17251 18159  13719 16558 23717  8810 17486 17488  17360 17361 17369  16716 17226 17227  7641 19621 19622  11396 17408 17915  11543 19948 22919  10365 10367 19823  2135 2191 17028  12529 17424 17721  17349 17350 23868  9539 9541 18099  8996 12505 17895  18716 19456 21854  12751 19454 19456  9000 9042 17922  12936 17757 17797  987 7659 19041  1953 7347 19041  8994 12505 22827  9963 17265 19907  9965 17264 19830  11399 17420 17672  9923 11811 19976  8998 9042 17895  16800 24933 24983  14276 14278 19831  9921 19975 19976  11461 22631 22687  11823 19441 23328  11477 20064 23031  18264 18266 22858  15797 19519 19520  14288 14290 19908  9913 11543 19948  9553 9555 18060  9911 19735 19948  15796 19735 19947  14382 15797 19520  9964 17267 19947  9549 9551 18033  8528 17599 18436  15843 20468 22842  17262 22687 22732  11535 18436 22077  12753 17413 17724  9002 12835 17922  10145 10592 23122  17782 17786 17791  15523 17542 17543  11534 17268 19945  9139 20077 22707  9633 9856 23672  8986 12744 17878  8988 9031 17878  15823 18228 22631  12668 14046 23712  12519 17382 21817  12667 21192 23718  7398 23605 23607  11502 17276 17277  18047 18048 18049  17122 17123 17560  12605 12966 23713  13870 14999 17541  15818 17573 22210  10360 17445 22735  17596 24678 24781  17282 17284 17896  3913 4018 7447  11697 20468 22869  13609 19299 19301  15786 19402 22957  10405 10488 22017  7610 16971 23263  10979 11402 22744  9004 12835 18007  10403 22016 22017  14324 15785 19578  14322 17337 19578  16881 16882 16883  8422 8424 19402  18862 22945 23000  15846 22880 22881  8714 8716 22280  15846 20031 22881  10605 17728 22310  14330 15786 21849  12753 17415 17685  14328 21848 21849  10831 11395 17428  11697 22869 22875  15809 17569 18861  18273 18274 22908  11577 20673 22882  8584 18435 21984  12511 17426 17721  15788 19361 22964  11533 17273 19401  15815 17728 22310  8585 19374 21958  15804 19345 19971  10861 17354 19844  15840 18229 22865  14378 19522 22948  17458 18493 18494  11502 17275 18435  8982 9028 17896  8984 12744 17896  15803 19372 19374  15843 22811 22842  8412 8414 19361  10490 18423 22266  8964 8966 17943  8586 19487 21941  11841 19844 22074  16451 17446 24268  12510 17385 21817  17373 17374 22614  15799 19485 19487  9006 9048 18007  17354 19844 22074  9295 9481 17431  14340 15788 21863  14338 21862 21863  18420 18423 22266  13807 18450 18451  9116 20799 23262  11548 19012 19013  11841 17356 19604  9966 17274 19971  11475 17440 22909  12529 17422 17672  9293 9295 17431  17810 23742 23839  15797 19519 19521  11416 17770 22902  11841 17356 22074  11461 22687 22732  15789 19335 22975  17250 24349 24721  14378 14380 19522  11532 17308 19360  16793 16875 24805  10918 19604 22132  9116 20799 23272  17255 18714 23007  8402 8404 19335  17274 19724 21884  8980 9028 23006  15818 17377 22210  18962 18963 18964  8386 19337 22962  9282 18038 18097  15785 19578 22590  17286 17288 17878  10840 11877 18136  17356 19604 22132  7677 17449 17510  8386 8388 19337  14350 15789 21878  18019 18561 19226  14348 21877 21878  7340 20240 25017  11531 17323 19334  8558 17324 19336  10918 17359 18551  11498 17310 21884  10828 10830 18740  17316 17317 25041  2674 7677 17449  14651 14653 17439  11530 17325 19329  17324 19310 19329  11399 17417 17685  14358 21846 21847  10918 17359 22132  17233 17234 17235  14440 14443 18025  14439 14440 18025  17335 23073 23076  8848 17660 20073  7545 18442 24066  14360 17325 21846  17334 17335 23076  15536 23079 23559  8548 21877 21878  14354 17323 19334  4298 4305 7615  7140 7147 7614  14352 15789 19334  8716 17637 22280  13038 13040 17679  9176 10988 17092  17325 19328 21846  2618 2653 17037  7708 7709 7710  8549 21846 21847  19011 22618 22802  11865 18276 18739  14364 17324 19329  14096 23816 23829  11412 13623 17819  14362 17325 19329  8547 21862 21863  14821 23813 23828  17073 17225 24196  14344 17308 19360  12977 13758 17485  14342 15788 19360  17366 18415 22514  10791 10793 22905  17450 17451 17452  11410 13004 17819  11531 19334 19335  17376 18276 22205  10931 12485 20070  18068 18069 18071  7513 17820 25012  7425 20355 20356  14368 15793 19336  14366 17324 19336  8546 21848 21849  2016 2058 7612  15214 17439 17440  8716 8718 17637  14334 17273 19401  11877 18135 18136  14332 15786 19401  15831 15832 17614  9117 17337 19578  11903 20804 23279  16718 17330 17331  12838 17377 22210  9067 17262 22811  13286 18428 18429  17340 19743 21872  14591 17598 22965  12882 18371 23099  11402 17790 22744  8848 20073 20076  11865 18276 22205  20547 23096 23560  11903 20804 23287  8438 11535 18436  11426 12992 17963  7471 16858 24347  8441 8528 18436  11407 13029 17373  14462 17112 17635  17876 20019 20021  12535 17533 17535  11424 12417 17963  10845 12753 17685  15831 17492 17614  20125 23089 23090  11458 17456 18037  8857 17530 18577  11458 17456 18036  15780 18704 22947  20125 20126 23090  3864 7678 17459  10503 17458 21979  14448 17209 17210  17647 17986 17995  17257 17458 21979  8558 19336 19337  11443 17565 18580  9008 9048 22352  8376 8587 19521  15829 17565 18580  8374 19519 19521  13601 18805 24811  9067 22811 22842  10862 17376 18229  20393 20475 21655  17364 17367 17368  10861 17354 19845  12407 17453 17751  10847 11399 17685  11532 19360 19361  11542 19822 19824  7521 17029 17030  10862 17376 22205  10841 11396 17724  11527 19520 22551  7613 17233 17234  19233 22859 23544  9458 9460 18768  14952 18967 22947  15234 17247 17248  14456 19812 19816  19812 19813 19816  13037 18449 22630  20154 23095 23098  20154 20155 23098  7430 16878 16880  7401 16892 16895  16891 16892 16893  7576 17341 17342  15835 17568 22940  21212 23648 23732  10843 12753 17724  8366 8586 19487  8364 19485 19487  15452 15766 17016  15523 17541 17542  12142 23454 24029  16595 16984 23610  13650 17940 22673  14056 15554 16206  10837 12513 17915  10839 11396 17915  23224 24149 24992  17251 18159 18985  18715 18716 19456  10488 22642 22681  17475 17477 18145  15768 19388 19389  8810 17488 17637  7133 7397 17155  11508 19486 22632  14270 19454 19456  8719 8721 18579  11863 21334 23105  11548 19010 19012  17371 22866 22870  10488 22017 22983  9791 12062 23227  15514 22245 23347  15790 19455 22747  16417 17725 22815  3710 3773 7613  17449 17450 17510  11533 19401 19402  13508 13532 19016  10580 12396 23618  17296 17298 17895  15176 22926 23026  17370 17371 22870  9010 11549 22352  10853 10855 17721  10835 12513 22692  15792 19975 19976  10605 17508 17681  14384 19520 22551  11709 21161 23107  9927 9965 19830  17208 17725 22815  9925 11811 19830  18328 22916 23015  8710 8712 18173  20439 20440 21605  19034 19035 19036  8723 8725 18578  8356 8585 19374  8354 19372 19374  14522 17720 17734  14259 15646 16602  17470 17473 18099  18424 18428 18432  10605 17508 22310  9917 9963 19907  14522 17720 17733  15843 20468 22869  15796 19735 19948  9494 15775 22972  10827 12516 18539  12222 13611 13630  7921 21745 23775  11505 19373 22690  9915 11543 19907  12513 17404 22692  15832 16773 17614  10803 17333 23142  15797 19521 19522  10829 11395 18539  14026 18873 24065  15780 18703 18704  17248 22592 23110  9144 20534 23308  15775 19743 22973  9050 17271 22876  7684 22372 23944  9050 17271 22878  14456 22906 22976  18726 18728 18729  8812 17544 17546  11698 17548 17550  15775 22972 22973  9313 19387 19391  9311 9494 19391  17390 17429 22807  15833 18486 22209  13570 23412 23516  10782 18486 22209  13031 22232 22335  21112 23291 23555  14466 17132 20495  16098 17530 22848  14294 15796 19947  13897 17751 22703  9144 20534 23314  11577 20031 22881  14296 17267 19947  15646 16690 17575  13029 17358 17373  11577 20031 22882  17361 17363 17364  19820 19822 19823  4774 4781 7703  2905 2940 7704  8706 8708 19726  17192 17513 22026  12735 23068 23441  15514 22245 23337  12524 17513 22026  14300 17267 19945  16162 23111 23112  8346 8584 18435  12407 17453 17752  14675 14676 17650  8344 11502 18435  17380 17381 22335  10801 23111 23112  14999 17541 18066  14394 19486 22632  17000 19428 24061  14302 17268 19945  10849 11399 17672  10377 11822 19978  11870 18420 22266  11290 11292 19308  7701 17449 17450  17761 17763 17819  15753 17333 23142  10600 19776 22775  7533 18004 24999  11822 19978 22976  10375 10504 19978  22047 22048 22049  15453 17940 22673  10488 22642 22983  9905 9907 19946  14021 19017 19018  12131 13859 21872  14699 14700 18066  12129 12518 21872  11055 11056 11057  11182 11261 11262  14676 17650 17651  12484 17817 22353  13022 23644 23868  17300 17304 17922  11870 18419 18420  15835 18449 22630  2646 2695 7701  10517 10518 10519  10512 10518 17052  19014 22820 22958  17832 17965 17967  16163 23127 23132  9485 17592 18036  12425 15705 23647  8857 17530 18578  21131 23541 23793  18047 18049 23243  10802 23127 23132  10851 12529 17672  13623 17765 22936  4767 7582 17360  17816 17817 22353  11875 22961 22969  14310 15804 19971  12983 17328 17329  10815 12519 21817  10409 10411 18426  7660 20241 24070  20017 20019 22540  17208 17209 17725  13034 22139 22614  14482 17216 17678  11408 13004 17797  15542 23584 23585  8702 8704 17551  13758 15451 15452  11918 12674 20053  14312 17274 19971  15204 22961 22969  17456 17592 18036  17655 17660 22502  13234 13236 18430  10813 12510 21817  11474 17571 22349  16940 17107 24003  2331 7548 22048  10471 16815 24566  17460 17462 18033  19903 19905 22989  17988 17997 17999  17399 17401 17428  11406 12936 17797  8858 12159 23746  14315 17274 21884  17258 18747 23032  9277 9279 18097  10141 11449 23001  21084 23584 23585  11906 20529 23319  18324 18540 22737  10793 10795 21980  10651 23065 23075  9931 19455 22747  20472 20474 20475  13865 14580 23055  13258 14453 18493  14317 17310 21884  13260 14454 18493  14404 19373 22690  12417 17779 17963  10210 10212 17597  17647 17995 22347  12831 12833 17375  17363 17364 17367  10589 19904 24644  13034 18781 22139  10411 10490 18426  3080 4039 7702  11867 17543 23443  2646 7701 17449  17481 18594 18595  11906 20529 23325  11548 19010 22488  7582 17360 17361  17977 17995 22347  17876 20019 22540  9967 18581 22853  15984 19935 23648  10626 17914 22997  10217 17537 17597  17352 18847 23644  12603 18949 23083  16739 16741 23550  13234 13286 18430  13854 17457 22883  17359 18551 22884  12834 14055 14056  12833 14259 17375  17757 17759 17797  14055 14056 15554  7663 18207 22846  4095 7520 17232  17698 17713 17714  10354 10356 18985  17306 17311 18007  20073 20074 20076  14674 19799 20345  14137 14259 15646  13544 13807 18450  12896 18374 18375  16462 16464 22515  18978 18979 18980  13870 17541 17542  17831 17832 17965  14537 18146 18546  13018 19294 19296  7456 19019 24160  11294 13609 19307  11296 13652 19307  9885 9967 18581  19025 23528 23695  2653 17037 17673  13609 19299 19308  16089 21745 23775  9883 18580 18581  13609 19301 19307  13252 13854 22889  10207 10210 22496  20063 20066 20068  8718 8810 17637  9535 9575 18145  10212 10217 17597  13546 17614 18450  16924 16925 16926  9539 12750 18099  12976 12977 12978  12830 12831 12834  4039 7702 17459  9547 9560 22915  9537 12750 18145  9553 12837 18060  10369 10496 22942  17987 17988 17997  13891 19841 22410  9485 17592 17594  18658 22016 22017  9541 9563 18099  10933 20070 22840  13080 13082 19006  18427 18429 22642  12735 18260 22644  12833 14137 14259  18815 18817 18818  9549 9560 18033  14795 15644 17558  17601 17602 22138  14676 17651 17652  18049 23022 23243  10367 10496 19823  16202 23593 23597  15800 18796 18797  17988 17999 18003  11919 12967 21096  14021 19016 19017  12933 17831 17965  15369 23120 23126  10838 10840 18136  15451 15452 15766  16572 18541 22227  16092 18290 22724  9555 9558 18060  10365 11542 19823  20074 20076 22707  18732 18733 18734  11814 17602 22138  9551 12837 18033  15831 17492 18146  20199 20200 23756  8723 8857 18578  8514 8516 18556  12679 17591 19457  11374 17561 19457  16481 21466 24227  11990 18541 22257  14985 17601 17605  11374 17561 21780  14512 14513 17609  7549 22042 22043  8966 11455 17943  11405 17373 22614  17561 17591 19457  7548 22048 22049  14985 17601 22138  13800 14985 17605  7471 16858 24396  14258 23238 23549  9195 20524 23329  16464 16680 19397  9484 23593 23597  11698 17550 17551  9701 19009 22395  4753 18415 22514  15511 18266 22858  13633 24750 25048  12260 12262 17818  17667 18213 22600  17698 17712 17713  9955 10944 23646  12260 12484 17818  12943 17987 17997  10823 17429 22807  11259 17562 19666  15853 16059 17933  14521 15745 17734  12831 12832 12833  17424 17426 17721  13664 17596 24781  9195 20524 23333  17457 22871 22883  20061 20064 23002  8964 17941 17943  11990 22226 22257  8334 8336 18861  11856 18564 23349  12485 20068 20070  14452 14544 22836  10210 17597 22496  14452 18245 22826  7557 18365 18366  13286 18428 18432  14306 19776 22775  8809 17793 22594  14495 15851 19172  7431 16909 16910  9065 17188 23357  10699 17749 22946  20402 23604 23612  11549 17370 22870  16116 18862 22945  15865 19234 23059  17068 23986 24076  18475 18529 22622  12977 13757 13758  18932 18947 24952  14376 15795 22948  9065 17188 23361  15851 19171 19172  11856 18564 23351  11877 17923 18135  15826 15827 18037  9298 9300 19013  7348 21787 23721  12535 17535 18173  13085 18019 18561  17381 17431 17432  10862 18229 22865  17703 17704 20473  9485 17594 17611  14579 18019 19226  16507 17596 18147  16451 24268 24331  9300 11548 19013  17742 17743 17744  7705 16774 16868  16464 19397 22515  20472 20475 21655  11659 13636 23762  17453 17751 22703  14515 17607 17609  11236 19714 22693  16484 23266 23874  13891 18745 22410  13141 18146 22591  13742 18290 22724  15479 17539 17650  9602 23604 23612  7616 18068 18069  17590 17923 22417  9287 22959 23072  9064 17190 23352  15646 16602 17575  15369 17152 23120  15771 19391 22972  15054 19992 19993  11859 18529 18530  14544 22836 22847  13034 18781 22165  13040 14482 17679  13890 19007 19008  14005 15865 23057  8384 9115 22962  11859 18530 22184  10853 12529 17721  13534 17208 22815  9472 9477 23064  9028 17280 23006  8715 8717 19615  13664 17596 18147  14452 22826 22836  2331 2366 22048  16572 18541 22257  14675 17539 17650  4298 7615 22278  12692 17703 20473  13038 17679 22137  15826 17456 18037  12829 12830 12831  16397 20358 20359  14951 14952 22947  12071 18648 19801  10217 17537 22036  8704 11698 17551  9466 9478 23067  17161 17162 17163  17461 22847 22862  17292 17303 22827  7550 18068 18071  17577 18648 19801  9064 17190 23348  15865 23057 23059  13692 13693 14238  19009 19010 22488  16165 22776 23175  17314 17370 22352  8714 12535 22280  15221 22512 22991  10931 10933 20070  20472 20473 20474  17953 17954 17955  17264 19830 19831  13639 23942 24056  11870 18419 22518  11173 11177 19398  15847 15848 17729  4578 4585 18377  11970 23599 23784  7557 18364 18365  12975 12976 12977  14521 14522 17734  17602 19727 21810  15200 18274 22908  16572 22179 22227  11237 17577 19801  3773 4095 17232  11814 17602 21810  8791 8793 20076  11231 19727 19741  17552 21963 22485  11231 19727 21810  8793 8848 20076  7147 7614 22279  9092 18320 18324  11237 17577 18792  11231 19741 19742  8583 17569 18862  18780 18781 22165  11529 18537 23368  11529 18537 23373  13891 18745 19973  18171 22036 22181  12146 22179 22227  17134 21333 22914  22043 22044 22045  14066 23298 23640  9458 11504 18768  16683 19396 19397  8857 18577 18579  16680 16683 19397  7403 16956 16957  13236 13238 22613  9460 9493 18768  13018 19294 19309  9293 17431 22755  12146 18486 22199  10135 17920 22904  11232 17557 19838  15439 22769 22893  4760 4767 7582  11512 17667 22600  17551 17552 22485  16194 16460 19667  1995 2660 7583  11232 17557 19836  12933 17831 18133  17715 17720 17733  8721 8857 18579  15444 23177 23179  8712 12535 18173  16705 16707 17260  17265 19907 19908  4767 4774 17360  13236 18430 22613  8812 17544 18173  12921 12933 18133  6923 6930 18816  17681 17879 22328  13508 14021 19016  16224 18540 22737  17557 19836 19860  17935 17937 17938  17777 17780 17781  16195 19392 19668  4599 4606 18364  11538 19836 19860  18815 18816 18817  10927 10929 20067  11877 17923 22417  10855 12511 17721  17508 17681 22328  14512 14515 17609  3745 7522 22854  12485 20062 20068  3591 22720 23074  11538 17563 19860  12943 17987 18157  11538 17563 19714  17395 17397 18539  9073 17204 23346  19993 19994 22557  18258 18260 22644  13024 18044 23029  15644 17579 17580  11237 18792 19842  15452 17016 17017  14463 17217 17430  20062 20063 20068  13532 13807 19016  15054 19992 22433  14056 16206 17187  11449 17574 23001  16834 16835 24686  7518 17090 25022  8719 11474 18579  20066 20068 20069  8710 8812 18173  18736 23963 24410  12112 18048 22953  12877 12943 18157  11619 20599 23217  15072 15369 23126  12284 12286 17582  17652 22465 22497  17604 18792 19842  12284 12528 17582  16122 19508 22966  11619 20599 23219  12146 22179 22199  9073 17204 23359  17787 17789 23049  17695 17698 17712  15886 16192 19669  11698 17548 19726  8812 17546 19726  16117 22985 22987  12535 17533 22280  17694 17695 17712  14797 15644 17579  18424 18425 18428  18451 18452 18453  11049 11052 23595  17437 17439 22841  14700 17541 18066  17969 17970 17973  17267 19945 19946  13854 18793 22883  15847 17617 17729  11443 17565 22686  9279 9282 18097  4599 7557 18364  8888 20601 22923  13018 19296 19308  13892 18744 18746  15512 22247 23336  10774 22985 22987  4487 7552 18074  8706 11698 19726  8708 8812 19726  15193 22314 22925  15444 17142 23177  11499 17604 19842  11290 13018 19308  11292 13609 19308  17382 17385 21817  11859 18529 22622  14495 14497 19172  9022 17942 23087  12991 17969 17973  15893 17589 17668  10782 18214 22209  9907 9964 19946  11474 18579 22349  9964 19735 19947  14699 17537 18066  11499 17604 18585  15858 18214 21960  19689 19692 24706  14468 16034 18479  14513 17609 17610  19011 19012 22802  17448 22728 22853  9905 11534 19946  15851 18591 19171  8519 8553 22025  12834 14054 14055  18024 18026 23147  12272 12482 23199  14515 17605 17607  15745 17734 17735  15165 22182 22713  10861 19845 22920  14238 21317 25066  17425 17793 22594  15833 18486 22199  11238 18591 21879  15848 16606 17729  11474 17571 19615  9269 9271 17611  11374 19398 21780  4578 7556 18377  10935 12471 22840  17738 17739 17740  15497 15499 19845  18002 18004 18005  9316 18704 22947  7557 18366 18376  9966 19345 19971  17438 17793 22751  14537 15831 18146  12604 20057 20060  15851 18591 21879  12829 12831 12832  11810 18338 21713  11179 22465 22497  7616 18069 18070  12125 19399 22351  16683 19396 19398  19701 19702 19703  17406 17408 17915  15646 16540 16690  12485 20062 20067  15447 23196 23198  11259 17562 19667  13890 19006 19007  9277 11458 18097  19700 19702 19704  17863 17865 17890  9141 18589 23360  18334 18338 21713  14805 16763 17641  16095 17920 22904  9291 9293 22755  9129 20692 23223  13602 14228 17732  15010 18339 22545  9316 18967 22947  13650 17937 17940  15829 18580 18581  10430 10432 19934  17713 17715 17733  17420 17422 17672  18744 18745 19973  18574 18576 23459  13800 17605 17606  17499 17570 23166  11498 19724 21884  12892 17643 22234  11238 17584 18582  11475 22810 22841  11450 17642 22124  16200 23206 23565  19007 19009 22395  15847 17617 18175  16195 19392 19669  6930 7565 18816  10793 21980 22905  15513 23327 23650  17652 22497 22752  16507 18087 18147  12751 19456 21854  11238 17584 21879  19867 19905 22861  20175 22495 22536  18808 18833 18835  12517 17603 22437  15852 15853 17933  17892 18224 18642  18357 18381 18383  8848 17660 22502  10109 22137 22824  11671 20885 24113  16034 18479 18480  10354 11479 18985  10356 10482 18985  12622 17891 18224  15852 17572 17933  12459 17872 22460  11233 19799 20345  14674 14676 19799  19185 19186 19187  8553 22024 22025  8518 8520 19325  18429 18430 18431  11499 18585 21808  11682 22495 22536  8517 8519 22025  11910 17215 23369  14453 17458 18493  19379 19380 19381  12298 12300 17671  7674 21904 23935  10592 17560 23122  12298 12475 17671  9205 17249 23229  17666 18585 21808  17935 17936 17937  11848 18795 22871  9288 9290 18741  12071 18648 19669  18808 18833 18834  8514 11528 18556  18037 18038 18097  20045 22565 22589  13082 17933 19006  18187 18189 18211  15852 17572 21838  17275 18435 21984  13080 13890 19006  15845 19741 19742  18206 19399 22351  16098 22084 22848  15447 17139 23196  12833 14136 14137  17572 19938 21838  17704 20473 20474  15125 15444 23179  8516 9092 18556  13078 22618 22802  4424 7446 24077  20056 20059 22837  10592 17247 23040  14419 14424 17689  15621 22761 22766  11910 17215 23374  9179 9181 9182  11194 22565 22589  15557 15621 22766  4606 18362 18364  1974 2037 22042  17141 23221 23566  17891 17892 18224  10504 19816 19978  12749 17586 22404  6923 18814 18816  14290 19908 22919  18425 18426 18427  9592 18040 18041  17739 23401 23435  7569 18807 18834  14793 14795 17558  14018 23636 23637  15091 17595 22559  11472 18582 21949  13854 17457 22889  8336 8583 18861  13859 19743 22973  13037 18339 22630  13141 18146 18546  8334 18859 18861  14424 17689 17690  15827 18037 18038  9271 9485 17611  15044 19938 21838  11180 11258 22549  17563 19714 22693  1974 7549 22042  11501 18742 18743  11847 17587 22745  8725 18578 22517  19288 19291 19293  13583 18356 23220  12975 12977 13757  12451 19287 19293  17970 17973 17974  17584 18582 21949  12827 22772 22793  18406 18408 18411  10473 18334 21713  13883 18491 22671  15044 17578 19938  17865 17871 17890  10129 18020 22784  18419 18421 22518  10863 17590 17993  17412 18077 22187  10979 12407 22744  11256 17666 21808  16059 17933 19006  10568 19459 22729  9298 19013 22615  16882 16883 16884  9153 13560 19864  10863 17590 22417  11232 19838 22361  14793 16535 17558  11282 11284 19292  14021 19018 21851  14105 16604 17677  18795 22871 22883  11170 11172 22361  18349 22456 22706  14606 18853 18854  9296 9298 22615  18366 18369 18376  14795 14797 15644  16552 16553 24784  15844 18294 18479  17410 17413 17724  8717 11474 19615  15044 17578 22031  18807 18808 18834  8300 20468 22842  10636 17920 22951  10435 17908 17911  14999 22036 22181  12892 17977 22347  16064 17587 22763  11450 17642 17992  16921 18855 18856  17866 17881 17889  18169 18170 18292  13807 18452 19016  12523 18245 22826  15858 18214 22209  15526 23546 23547  16788 16790 17752  19059 22667 22791  15795 19548 22948  15663 19018 21851  10487 17484 22926  4550 7555 18407  14544 22847 22862  11472 17634 18514  13182 23211 23315  9104 18860 23007  10584 17678 22824  13141 15091 22591  15766 16596 16761  8702 17551 22485  19012 19013 19014  16082 18020 22784  13533 13534 22815  17591 22444 22448  13742 18287 18290  12970 12971 17936  18501 18503 18513  20026 20442 20444  11844 19209 22708  14590 15816 22965  16064 22763 22768  18399 18401 18404  13641 18169 18292  11256 17666 18543  9692 18247 18249  11459 17616 22344  10473 18334 18335  12921 12923 18133  10557 19495 22696  11472 17634 21949  4459 7550 18073  12679 17591 22444  11926 23532 23534  10757 12454 17880  15844 18294 19615  15803 19374 21958  9092 18320 19325  17052 17053 22993  11847 22736 22745  8124 9502 19932  16255 16906 24527  11177 11374 19398  18950 19246 19280  7709 7710 7711  7708 7710 14417  17565 22684 22686  14789 16488 17640  8715 18294 19615  11173 19396 19398  15155 18565 22801  11179 20175 22465  2002 2366 22046  2576 2674 7677  4606 4613 18362  12889 12892 22234  14797 14799 17579  9560 17464 22915  19209 19210 22715  9068 17218 23397  18399 18400 18401  15147 15447 23198  12991 17969 19021  12512 17722 18154  12971 13650 17936  4697 7562 18390  4718 7564 18396  15901 17802 17811  17297 22079 22835  17330 17331 17332  4571 7556 18414  12692 17703 22563  12877 12879 18157  11179 20175 22495  20212 22599 22659  7439 17056 17057  15045 19994 20043  10767 12459 22460  10499 18421 18532  18408 18410 18411  9092 18324 18556  16462 17562 22515  10706 21960 22260  19210 22715 22719  12601 18756 18758  16773 17614 18450  13758 15450 15451  7384 19791 23763  16788 17453 17752  11840 19212 22665  8520 18325 19325  7555 18407 18408  8553 18791 22024  10496 19819 22942  6916 6923 18814  17402 17405 22275  10568 22719 22729  16460 17562 19667  7552 16809 24646  17632 17731 23234  17678 17679 22824  19293 19294 19309  18357 18383 19584  17400 17402 18555  11844 22704 22708  13873 18422 18424  15390 22444 22448  11256 18543 21744  11163 11165 19668  4585 18376 18377  15030 17750 22468  19279 19280 22281  17652 19799 22752  12749 22374 22404  16079 22701 22734  10546 19205 22650  17438 22751 22810  16194 16195 19667  14424 17691 17835  2366 22046 22048  14278 19831 22910  17653 17655 22502  7576 17342 17343  15106 22068 22587  10705 17665 22676  8811 18076 18077  12082 12692 22563  16892 16895 16896  13538 17750 22468  15870 18543 21744  17802 17805 17811  3864 4123 7678  18330 18339 22545  12749 17586 22429  17883 17888 17889  19212 19213 22675  17866 17880 17881  8340 17277 23000  19287 19288 19293  17958 18780 20016  14791 14793 16535  15858 21960 22260  17400 17403 18555  2646 2674 17449  18406 18407 18408  10929 12485 20067  10927 12604 20067  17993 18064 22493  11443 18528 22686  14468 15844 18479  15161 22259 22821  17713 17714 17715  7562 18390 18391  17951 17976 21943  16545 16546 17088  20830 22661 22666  17305 22695 22927  17699 17700 17706  9069 17221 23383  11243 18514 22088  8320 8322 18536  10473 18335 21722  12454 17880 17881  13553 18706 22501  16249 16996 24089  4480 4487 18074  8304 9067 22732  12604 20060 20067  16192 16195 19669  10656 18020 22844  17911 19934 19935  10208 17992 22002  12604 20057 20071  7674 17136 23935  11282 19292 21967  7582 17362 22514  10751 12622 22402  19213 22675 22678  15845 19742 22361  15054 19993 22557  18401 18403 18404  17599 18436 22077  12022 13775 17736  13230 13232 18432  17958 18780 22165  11838 19215 22634  12092 12099 17710  12451 19287 19292  18839 18841 18842  10706 17649 19728  14072 14419 17689  10557 22678 22696  12923 12925 22386  15886 18648 19669  9068 17218 23390  17881 17883 17889  19035 19036 19037  10596 19225 22610  11501 18741 18742  12974 12975 12976  11840 22660 22665  13873 18422 18456  17403 18554 18775  13611 13630 16538  8150 17841 19207  9701 19009 22488  10125 10705 22676  16657 18102 18293  15512 22247 23363  17403 18554 18555  18742 18744 18746  19060 19061 22611  12507 23475 23477  17293 17926 22754  18830 18831 18838  16034 18480 18481  12512 17722 19237  9069 17221 23389  10426 10428 19977  12501 18538 22220  10207 11450 22496  18728 18729 18730  18629 19110 19111  17391 17394 22435  18950 19280 22281  3864 4039 17459  18027 18028 18030  12622 17891 22402  15799 19487 21941  13892 18744 19973  18187 18210 18211  17616 22374 22404  17634 18514 22088  7571 18830 18838  11682 20045 22536  18389 18390 18391  10084 10699 17748  12879 12881 22357  18189 18204 18211  18365 18366 18367  19060 22611 22639  7549 22043 22044  17402 18555 22275  18782 22139 22788  13641 18169 18702  12514 17680 18562  18287 18289 18290  9692 18247 18437  18478 18851 19410  14803 14805 17641  14566 16504 17708  12814 13641 18702  13036 17879 22328  15499 17354 19845  10546 22645 22650  11056 11057 11058  17403 18562 18775  11261 11262 11263  11182 11262 12164  7387 17821 24920  12859 17850 17852  14072 17687 17689  12459 20017 22540  17836 17837 18210  8520 8522 18325  8155 18240 18241  14540 16507 18087  10517 10519 13643  10518 10519 10582  19458 19459 22729  11682 20045 22565  15824 18740 22920  15845 19838 22361  17419 18076 18550  15456 23237 23242  12514 18562 18775  11554 18477 19410  4648 18383 19584  19107 19110 22192  14801 14803 16697  12656 17836 18210  18490 18491 22671  17587 19332 22745  17361 17362 17363  10597 19221 22579  18477 18478 19410  11838 22628 22634  18335 18337 21722  11458 18037 18097  15497 15824 19845  15543 17946 17947  19291 19293 19294  17803 23235 23244  10505 22559 22748  15130 22661 22666  11243 17676 18183  11172 19742 22361  13883 22669 22671  12391 19271 19283  14191 16807 17677  10217 18171 22036  14155 16635 18605  17694 17710 17712  15118 18275 22679  12099 17710 17711  8811 18077 22187  18258 18259 18260  11459 17616 22374  12640 19998 19999  12973 12974 12975  15133 22011 22746  18608 18610 18632  17389 17392 18499  17488 17490 17637  13742 18286 18287  18640 18692 18693  11456 17692 22531  12391 19271 19284  10432 11555 19934  10430 10435 19934  19160 19161 22142  14103 14105 17677  18380 18384 18385  13650 17936 17937  11904 18266 22884  7565 18816 18817  9290 11501 18741  17562 19666 22515  11459 22319 22344  13389 18174 19162  8518 9092 19325  17642 17992 22002  14791 16535 17640  11831 19228 22560  17863 17866 17890  10977 12407 17751  18639 18640 18693  19822 19824 19825  15456 17133 23237  18285 18291 18292  17292 17294 22827  18164 18181 18182  17625 17675 23228  14428 15704 17795  13612 18639 18693  19221 19222 22593  12828 12829 12830  18629 19110 22192  12517 17603 22566  11284 12451 19292  17358 17373 17374  14803 16697 17641  18838 18839 18841  17421 17603 22437  7558 18358 18359  8809 22566 22594  10082 17728 17748  8756 8758 18155  9634 19161 22142  14071 14072 17687  14583 22728 22853  12020 12022 17736  17401 17428 22692  10653 11965 19985  11280 11282 21967  15868 17674 18184  9115 21914 22962  12027 12029 18457  9288 9692 18741  16209 17746 18144  19494 19495 22696  12044 13594 18129  20003 23044 23050  10082 10084 17748  10596 22601 22610  12624 18225 18509  11853 18661 22323  9489 18184 22381  14424 17690 17691  8155 18239 18240  18225 18226 18509  13594 18117 18129  13873 18424 18432  10078 10605 17681  18979 18980 18981  16925 16926 16927  12096 12100 18445  18733 18734 18737  19222 22593 22601  12985 18128 19832  11243 17676 22088  10070 19230 22537  17289 17792 22662  10923 10925 20071  12726 17854 17856  19269 19271 19283  16546 17088 17090  18501 18509 18513  10699 17748 17749  12827 12828 12829  12023 12025 18067  8811 18076 18550  18421 18532 22081  11174 11231 19742  19208 19209 22708  11172 11174 19742  12090 12092 17710  17472 18538 22298  7518 17090 24963  4620 7558 18358  10586 12441 22134  10757 10759 17880  12046 12048 22318  12677 19269 19283  12322 12324 17730  12090 17694 17710  3962 4074 17566  10863 17993 22493  18503 18508 18513  14694 15525 18055  10706 17649 22260  12218 19298 24657  10105 10584 22578  18202 18917 22302  17091 17635 17636  14652 15214 16165  12322 12532 17730  6874 7569 19939  18426 18427 22681  12958 18123 19020  18337 19660 19661  16049 19160 19162  17392 18498 18499  18732 18734 18735  10597 22574 22579  8809 17793 22751  20035 20036 22325  10080 10082 17728  15010 22535 22545  16049 19160 22142  8522 9098 18325  7558 18359 18360  7805 7807 18239  17550 17551 17552  14795 14796 14797  17472 22319 22344  12930 17822 17823  15535 17686 18137  14797 14798 14799  15192 15782 17945  7569 18807 19939  15232 15757 17726  13036 13561 13562  11828 19232 22511  12044 12046 18129  22049 22050 22051  16438 17687 17688  7548 22049 22050  12512 18154 18155  14421 14424 17835  12905 17976 21943  10090 10626 17913  12441 18625 22134  15091 17595 22591  9194 17334 23076  6832 7571 19716  18259 18260 18261  14520 18156 18445  12830 12834 14054  14805 15228 16763  14071 16438 17687  12517 22288 22437  12514 17680 18563  13561 13562 14071  11194 19061 22589  8952 9021 22652  12784 13763 18303  18125 19020 19832  16230 16869 18098  12915 12991 19021  10435 17908 19977  17823 17826 17934  12677 19268 19269  16909 16910 16911  14114 19627 24786  12958 18121 18123  13718 13721 23636  11551 17903 17906  9194 17334 23077  13594 18117 18119  18831 18838 18839  10121 11456 22531  9692 18249 18741  11831 22548 22560  12125 18917 22351  8068 19509 22452  7571 18830 19716  12656 17836 19987  18308 18310 18313  12893 17978 17979  14558 16420 17821  18397 18399 18400  17937 17938 17939  12778 13730 18309  12958 18121 18487  17822 17823 17934  17472 22298 22319  15899 17693 18340  22410 22820 22958  18123 18125 19020  4543 4550 18407  13562 14071 14072  17389 17391 18499  10435 17911 19934  16790 17752 17753  13594 18119 18487  14432 15658 17839  15173 15456 23242  9698 22358 22383  14167 18597 18598  11398 17794 22555  10066 19236 22480  17979 17986 17995  19007 19008 19009  19211 19212 22665  14423 16125 17835  12120 18209 22128  16095 22868 22904  12927 12930 17822  11194 19061 22611  18255 18258 18259  11286 11288 19309  14799 14800 14801  15192 15194 17945  12862 18257 18258  12020 12389 17736  8553 18791 22300  13897 17729 22703  9426 18340 22330  14010 18349 18350  17978 17979 17995  16079 17667 22701  14692 14694 18055  19017 19018 19019  17574 22971 23001  9880 22653 22834  13232 13286 18432  18491 22684 22686  18481 19849 22464  8322 9062 18536  16207 17798 17799  19204 19205 22650  9655 17727 22533  17651 17652 22465  17492 18146 22591  16230 18098 18270  16049 18174 19162  14562 16207 17798  17669 23180 23182  15010 18339 22630  10078 10079 10080  16507 17154 17596  12427 17682 22171  15896 19509 22471  15091 19810 22559  20799 23262 23573  20021 20022 20024  14438 14441 18084  17362 17366 22514  10070 22527 22537  13693 14238 14239  12088 12090 17694  14520 14522 18156  17285 17794 22555  12742 17792 22662  10626 17913 17914  15525 18055 18056  12892 17643 22347  10409 18426 22681  16823 18672 22401  14545 22182 22713  19296 19299 19308  14174 18027 18028  11825 19324 22461  18475 22025 22622  14804 14806 22433  7614 17155 17156  19156 19157 22588  20074 20075 20077  8320 18534 18536  18125 18128 19832  13763 18303 18304  12726 17856 19341  11163 19392 19668  12909 13571 17975  17702 17704 17705  11826 17707 22426  14103 14191 17677  7807 8155 18239  15527 17918 17919  13070 13072 19671  12923 18133 22386  12883 12893 17978  4711 4718 18396  12859 17850 18067  17419 18550 22288  14191 16801 16807  4746 7567 18415  12404 18270 20538  12071 19392 19669  8960 9022 17944  13869 18264 22858  17617 17618 18175  10713 17861 22152  15896 22471 22473  14801 14802 14803  17649 19728 22211  13552 18345 18346  12624 18225 22160  15100 18986 22646  13230 13873 18432  12467 22216 22237  14551 20036 22325  11886 20110 23078  15186 15527 17918  12017 12019 19998  18315 18439 18442  17594 17611 17612  19224 19225 22610  14522 17733 18156  15079 18568 22525  4690 4697 18390  17419 22288 22437  13730 18309 18310  12726 17854 18457  12413 17723 22105  12046 18129 22318  20020 20021 20022  17714 17715 17716  20026 20444 22143  18337 19660 21722  10080 10605 17728  12879 18157 22357  14226 16961 17916  15901 17801 17802  20019 20020 20021  17425 17427 17793  17937 17939 17940  11886 20110 23080  13225 14174 18027  12020 12021 12022  13956 17119 22982  11828 22499 22511  13795 15543 17946  9894 22413 22717  19214 19215 22634  16683 19398 21780  19728 19729 22211  11165 11259 19668  18353 18361 18373  12772 13658 18438  7133 7140 17155  18324 18556 22737  13542 14472 18213  17438 22810 22841  12724 18110 18112  16072 21842 22506  12899 13795 17946  16707 17260 17261  10096 10101 18022  17391 18499 22435  14071 14469 16438  8756 12512 18155  18444 18675 18678  17530 18578 22848  15827 18038 18039  8068 22443 22452  15840 18136 22865  17699 17702 17706  8047 8049 22623  17837 18210 18211  7789 7791 18434  17415 17417 17685  14692 18053 18055  18510 18511 18631  13602 17732 22446  4613 7558 18362  18418 18422 18456  14587 15827 22470  12650 14103 14105  15107 20830 22603  11394 19710 19711  4564 4571 18414  17392 18497 18498  11340 11394 19711  12625 18510 18631  8071 19511 22373  12404 18270 19936  5831 5838 18900  14010 18350 21841  12501 18538 22298  11266 19613 22248  12427 22147 22171  9275 11458 18036  15848 16604 16605  12677 19268 19278  9284 9286 18437  14793 14794 14795  12502 19276 19613  18661 22358 22383  10976 10977 17751  12826 12827 12828  18302 18303 18304  12871 12997 18006  12741 17932 22419  11463 18183 22114  18378 18380 18384  17682 22216 22237  17780 17781 17782  8150 17841 22333  9269 17611 22451  16195 19667 19668  7805 18237 18239  12502 19276 21913  12025 12859 18067  18308 18309 18310  9345 22562 22569  10077 10078 10079  14072 14418 14419  16495 19561 22380  18255 18257 18258  9599 9656 18779  7553 18397 18398  9679 18645 22249  12972 12973 12974  18285 18291 19747  16045 17727 22552  14676 17652 19799  10067 19320 22406  20829 20830 22603  12725 17845 17847  18575 18576 18641  8310 18228 22482  14441 16562 18084  18310 18312 18313  14010 18348 18349  15138 17961 22606  9900 22269 22668  14426 14428 17795  11985 19614 21773  12812 12814 18702  9713 22456 22706  15190 15627 17917  12724 18110 18130  14419 14421 14424  17427 17438 17793  18608 18631 18632  10101 18022 18023  14105 15848 16604  19495 22704 22708  12427 17682 22216  10066 22475 22480  12725 17844 17845  14536 16563 18090  9699 19168 22487  10088 17912 17913  6916 7566 18814  14191 15830 16801  4522 18397 18400  12021 12022 12023  12393 18672 18673  17281 17932 22419  18610 18615 18632  19459 22736 22745  17826 17934 17935  10080 10081 10082  14103 14104 14191  12933 17964 17965  12991 17972 17973  11844 19209 22715  10741 12624 22160  4746 4753 18415  17238 17240 17241  15232 15598 17726  12029 12726 18457  16072 18350 21841  12859 17852 18457  10557 19495 22704  17723 22147 22171  17412 18155 22187  10013 18214 21960  10428 10435 19977  10088 10090 17913  10426 11551 19977  16563 18090 18091  14167 18596 18597  18178 18299 18300  11853 22307 22323  17589 17668 17669  10568 19459 22736  14651 14652 15214  13883 18491 22684  10499 18421 22518  11826 22415 22426  11170 11232 22361  18338 22535 22545  16171 24014 24069  12057 12068 19203  12235 13612 22156  12970 17934 17936  17611 17612 22451  13658 18438 18439  10137 10636 17920  15906 19511 22405  13552 18344 18345  13238 13287 22613  12413 22059 22105  13070 18599 19671  11840 19212 22675  14472 17667 18213  15045 19994 22557  9592 18041 18042  19205 22660 22665  12527 17815 22311  17411 17412 18077  13064 13066 18596  19220 19221 22579  14803 14804 14805  12100 14520 18445  10101 18024 18026  15230 15232 15757  16082 22749 22784  12165 17694 17695  17603 22566 22594  10079 10080 10081  18119 18121 18487  16712 19614 21990  14419 14420 14421  11847 17587 22763  16045 22552 22562  11853 18661 22358  9098 17927 18317  16081 23017 23036  14016 18525 18526  16556 18176 18177  9273 9275 18036  12413 17723 22147  18202 22230 22302  16605 16785 16843  14009 18342 18343  17697 17699 17700  10546 19205 22660  15591 18051 18052  19077 19079 19677  13656 18575 18641  13907 14527 18212  12502 19278 21913  18420 18422 18423  14421 14423 17835  14698 15522 18057  17664 20073 20074  17702 17705 17706  9142 20115 23081  12943 17996 17997  17727 19352 22533  13223 13225 18027  16712 22059 22105  13758 15452 17485  12752 17894 22090  12393 18673 22056  14689 14692 18053  17679 22137 22824  8958 8960 17944  11824 17814 22343  14105 15847 15848  17825 17830 17924  15893 17668 17683  19210 22719 22729  19215 22645 22650  16637 22772 22793  18787 22206 22249  15142 15591 18051  17954 17955 17956  13751 18180 18182  18315 18438 18439  17860 24139 24165  12454 17881 17882  11838 19215 22645  12088 12165 17694  12223 17813 19576  15085 18701 22571  11393 18952 22239  8432 9117 22590  12520 18497 22214  7555 18408 18409  19213 22678 22696  15906 22405 22415  12971 12972 12973  13012 14226 17916  16125 17795 17796  16712 21990 22059  12207 18455 21820  15522 18057 18058  19225 22628 22634  12794 13885 18300  14554 16261 18063  18202 18917 22351  14482 17678 17679  9142 20115 23082  18521 19541 19544  22044 22046 22047  19227 19228 22560  12022 12023 12024  14426 16125 17795  7566 18811 18819  14421 14422 14423  12825 12826 12827  14174 18029 21774  10078 10080 10605  12017 12640 19998  14155 18605 20204  18397 18398 18399  10086 10088 17912  12262 17818 22649  16523 17820 18059  7803 7805 18237  17813 21773 21861  19046 19048 19058  19320 19321 22436  17856 17858 19341  12598 20054 20055  17695 17697 17698  11026 17926 22754  10082 10083 10084  12524 17513 22727  10636 22951 22971  18700 18738 19086  13524 13526 18348  12695 18014 22064  10076 10078 17681  17750 18213 22600  14423 14426 16125  18160 18161 18182  18439 18441 18442  12810 12812 22221  12068 18857 19203  4669 18378 18384  11825 22447 22461  14016 18524 18525  12204 17843 19561  12824 12826 18286  14562 14564 16207  7562 18391 18392  17996 17998 18006  11985 19614 21990  17843 19576 21858  17815 17816 22338  8742 8744 18563  10596 19225 22628  10635 19316 22336  19476 19526 19527  11985 21773 21861  12919 12933 17964  12913 12991 17972  12907 13571 17976  17427 17437 17438  13228 13873 18456  16814 16837 16839  9910 19489 22577  12887 12892 17977  4536 4543 18405  12389 21119 21121  11393 19279 22281  14805 14806 15228  17605 17606 17607  13466 22068 22587  15485 15840 18135  13612 18693 22156  11452 17834 18434  13224 13225 13226  10145 10147 10592  4704 4711 18394  19544 19547 21855  19168 19169 22510  10976 13897 17751  12865 13579 18250  16034 18481 22464  16605 16606 16785  17866 17889 17890  12501 22117 22220  19088 19090 19100  15095 16199 18034  17467 18538 22220  15898 18340 19551  17405 17722 22275  19229 19230 22537  10759 10761 17862  17928 17931 18317  18101 18102 18293  7554 18400 18401  7955 8150 22333  11965 18175 19985  9993 10653 19985  18645 22307 22323  9679 22206 22249  10787 18541 22227  13778 16209 18144  14527 16767 18212  10597 19221 22593  9284 18141 18437  8071 22362 22373  16845 16846 18134  18779 18780 20016  12120 22230 22302  19380 19381 19382  19186 19187 19188  19272 19275 19284  19276 19613 22248  19271 19272 19284  12223 17813 21861  16846 18131 18134  9286 9692 18437  11236 19172 22693  17695 17696 17697  14009 18341 18342  11142 11145 18085  14174 18028 18029  18418 18420 18422  9655 22522 22533  18366 18367 18368  16732 18031 18032  18675 18677 18678  14423 14425 14426  12875 12943 17996  13793 15227 18706  17676 18183 22114  10977 10979 12407  18532 22067 22081  19321 22436 22447  15867 18184 19422  13219 14224 18032  11911 18064 18590  20068 20069 20070  18521 19544 21855  12052 12054 21752  9097 18234 18235  8956 11451 17842  12094 12096 18445  17342 17343 17344  9097 18233 18234  12456 17862 17863  9029 9052 23024  10761 12456 17862  12223 19576 21858  10925 12604 20071  10923 12598 20071  16230 18270 20538  7559 18351 18352  12651 18953 22172  14938 18137 21073  12625 18510 22029  18444 18674 18675  13068 13070 18599  15481 17590 17923  19228 22574 22579  19222 22601 22610  8083 19513 22289  9718 19164 22449  18742 18743 18744  18408 18409 18410  4557 4564 18412  19185 19187 19189  8970 9023 18086  19167 19168 22487  10076 10077 10078  15662 16523 16762  18401 18402 18403  6909 7566 18819  4648 4655 18383  4683 4690 18388  4620 4627 18358  10398 10400 18774  12470 20046 20079  8068 19509 22471  18226 18509 18513  18180 18181 18182  11831 19228 22574  12486 17925 22243  9181 9182 9183  12027 12859 18457  12826 13742 18286  12204 17843 21858  10632 18275 22679  15027 16253 18061  14588 18152 21726  17865 17867 17870  10086 10699 17912  12103 12656 19987  13604 14129 18293  13757 13758 15450  10081 10082 10083  12023 12725 18067  13528 13530 18344  13225 13226 13227  10656 22844 22868  12778 12780 18309  19231 19232 22511  18789 22135 22217  12185 13036 13561  15827 18039 22470  11551 17903 19739  11280 12391 21967  10073 10074 10976  17674 18184 22381  12137 13190 20005  18478 18851 22300  17816 22338 22353  10216 18171 19393  13579 18250 18251  4473 7616 18068  17478 17586 22404  14696 14698 18057  18264 18265 18266  19501 19502 22161  12598 20055 20071  17927 17928 18317  19526 19536 21887  15659 16608 16852  17707 22443 22452  11464 11466 22060  19169 22510 22522  10851 10853 12529  19230 22548 22560  13223 13224 13225  13305 22817 22823  14558 14560 17821  14560 14562 17798  11551 17906 19977  16845 18134 21814  12086 12088 12165  18476 18477 22212  7569 18834 18836  10117 10713 22152  18161 18164 18182  9914 10646 22541  18391 18392 18393  10074 10976 10977  17863 17864 17865  14692 14693 14694  12784 12786 18303  11272 11274 19278  15532 20868 20869  15146 15527 18050  14194 18027 18030  19476 19526 21887  10070 19230 22548  15704 17839 17840  14430 14432 17839  14525 19729 22190  12120 18209 22230  12150 17994 19678  17474 17616 22344  10812 11904 18265  15840 18135 18136  11302 19582 22423  15706 16607 16981  9292 9294 19338  14428 14430 15704  10094 10096 18022  12088 12089 12090  19364 19365 22207  15069 17959 22539  17894 22117 22220  10131 10656 18020  17665 22640 22676  10084 10085 10086  17711 17712 17713  14129 16657 18293  10977 10978 10979  12441 19107 22192  18478 18791 22300  9022 17941 17942  14540 16506 16507  11286 12451 19309  5831 7453 18900  17392 18497 22214  11288 13018 19309  9098 17927 18316  11338 11340 19711  16882 16884 16885  18476 22212 22265  15483 15485 18135  11873 18565 22801  3339 7605 23657  13885 18178 18300  16790 17753 17754  13044 13778 18144  10208 20688 22002  11826 17707 22443  10098 10101 18026  10141 10143 11449  11824 22329 22343  10715 18630 22106  11887 20122 23085  18952 22215 22239  19316 19317 22368  12937 19074 19085  18663 18666 19340  19232 22527 22537  17823 17824 17825  13226 13228 18456  14442 16561 18088  17862 17863 17866  12052 18130 21752  14436 14438 18084  14430 15704 17839  10094 18021 18022  11871 18568 22525  18186 18187 18210  11846 19157 22588  8956 8957 8958  10761 10763 12456  10759 17862 17880  13524 14010 18348  9186 17266 22998  12023 12024 12025  11554 18477 22212  12930 17823 17824  17711 17713 17733  19235 19236 22480  10074 10978 17958  15592 15693 16482  6867 7569 18836  15909 19513 22316  10067 22387 22406  19256 19258 19550  12893 17979 17980  13562 14072 14418  8958 17842 17944  16159 19582 22441  18422 18423 18424  8962 9022 17941  18246 18247 18437  15849 19853 22234  12510 18152 21726  18337 19661 22032  11394 19710 19712  11828 19232 22527  9679 18645 22307  15906 22415 22426  12929 12932 12970  17979 17980 17981  15228 15229 15230  18078 19678 21836  8974 17183 18142  6902 6909 18819  4543 18405 18407  19323 19324 22461  2814 7572 18843  13226 13227 13228  14560 17798 17821  11141 11142 18085  12111 12207 18455  18646 18858 22254  16607 18101 18102  17696 17697 17699  12687 18103 18105  20060 20062 20067  15481 15482 15483  12804 13751 21853  17965 17966 17967  10084 10086 10699  13110 13113 13538  11308 18954 22112  9728 17961 22606  10711 13036 17879  12207 22093 22128  15870 18085 21744  17881 17882 17883  15190 15236 15627  15861 22090 22125  16114 19713 22130  9281 9284 18141  19071 19074 19085  6874 6881 19939  10810 10812 18265  17994 19712 21834  12766 12768 18674  12186 13602 22446  15489 17376 18229  18209 22093 22128  11311 22455 22463  11887 20122 23088  18530 22669 22671  10422 10424 19739  8145 17138 23629  10979 11401 11402  18778 18780 18781  12889 12891 22234  12150 17994 21834  8954 8955 8956  12090 12091 12092  12074 18078 19713  10137 10139 10636  10639 22314 22925  6832 6839 19716  20055 20057 20071  14938 15535 18137  13751 18180 21853  19128 19432 19750  18418 18419 18420  15058 19664 22505  13528 13552 18344  17715 17716 17717  15064 18765 22483  13558 19256 19550  10083 10084 10085  17414 18076 18077  8958 8959 8960  9614 19151 22305  15534 15535 16175  17825 17827 17924  18352 18354 18355  13072 14147 19671  11309 19451 19605  18329 18330 18339  14179 15645 16218  13795 13796 14179  12970 17822 17934  4711 18394 18396  16072 18350 21842  12988 13676 18172  19164 19165 22469  19236 22499 22511  13642 17946 17947  7710 7711 7712  4634 7559 18351  9704 18065 22327  12022 12024 13775  12932 12970 12971  13143 13606 18546  18379 18381 18382  18385 18386 18387  12024 12025 12026  17964 17966 19021  7566 18811 18813  9273 9274 9275  17981 17982 17985  14093 16416 18153  13062 14016 18524  16845 18158 21814  17825 17826 17830  9656 18779 20016  17421 17423 17603  17865 17870 17871  14962 19502 22161  18706 22500 22501  17869 17873 17874  12021 12725 17844  15637 16167 16554  17947 17948 17949  11827 17960 22388  17374 22139 22788  13059 13062 18524  12818 18291 19747  12150 19678 21836  13890 19008 22556  13595 18160 18161  12286 17582 22576  17996 17997 17998  12772 12774 18438  7791 11452 18434  10066 19236 22499  14418 14419 14420  9274 9275 9276  12393 18672 22401  8521 8523 22300  12898 12899 13795  12019 12020 12021  10068 19312 22261  18425 18427 18428  15197 16556 18176  11821 17991 22224  14570 16527 17962  7560 18378 18379  7561 18384 18385  19317 22368 22387  12050 12052 18130  14694 14695 14696  15186 15188 17918  17411 17414 18077  9699 22477 22487  17568 22930 22940  15909 22316 22329  10731 12625 22029  14436 17989 18084  19163 19164 22449  15932 20009 20841  14548 14550 18766  14564 14566 17708  15232 15233 15598  11820 17959 22539  18271 18272 18770  10481 18271 18770  11393 18952 22281  8071 19511 22405  13066 14167 18596  18998 18999 19057  10586 10715 22134  8955 8956 8957  14179 15543 17921  17977 17978 17995  12074 18078 21836  9273 9485 18036  19535 19545 19606  14690 18053 18054  13857 18655 18794  12527 22294 22311  15188 15190 17917  18699 18700 19086  18336 22032 22062  17847 17848 17849  18655 18656 18794  9877 9879 18528  6881 6888 22233  9275 9276 9277  14426 14427 14428  12442 18616 21870  17722 19237 22275  17964 17965 17966  10747 12449 18215  15916 18138 18140  14618 17007 19142  10092 10094 18021  18352 18353 18373  15933 18481 18482  7623 18892 18899  17931 18317 18318  15230 15231 15232  17966 17969 19021  11303 19664 22505  13809 18008 18009  14564 16207 17708  4690 18388 18390  14420 14421 14422  12099 17711 18156  17710 17711 17712  12055 12057 19203  19324 22475 22480  7789 18434 19828  13052 14476 18246  13538 13540 17750  19096 19097 19146  12629 18998 19057  16159 22441 22455  9272 9273 9274  9697 9790 20014  12449 18215 18216  12650 14105 15847  17997 17998 17999  19351 19718 22287  10976 13896 13897  15696 17199 17259  15844 17571 19615  12651 22215 22239  8960 8961 8962  7801 9097 18233  5838 7623 18900  8957 8958 8959  14534 14536 18090  18588 19072 19461  12695 21012 22359  14566 14568 16504  18778 18781 18782  12092 12093 12094  12451 19293 19309  18831 18839 18840  10086 10087 10088  18953 22146 22172  19319 19320 22406  17968 17970 17971  12871 12873 18006  15865 19234 19572  14696 15525 18057  14568 16504 17962  14226 14256 15696  12541 22062 22274  17829 17832 17833  13656 18575 19757  17693 18340 22330  19430 19432 21868  19054 19055 19099  9920 19238 22476  13897 17617 17729  18511 18631 18632  15188 17917 17918  17814 22362 22373  18668 18670 18671  14691 14692 14693  14689 14690 18053  15850 17644 17645  12426 18158 21814  12633 19096 19146  18353 18359 18361  16604 16605 17877  16411 16412 16664  12416 18186 18187  11854 20548 23408  15336 19509 22452  13701 15532 18143  13606 14537 18546  15466 17130 23275  18660 18661 22323  15487 15489 18229  14554 14556 18063  12459 17872 22540  15048 19611 22466  12869 12997 18075  7559 18354 19584  17490 17637 22280  13021 18699 19086  18777 18778 18782  17849 17850 17851  7623 18892 18895  14689 14691 14692  11825 19324 22475  10205 10206 10207  15480 15481 15482  12092 12094 12099  12873 17996 18006  4529 7554 18400  12808 13595 18160  10847 10849 11399  9276 9277 9278  12798 15197 18176  15483 15484 15485  7582 17361 17362  19268 19278 21913  18423 18424 18425  12632 19054 19099  10207 10209 10210  12107 12416 18186  8954 8956 11451  10203 10208 17992  10135 10137 17920  19453 19601 19603  12925 12927 12930  12919 12921 12933  12917 12919 17964  19151 19152 22305  12913 12915 12991  12911 12913 17972  12907 12909 13571  12905 12907 17976  13223 14194 18027  12901 12903 13642  14432 14434 15658  8968 8970 18086  17618 18175 19985  17414 17416 18076  12895 12897 12898  11739 13037 18329  9568 9615 18966  9723 19364 22207  16656 16657 17483  19165 22469 22477  8742 8818 18563  9565 13872 18454  4564 18412 18414  12887 12889 12892  12883 12885 17978  11501 18743 19338  7600 17058 17060  15658 17989 17990  12050 12724 18130  18668 18669 18670  14422 14423 14425  12885 12887 17977  14623 16607 18101  18801 18809 18810  15482 15483 15484  12909 12911 17975  13555 14009 18341  12780 12782 18307  12397 18955 21977  12040 12042 18487  12899 12901 17946  15849 17643 22234  17858 19341 21933  10400 10480 18774  12881 12883 12893  15867 15868 18184  11146 11243 18183  11391 18062 22346  9598 18777 18778  13872 14544 18454  12927 12929 17822  8489 8491 19720  11450 22124 22496  12068 18850 18857  12865 12867 18250  11857 18787 22217  12863 13579 18257  8959 8960 8961  11352 11354 19754  12666 19452 19602  12651 18953 22215  12056 12058 18544  11402 11403 11404  15898 15899 18340  17845 17847 17848  14434 14436 17989  19545 19546 21976  17847 17849 17850  18248 18746 21746  13064 14016 18596  11301 19611 22466  13612 18639 21948  9272 9274 9684  17537 18066 22036  13540 13542 18213  16785 16786 16787  19046 19057 19058  14693 14694 14695  14534 18089 18090  10978 10979 11401  13685 15135 18100  12404 19936 22060  19036 19037 19038  10101 18023 18024  18351 18352 18353  7559 18352 18354  19048 19053 19058  11824 17814 22362  18252 18254 18255  13630 16538 16539  19079 19082 19677  10092 10626 18021  11302 22411 22423  11904 18265 18266  8758 18155 22187  12832 12833 14136  18769 18773 18774  8956 8958 17842  12441 18625 22192  12074 19713 22130  8083 22268 22289  12792 12794 18300  14480 16174 18185  11907 12659 23723  12089 12090 12091  18354 18357 19584  17407 17722 18154  15768 19389 19390  15478 15481 17590  13050 13052 18246  17824 17825 17827  12742 22625 22662  8722 12838 18269  11473 18535 23032  14696 14697 14698  8960 8962 9022  13386 13389 22445  13222 13912 18416  12119 18917 22302  10973 12861 23317  17966 17967 17968  12527 17815 22338  3710 7613 23074  9277 9278 9279  8744 12514 18563  12786 12788 18301  14694 14696 15525  9098 18317 18325  14469 16438 16439  18029 18982 21774  12971 12973 13650  13558 19254 19256  12115 12120 22128  18065 19367 22327  17119 22982 23062  13796 14179 15645  7363 18887 18888  9879 11443 18528  12873 12875 17996  12204 19561 22380  18008 18009 18013  17980 17981 17982  10337 11462 18327  8962 8963 8964  18336 18337 22032  10191 10782 18214  10474 17897 17898  12094 12095 12096  12875 12877 12943  19321 22447 22461  17864 17865 17867  15485 15486 15487  12898 13795 13796  17416 17419 18076  19312 19313 22301  12987 13809 18008  10398 18769 18774  11308 22146 22172  17381 17432 22335  11457 18459 18460  14556 14558 16420  16063 19664 22520  7554 18401 18402  19315 19316 22336  13526 13552 18348  15474 18064 18590  14202 16523 18059  12488 18984 22061  10843 10845 12753  19088 19099 19100  14623 14624 15706  15830 21553 22040  15909 22329 22343  10090 10092 10626  18850 18988 22069  10351 10353 18659  19090 19095 19100  19077 19085 19677  10210 10211 10212  10635 22320 22336  13016 13907 18212  10755 10757 12454  12885 17977 17978  14553 17746 18144  14556 16420 18063  15130 20848 22661  11057 11058 11059  11056 11058 13710  12824 12825 12826  8048 8050 22494  18352 18355 18373  11261 11263 15551  11262 12164 12182  14434 15658 17989  18354 18355 18356  15869 19797 21886  18776 18777 18782  14476 18246 18247  11257 22554 22564  12898 13796 19853  13227 13228 13229  13555 13557 18341  11737 11739 18329  18440 18443 18444  17644 17645 17646  12096 12098 12100  15332 17707 22426  7432 23355 24883  19128 19432 21868  13906 13915 22190  12622 18215 18224  12901 13642 17946  12911 17972 17975  17823 17825 17826  13068 14167 18599  13382 18267 22385  18252 18255 18257  11394 19712 21834  10481 18271 21815  15142 15144 18051  12649 12650 14103  7560 18379 18381  10085 10086 10087  7561 18385 18386  18378 18379 18380  7147 7154 22279  10519 10582 10583  10214 10216 18171  6860 6867 18836  17998 17999 18000  10206 10207 10209  19453 19601 19602  19291 19294 19295  12495 18137 21073  15483 17923 18135  14521 14523 15745  18844 18846 18849  18345 18346 18347  9294 9683 19338  12812 18702 22221  9924 10645 22434  11817 19331 22173  12925 12930 22386  8090 19517 22127  14532 14534 18089  5859 7363 18887  15037 19583 22408  14700 15522 15523  12300 17671 22526  19535 19545 21976  16506 16507 17154  10131 10133 10656  15146 15186 15527  13999 19159 19160  15478 15480 15481  14428 14429 14430  15144 15146 18050  10067 19320 22436  12858 14521 14523  8524 9098 18316  14179 16218 17921  18994 19112 19114  13795 14179 15543  8730 8733 18277  13642 17947 17948  17883 17884 17885  15864 21882 22210  11820 22532 22539  17979 17981 17986  17948 17949 17950  13796 15849 19853  12025 12026 12027  16152 19582 22423  17412 18154 18155  10562 12629 19773  6937 7565 18820  15848 16605 16606  17882 17883 17884  15033 19042 22384  12087 12088 12089  17394 17680 22435  10209 11446 19043  12629 18998 19773  13816 19122 19419  7803 9097 18237  13688 18279 18280  13641 18291 18292  7363 18888 18889  19084 19120 19123  7693 7709 22731  17873 17874 17875  10209 10210 10211  11404 11406 12936  18954 22066 22112  13797 18295 18296  11855 18858 22254  8740 8818 18498  20023 20046 22143  8961 8962 8963  12237 19949 21995  18500 18501 18509  18038 18039 18040  13389 13390 19162  13658 18440 18443  13763 18304 18305  15326 19511 22373  6839 6846 22218  14623 15706 16607  9280 9281 18141  15484 15485 15486  13542 13685 14472  7799 7801 18233  10088 10089 10090  11857 22135 22217  17342 17344 17346  16027 18065 22367  10751 10753 22402  12774 12776 18314  14997 19862 19863  12100 12101 12858  11239 19583 22408  12091 12092 12093  14527 14528 16736  15487 15488 15489  13558 19254 19277  11968 18552 18717  15866 19828 19862  11308 18954 22146  10335 10337 18327  7363 18889 18899  12456 17863 17864  12929 12970 17822  12531 14014 18273  12426 18158 19682  12687 18103 18544  9278 9279 9280  12098 12100 12101  17535 17544 18173  12165 17695 17696  12897 12898 12899  17507 19343 22334  11464 19001 22060  17851 17852 17853  8968 11455 18086  10807 14588 21726  12650 15847 18175  14553 14554 16261  14619 19140 19141  17618 22371 22462  10206 10209 19043  10129 10131 18020  18107 18110 18130  9189 19694 19695  8972 8974 18142  15486 15487 15488  15911 18277 21871  13538 13539 13540  11809 22152 22291  15248 23065 23075  11849 22626 22641  12048 12724 22318  15481 15483 17923  12932 12971 12972  13090 18328 21907  12881 12893 22357  9578 20495 20496  10721 12442 21870  13685 14472 15135  19425 19427 19428  11354 11372 19754  14698 14699 14700  17850 17851 17852  17925 22294 22311  11476 18583 18584  13037 18329 18339  11404 11405 11406  13730 18310 18311  8720 8722 18269  17633 19507 22297  14548 18601 18766  10551 12632 19798  19115 19116 19123  15144 18050 18051  14425 14426 14427  12632 19054 19798  11372 19753 19754  14596 14997 19862  16057 19611 22478  12752 22090 22125  11827 22369 22388  8524 8602 18316  19452 19453 19602  13530 14009 18344  11401 11402 11403  10783 12146 18486  8962 8964 17941  11274 12677 19278  12109 12111 18455  11272 12502 19278  20208 20212 22169  11968 14626 18717  19313 22301 22320  12026 12027 12028  13751 18160 18182  11247 11249 19277  11144 11146 18183  13886 18417 18418  15680 15682 19755  10204 10205 10206  18664 18711 19663  12752 17894 22117  16063 22520 22532  18272 18770 18771  8308 8310 18228  14486 15787 18326  12096 12097 12098  8083 19513 22316  8797 8799 17653  10715 18630 22134  17612 22599 22659  17527 17815 22311  18725 19218 19749  13642 17948 21943  14798 14799 14800  11371 18433 19797  12207 21820 22093  14550 17384 18766  8307 8570 18719  18799 18801 18809  13014 13016 14215  12987 12988 13676  10212 10213 10214  16148 17960 22388  18041 18042 18043  14224 16732 18032  10540 12633 19800  13219 13221 18032  15095 15097 18034  13389 18174 22445  9877 18462 18528  10839 10841 11396  13912 18416 22081  19275 19284 19285  13907 14526 14527  12633 19096 19800  13011 13012 14226  14695 14696 14697  18734 18735 18736  8726 21882 22213  4592 7557 18376  10747 10749 18215  18587 18588 19461  12509 19697 19720  12093 12094 12095  4676 7561 18384  4662 7560 18378  4515 7553 18397  4466 7550 18068  6902 18798 18819  10341 10509 18547  12086 12087 12088  9280 9769 13050  14441 14442 16561  18662 18664 19663  12058 18544 21770  19317 22387 22406  12397 22066 22112  14800 14801 14802  14526 14527 14528  9279 9280 9281  13587 18587 19461  17416 17418 17419  14014 18273 22908  13999 19158 19159  12766 13625 18674  10353 10487 18659  11854 20548 23410  20018 20046 20079  14938 15534 15535  10205 10207 11450  13021 18699 19732  14137 15646 16540  18656 18794 18795  12858 14520 14521  9112 22321 22428  8964 8965 8966  11303 22489 22505  17887 17892 17893  12679 19759 22444  10074 10977 10978  14451 17357 18245  12780 18307 18309  13540 17750 18213  19417 19418 19424  12456 17864 22175  13228 13229 13230  11371 19797 21886  18369 18376 18377  13050 18141 18246  9426 18340 19551  13892 18746 21746  12986 19417 19424  8955 8957 9068  14472 15135 16079  13050 13051 13052  12034 12985 19832  11821 22201 22224  9795 10073 10074  16046 18267 22385  14104 14191 15830  9367 22399 22416  12822 13688 18279  12816 13641 18291  10090 10091 10092  11392 19563 22282  13190 14202 20005  12137 12138 20005  11143 13041 19394  5950 7366 19130  10351 18515 18659  20022 20023 20025  13044 13046 13778  15864 17573 22210  14430 14431 14432  9726 9795 20016  14256 15696 17199  12233 13612 21948  2807 18844 18849  12790 13797 18295  14698 14700 15522  14629 19849 21051  14202 18059 20005  8729 8730 18277  14796 14797 14798  12598 20054 20088  14523 17836 19987  8314 9063 18747  9489 18184 19422  8712 8713 8714  9303 9316 22113  12869 12871 12997  11026 22716 22754  15916 18138 19809  11249 13558 19277  14525 19729 22211  14530 14532 15529  15487 15840 18229  10214 10217 18171  11150 11472 18514  9728 22596 22606  17522 17925 22243  14618 14619 19142  19150 19151 22370  18234 18235 18236  13906 14525 22190  18473 18529 18530  18545 19579 22148  9426 19507 22330  17883 17885 17888  12056 12687 18544  13658 18439 18440  10125 10127 10705  12040 12958 18487  18474 18490 18491  12601 18758 22418  16606 16785 16786  15022 18263 22356  11309 19451 21991  10211 10212 10213  18889 18892 18899  12021 12023 12725  18769 18770 18773  16045 22562 22569  6937 6944 18820  15488 15489 15490  9489 19343 22381  18530 22184 22669  15097 15142 15591  7827 18667 18669  9440 19343 22334  14532 15529 18089  14624 15706 17820  15157 16100 18565  17781 17782 17783  12237 12238 21995  15869 19756 21886  8302 8303 8304  17612 22451 22599  14619 19141 19142  12858 14523 19987  8966 8968 11455  15322 17814 22343  12105 12107 18186  16736 16767 17243  13857 18655 19859  12449 18216 18217  14438 14440 14441  18463 18474 18490  11737 11738 11739  14226 15696 16961  13045 14552 14553  8714 8715 8716  15027 15029 18061  12486 22202 22243  17991 22268 22289  15029 15095 16199  17948 17951 21943  16787 16788 16789  11372 19753 19755  15912 19517 22178  15491 15493 18276  13540 13541 13542  12042 13594 18487  12915 12917 19021  13552 18346 18348  15489 15490 15491  15870 15871 18543  17754 17755 17756  16144 18062 22346  12205 12206 12987  10635 19316 22368  12445 18500 18501  8304 8305 8306  15223 15246 16123  13911 19506 21733  16910 16911 16913  16909 16911 16912  8966 8967 8968  4522 4529 18400  18459 18460 18461  18848 23101 23161  11408 11410 13004  15933 18482 20009  18684 18694 18696  13561 14071 14469  8972 9023 18142  10394 10481 21815  8145 18230 18231  15867 19422 19834  14129 14314 16656  13044 13045 18144  13039 13040 13533  16027 22367 22390  10737 12445 18500  12068 18850 22069  11809 13038 13039  15097 15591 18034  14553 16261 17746  13045 14553 18144  12018 12020 12389  18279 18280 18282  11406 11407 11408  10749 12622 18215  18999 19057 19058  13778 14030 16208  8738 8740 18498  18630 21988 22106  10424 11551 19739  14697 14698 14699  12786 18301 18303  12862 12863 18257  19503 22296 22396  13782 16164 18522  13461 18788 18789  15746 17837 17838  12205 12987 13809  9758 18545 22148  9292 11501 19338  18975 19353 19795  11829 18263 22356  17931 18318 18319  16097 16098 22873  7571 18837 18838  10096 10098 10101  13407 19366 21964  13042 13044 13046  13815 14093 16416  19311 19312 22261  10092 10093 10094  14167 18598 18599  13533 13535 13815  11144 11463 18183  10472 18963 18964  11140 11141 11142  10013 10191 18214  11140 11143 19394  11946 12695 22064  13542 13684 13685  13605 18101 18293  15485 15487 15840  12937 19074 19847  15866 18434 19828  13225 13227 14174  11739 11740 11741  16029 18965 22189  17852 17854 18457  16158 19563 22313  12416 18187 18188  12397 18955 22066  16057 22478 22489  18799 18800 18802  13089 13090 21907  8720 8810 18269  2814 4137 18843  20923 22790 22808  11738 11739 11740  13604 13606 14129  13604 13605 18293  12486 17925 22294  11362 11364 21751  10598 19558 22118  9280 13050 18141  10087 10088 10089  12054 12687 21752  9999 10711 17879  10114 10115 11809  8303 8304 8305  8306 8307 8308  15316 19513 22289  12987 13676 18008  13016 14215 18212  10422 10474 19739  15878 17604 18585  13143 13604 13606  14523 15745 15746  15029 16199 18061  10339 10341 18547  8968 8969 8970  11142 11143 11144  18825 18832 18833  11857 18787 22206  8970 8972 9023  9930 19344 22331  8302 8304 9067  8716 8717 8718  13915 20049 22190  16055 19583 22440  14433 17914 22997  12656 18186 18210  8308 11461 18228  19424 19425 19427  13685 14203 18100  11930 18496 19846  14202 15662 16523  18304 18305 18306  17852 17853 17854  19055 19099 19100  13553 13793 18706  14802 14803 14804  14444 14446 16525  19505 19506 21733  9270 11457 18459  15490 15491 15492  10345 11497 18592  12867 18075 18250  18813 18814 18815  9769 13050 13051  16605 16843 17877  8486 22439 22582  8824 14548 18601  9486 19472 21769  11265 19556 21843  17516 18984 22061  9655 17727 22552  18925 19556 19940  8963 8964 8965  13042 13043 13044  11530 19310 19329  12687 18105 21752  10348 10351 18515  9132 20126 23090  12768 18443 18674  12891 12895 19853  10068 22222 22261  13461 13463 18788  13995 14938 15534  14542 15027 16253  11398 22508 22555  13051 13052 13053  12988 13914 18172  18955 21874 21977  8713 8714 8715  13886 18418 18456  16164 18522 18523  13512 13514 22057  13872 14451 14452  9189 19694 19725  13605 13608 18101  13011 14226 14256  11736 11737 11738  10121 10123 11456  14009 18343 18344  18663 18664 19340  8738 18497 18498  13693 14239 14240  19071 19085 19677  7568 18798 18799  14133 15750 15751  18230 18231 18232  4613 4620 7558  4529 4536 7554  4634 4641 7559  4676 4683 7561  4487 4494 7552  4697 4704 7562  4739 4746 7567  4655 4662 7560  4592 4599 7557  4550 4557 7555  4718 4725 7564  4459 4466 7550  4627 4634 18351  4571 4578 7556  4508 4515 7553  4473 4480 7616  18525 18526 18527  12140 13656 19757  11391 22332 22346  10117 10119 10713  13995 15534 18143  12411 19682 22027  17801 17802 17803  9281 9282 9283  18310 18311 18312  14440 14441 14442  9271 9273 9485  19483 19574 19575  9685 19718 22287  8305 8306 8307  18802 18803 18806  12026 12028 13002  10782 10783 18486  11403 11404 11405  12101 12102 12103  19008 19009 19010  8718 8719 8720  11148 11150 18514  12105 12656 18186  19245 19246 19280  12669 19245 19280  15012 19152 19670  7794 7796 18446  12095 12096 12097  14451 14452 18245  13579 18251 18252  12929 12931 12932  11144 11145 11146  14432 14433 14434  10010 10706 19728  12774 18314 18438  7797 8145 18230  14536 15834 16563  10214 10215 10216  12470 20046 22143  13227 14174 21774  13222 13223 13224  10789 11990 18541  11463 13042 22114  13871 13872 14451  8953 8954 8955  13012 13014 17916  10191 10622 10782  18216 18217 18218  11266 19550 22248  14093 14542 18153  11821 17991 22268  9385 18517 21781  18042 18043 18045  9559 9565 18454  14441 16561 16562  12442 21988 22106  9795 10074 17958  13083 13704 15870  7796 18446 22119  11810 18338 22535  18471 22492 22498  9666 18079 18080  11143 11144 11463  11154 11238 18582  15932 15933 20009  9099 20009 20841  18667 18668 18669  11265 21874 21977  11301 22453 22466  13914 16483 18172  16245 16246 16597  8305 8307 18719  9875 9877 18462  11880 22512 22991  16416 16417 16753  18810 18811 18812  17692 22458 22531  11466 12404 22060  20419 22250 22292  9097 18235 18237  18467 18473 18529  16234 16235 16236  12454 17882 22176  15016 18483 22306  9283 9284 9285  10810 10864 18265  13392 13394 19158  8711 8712 8713  10010 10011 10706  13140 13143 18546  17523 18984 22163  9456 11504 22076  15491 15492 15493  12028 12029 12030  13595 18161 18162  10212 10214 10217  9565 13871 13872  8528 18278 19395  18161 18162 18163  10105 10107 10584  10111 10113 10114  14490 15610 18542  13608 14623 18101  9401 19507 22297  8489 12509 19720  12027 12028 12029  14538 15832 16214  14476 18247 18248  10622 10782 10783  13914 14597 16483  10783 10785 12146  8715 8716 8717  14030 14480 18185  13606 14129 14314  18743 18744 18745  9279 9281 9282  7833 18662 19663  12103 12105 12656  18822 18825 18832  15495 15824 18739  14582 16197 18708  15912 22178 22201  9697 13145 20014  13452 22196 22208  11412 11414 13623  9790 10075 20014  13699 15532 20868  13228 13230 13873  9523 18561 19226  5859 5866 18887  10816 10918 18551  5901 7365 18870  15876 15878 18585  18799 18802 18809  10772 22011 22746  15892 19523 19851  13046 13778 14030  10216 10601 10602  5915 7618 18874  8720 8721 8722  15871 15873 15874  17618 19985 22462  14442 14444 18088  14194 18030 18031  7793 7794 7795  8970 8971 8972  15491 17376 18276  17501 19368 22155  10420 10474 17897  18480 18481 18482  5929 7455 18878  14030 16208 18185  15864 21882 22213  14542 16253 18153  11408 11409 11410  17928 17929 17930  18187 18188 18189  10100 10103 11460  8308 8309 8310  8974 8976 17183  12823 12824 12825  17756 17757 17758  15874 15875 15876  8818 18498 18499  11490 11540 18560  16208 16209 16674  10749 10751 12622  18235 18237 18238  11819 18492 22020  11140 11142 11143  19313 22320 22336  9132 20126 23091  10213 10214 10215  13110 13538 22468  18280 18281 18283  13088 15176 18567  13625 18675 18676  13392 13999 19158  18296 18297 18298  18343 18344 18345  13224 13226 13886  10741 10743 22160  13704 15870 15871  7795 7796 7797  10094 10095 10096  18592 18593 21889  16138 19563 22282  18607 18608 18631  10335 10336 10337  10337 10338 10339  17711 17733 18156  10771 18701 22571  16564 16566 16862  18822 18823 18824  8980 8982 9028  17627 19510 22122  11882 18484 22197  18824 18826 18829  8301 8302 8303  18332 18334 18338  11255 18483 22306  8718 8720 8810  16513 16514 16768  10343 10345 18592  13038 13039 13040  8521 8553 22300  19150 22370 22399  11735 11736 11737  8307 8308 8309  11325 12666 19771  19116 19120 19123  9284 9285 9286  15197 15198 16513  6825 7571 18837  13885 18176 18177  8722 8723 8724  18845 18847 18848  14552 14553 14554  21244 22492 22498  7819 11476 18583  9316 18967 22113  15751 18341 18342  12666 19602 19771  12235 12237 22156  18163 18164 18165  9275 9277 11458  19557 19558 22118  18107 18130 21752  9285 9286 9287  9476 19234 19572  7816 7819 18583  12206 12987 12988  14617 19106 19662  9597 9638 19001  11146 11147 11148  13048 13868 13869  18177 18178 18179  10645 18458 22434  13230 13231 13232  8717 8718 8719  18798 18799 18801  15157 15191 16100  7865 8156 19028  15898 19551 19928  13040 13533 13534  15492 15493 15494  7570 18821 18822  11742 12531 18273  12103 12104 12105  11862 18986 22646  18521 19541 22264  13815 16416 16417  10339 10340 10341  12931 14540 18087  15915 19809 19988  11740 11741 11742  13868 13869 15514  16159 22455 22463  15912 22201 22224  10602 10807 10808  15873 15874 15875  10114 11809 13038  9278 9280 9769  7574 18844 18845  11141 13083 18085  15834 16563 16564  13113 13538 13539  8311 11956 19233  8736 8738 18497  10011 10013 21960  15493 18276 18739  17409 17411 17412  12303 19847 22085  19330 19331 22173  13587 18587 21893  7636 16862 24839  13058 13782 18522  18141 18246 18437  12903 12905 21943  18520 18521 22264  18218 18219 18220  17344 17346 17353  13778 16208 16209  18439 18440 18441  9528 13085 18561  7797 7798 7799  13229 13230 13231  13052 13053 13054  13688 18281 19747  11741 11742 11743  12867 12869 18075  12801 12804 21853  15312 17991 22224  14997 19863 21720  7365 18870 18871  8965 8966 8967  18664 18711 19339  11504 18767 22076  10335 10505 18327  14016 18526 18596  9638 11464 19001  18346 18348 18349  9385 19547 21855  18680 18684 18694  9598 9599 18779  11219 11393 22239  15882 17577 18792  13646 19083 19808  19690 19767 19769  7618 18874 18875  9873 9874 9875  15006 19972 22238  11743 18273 18274  16041 19344 22331  14528 14529 14530  20018 20019 20020  16773 18450 18451  10808 10809 10810  16236 17928 17929  15493 15495 18739  19109 19110 19111  16260 18148 18151  3024 4130 22193  7455 18878 18879  15900 19554 19941  18295 18296 18299  6860 18821 18836  16236 17927 17928  17781 17783 17784  15568 19105 19106  10013 10190 10191  14999 18066 22036  18009 18010 18011  13816 19122 19826  16065 19238 22476  8724 8725 8726  10336 10337 10338  9565 9566 13871  11247 19277 19796  11145 11146 11147  18217 18218 18219  14444 16525 18088  10098 10100 18026  10341 10342 10343  8491 9189 19720  14434 14435 14436  13014 13015 13016  13016 13906 13907  13888 14014 14015  9734 13457 18789  10602 10808 10809  13907 14525 14526  12504 22079 22835  13535 13815 14093  15891 18098 18270  15910 19395 19497  19840 21809 22312  18158 19682 22027  16055 22440 22453  8719 8720 8721  7794 7795 7796  10068 19312 22301  11148 11243 18514  14530 14531 14532  11737 12537 18329  9934 10644 22235  10338 10339 10340  8998 9000 9042  13557 14133 18341  18248 19421 21746  9271 9272 9273  18989 18990 19114  8306 8308 11461  8984 8986 12744  13039 13533 13535  10089 10090 10091  18360 18362 18363  14484 14486 18326  11410 11411 11412  13143 13144 13604  19169 22522 22533  17758 17759 17760  10203 10204 10205  8972 8973 8974  15474 15476 18064  8988 8990 9031  11142 11144 11145  9872 9873 9874  18232 18233 18234  15876 15877 15878  7799 7800 7801  10191 10621 10622  12822 12824 18279  12820 12822 13688  12816 12818 18291  12814 12816 13641  12808 12810 13595  9871 9872 9873  13688 18280 18281  10809 10810 10864  12798 12800 15197  12804 12806 13751  12794 12796 13885  13797 18296 18297  12790 12792 18295  15875 15876 15877  17882 17886 22176  17982 17983 17984  8310 8311 8312  15306 19517 22127  14700 15523 17541  13457 13461 18789  12788 12790 13797  12444 18607 18608  7863 7865 19028  11733 12541 22028  10011 10012 10013  17281 17283 17932  12986 19417 21892  15832 16214 16772  11265 21843 21874  8726 8727 8728  12806 12808 18160  11742 11743 18273  14427 14428 14429  19186 19188 19190  8309 8310 8311  15678 18958 18959  9680 18965 22189  13059 18522 18524  12796 12798 18176  13043 13044 13045  13026 18569 18570  10745 10747 12449  14988 19562 22149  18868 18870 18871  18336 22062 22274  9283 9285 9592  16276 16278 19712  8326 11494 18604  16233 16234 16235  9281 9283 9284  18189 18190 18191  12531 13888 14014  7796 7797 7798  10562 10564 19773  19152 19670 21749  13760 15755 18916  16158 22313 22332  13086 13088 18567  17407 17409 18154  10340 10341 10342  13012 13013 13014  7568 18799 18800  15756 19029 19030  14200 15662 18489  17523 22202 22243  8318 8320 18534  10113 10114 10115  12782 12784 13763  14458 16097 16098  8730 8731 8732  15682 19753 19755  14015 14458 16097  18238 18239 18240  18872 18874 18875  8731 8732 8824  9875 9876 9877  18281 18285 19747  11152 11154 18582  9486 19536 21887  17861 22152 22291  8967 8968 8969  15508 16120 18589  9874 9875 9876  10727 12444 18607  18282 18287 18288  17463 17465 17894  18649 18650 18651  18876 18878 18879  12259 19218 19749  14619 19140 19144  4704 7562 18394  6839 19716 22218  11148 11149 11150  16134 18484 22197  11405 11406 11407  8732 8824 18601  15680 15869 19755  14476 18248 19421  18171 19393 22181  8721 8722 8723  18282 18286 18287  19418 19424 19425  9881 9883 18580  10096 10097 10098  7801 7802 7803  10343 10344 10345  9491 19510 22200  13646 19083 19123  14480 14484 16174  12442 18616 21988  13858 18649 18651  9500 19368 22258  9434 19368 22155  10601 10602 10807  10787 10789 18541  8728 8729 8730  18650 18651 18657  13390 13999 19162  15055 18644 18645  10215 10216 10601  8728 8730 8731  9568 9570 9615  7795 7797 8145  10644 18566 22235  18837 18838 18841  9559 9562 9565  14472 16079 17667  10334 10335 10336  15489 15491 17376  17853 17854 17855  19363 19364 22285  11861 18765 22483  12105 12106 12107  14984 19366 21964  16560 17841 22333  7792 7793 7794  14467 17571 18586  18222 18226 18227  8710 8711 8712  15880 15882 18792  18012 18015 18016  13473 15055 18644  13769 14582 18708  10342 10343 10344  10551 10553 19798  13912 22067 22081  10073 10976 13896  13014 14215 17916  10737 10739 18500  17772 17774 17775  13539 13540 13541  14588 17336 18152  9699 19168 22510  11309 11310 21991  7794 8080 18446  11215 12651 22172  15878 15879 15880  18162 18163 18166  18800 18802 18803  12107 12109 12416  14229 17185 18708  13726 18891 24156  9615 22773 22788  19108 19109 19110  8309 8311 19233  12824 18279 18286  9875 10647 18462  9877 9878 9879  11139 11140 11141  15493 15494 15495  9876 9877 9878  9348 9579 21766  14527 16736 16767  11412 11413 11414  9362 9385 21781  11361 11363 19937  7800 7802 18762  11147 11148 11149  14532 14533 14534  16094 18660 18661  7798 7799 7800  14804 14805 14806  18822 18824 18832  15645 15849 15850  18409 18412 18413  17285 17287 17794  6881 19939 22233  10386 10389 19371  15910 18278 19395  10804 19042 22384  10715 10716 22106  18821 18822 18825  7803 7804 7805  9338 9486 21769  9189 19695 19720  9704 22304 22327  11146 11148 11243  18990 18994 19114  12770 13658 18443  13083 15870 18085  15198 16513 16514  12295 13587 21893  17827 17828 17829  14520 14521 14522  17968 17969 17970  8974 8975 8976  12776 12778 13730  10540 10542 19800  12030 12031 12032  10091 10092 10093  12624 18500 18509  14484 16174 18326  12445 18501 18502  15494 15495 15496  12955 18679 18694  13512 16076 22057  17858 21933 22150  11239 22393 22408  15877 15878 15879  13246 13857 19859  14129 16656 16657  9286 9287 9288  18679 18680 18694  13231 13804 18557  13782 14218 16164  13477 16094 18660  8723 8724 8725  16114 19754 22130  16410 21413 21414  18467 18475 18529  18045 18046 18047  12101 12103 19987  13242 13858 18649  11302 19582 22441  11371 18433 21751  8312 8313 8314  13095 14021 21851  18188 18189 18190  19501 19506 22161  18463 18465 18490  8504 12064 18958  8587 19521 19522  10814 10816 18551  10783 10784 10785  10564 10566 21974  18823 18824 18826  10573 12627 19108  8602 12745 18316  17760 17761 17762  19544 19547 19958  7570 18822 18823  11463 13041 13042  11251 19562 22149  18161 18163 18164  12627 19108 19109  16085 22504 22597  15824 18739 18740  13646 19115 19123  11490 12499 18560  18321 18322 18323  18392 18394 18395  9287 9288 9289  17845 17848 22123  18749 18751 21831  18319 18320 18321  12806 13751 18160  10347 10348 18515  7574 18845 18847  15691 16270 24495  12251 13021 19732  17984 17987 17988  12800 15197 15198  18844 18845 18846  7937 9111 19199  12796 13885 18176  7797 7799 18230  13232 13233 13234  10835 10837 12513  17343 17344 17345  9558 9559 18454  14451 14620 17357  14000 19155 19156  16570 16573 18488  15496 15497 15498  8330 9104 18714  21552 21553 21554  12102 12103 12104  11422 11424 12417  14000 19154 19155  8507 8510 19806  18281 18283 18284  4585 4592 18376  15933 18481 19849  14662 20029 20037  20029 20030 20037  7800 7801 7802  10427 10429 20030  12058 12060 21770  14436 14437 14438  10344 10345 10346  18318 18319 18320  11438 13026 18569  16779 17682 22171  7805 7806 7807  15903 18519 21935  8969 8970 8971  9878 9879 9880  11366 11368 19982  17960 22411 22423  13684 13685 14203  10753 10755 22176  14030 14479 14480  15197 16513 16556  10500 19930 19931  4669 4676 18384  4662 4669 18378  4515 4522 18397  4466 4473 18068  8301 8569 18548  13885 18177 18178  13053 13054 13056  14377 15124 19224  8712 8714 12535  12029 12030 12031  10787 10788 10789  10482 18159 18985  11442 12743 19758  10345 10346 10347  7839 8142 18709  12449 18217 21829  14596 15866 19862  7971 9114 19505  8312 8314 9063  12333 12986 21892  11817 22141 22173  10785 10786 10787  7791 7793 11452  8732 8733 8734  11448 18643 19933  17774 17775 17776  17884 17886 17887  8504 8506 18958  13231 13232 13233  18402 18405 18406  9446 19422 19834  17606 17607 17608  14629 15933 19849  18468 18475 22024  11525 19344 22378  10500 19931 20029  13915 20049 21782  9684 18459 18461  12098 12102 21910  9182 9183 9184  9181 9183 9186  12279 19353 19795  14407 15166 19332  15850 17643 17644  17463 17894 22090  10810 10811 10812  9395 19510 22122  10382 11496 18707  19331 22222 22261  12247 12955 18679  8311 8312 8313  17829 17831 17832  11150 11151 11152  13231 13233 18557  10423 10425 19930  17546 17548 19726  9879 9880 9881  4557 7555 18412  11414 11415 11416  9533 9575 18594  8725 8726 8727  12391 19284 21967  17633 22263 22297  18864 18865 18911  15130 20848 22667  11426 11428 12992  10739 12624 18500  15880 15881 15882  14617 15568 19106  10850 10852 22286  18462 18463 18474  16568 16570 16758  12540 19849 21051  17396 17680 18562  18215 18216 18224  13632 18720 18721  9555 9557 9558  13048 13049 13868  8318 11473 18534  17469 17471 17472  13541 13542 13684  12107 12108 12109  15879 15880 15881  8722 8724 12838  10100 11460 18026  10553 10555 21961  8314 8315 8316  9656 9726 20016  13516 16071 22110  17523 22163 22202  8740 8742 8818  12102 13024 21910  19502 22196 22208  18721 18738 19086  14650 20054 20088  10646 18647 22541  18174 22430 22445  8734 8735 8736  7802 18762 22015  18720 18721 19086  17753 17754 17755  17702 17703 17704  10814 11904 18551  19464 19468 19477  18501 18502 18503  13857 18793 18794  13522 14010 21841  14429 14430 14431  10114 13038 22137  12531 13887 13888  9579 19531 21766  11741 13037 18449  7807 7808 7809  14015 14457 14458  8493 8495 19725  19761 19848 22188  13912 22067 22177  10789 10791 11990  11211 11308 22112  14133 15749 15750  10350 10352 19570  15907 18987 21759  12669 19245 21740  18189 18191 18204  8090 22108 22127  7802 7803 7804  16130 18968 22102  8734 12520 18601  18353 18358 18359  11735 11737 12537  18247 18248 18249  14218 16603 18268  8750 8813 18554  9551 9553 12837  14314 14537 14538  13056 13057 13058  11930 18496 19982  8090 19517 22178  11149 11150 11151  14534 14535 14536  15495 15496 15497  18925 19556 21843  21119 21120 21121  13058 13059 18522  9289 9290 9291  10864 13048 18264  12974 12976 13664  18217 18221 21829  17862 17866 17880  10542 10544 21956  10098 10099 10100  17928 17930 17931  12153 13656 18633  11513 19238 22509  13656 18633 18641  13096 13743 13769  18386 18388 18389  18465 18467 18473  13440 19670 21749  8736 8737 8738  15876 17666 18585  17762 17763 17764  11526 18790 22086  7799 18230 18233  15124 19224 19225  10339 11462 18547  12098 12101 12102  12841 15165 18646  7558 18360 18362  9880 9881 9882  8727 8728 8729  9666 18080 19809  16884 16885 16886  15302 18492 22020  11949 18968 22102  8316 8317 8318  9881 9882 9883  8800 9666 18079  11869 22259 22821  12019 12021 17844  14488 14490 18542  18190 18191 18192  18318 18320 19325  12138 19015 20838  16820 16823 18857  9547 9549 9560  12810 13595 22221  11407 11408 11409  12649 14103 14104  18462 18474 18528  10347 11497 13086  5866 18885 18887  10864 18264 18265  10389 14592 19371  10731 10733 22029  12722 19926 19937  12324 17730 22398  17864 17868 22175  4627 18351 18358  7806 7808 18783  11448 18643 19752  10346 10347 10348  12255 13632 18720  15874 15876 17666  19139 19140 19141  5866 5873 18885  13139 13140 13141  17474 17476 17616  19381 19382 19383  4655 7560 18383  4683 7561 18388  7809 7810 7811  12725 17847 18067  11430 11432 13591  12601 18756 22494  10812 10814 11904  14492 15610 18602  13697 20868 20870  7804 7805 7806  12094 12099 18445  2100 7573 18849  15165 18646 18858  2261 7574 18844  6895 7568 18798  6853 7570 18821  5943 5950 19130  11742 12530 12531  10352 11479 19570  13226 13886 18456  9421 19523 19851  7827 7829 18667  18752 19951 19952  14229 16436 17185  9938 11526 22086  7815 9109 16262  17289 17291 17792  19488 19497 21837  13809 18010 22064  11152 11153 11154  10789 10790 10791  17463 17464 17465  11362 11371 21751  10812 10813 10814  19159 19160 19161  17465 17466 17467  18465 18473 18490  13086 18515 18567  7451 18866 18882  18443 18444 18674  18230 18232 18233  17507 22308 22334  9882 9883 9884  18237 18238 18239  15882 15883 15884  18475 22024 22025  8313 8314 8315  8131 18662 18663  11536 18852 19843  8523 18851 22300  7807 7809 8155  7621 18864 18911  11480 11482 15911  13769 14229 18708  14270 18715 19772  14218 16164 16435  13229 13231 13804  11152 11472 18582  14438 14439 14440  15881 15882 15883  10348 10350 10351  7623 18895 18900  10093 10094 10095  14480 14483 14484  16570 16758 18488  19074 19847 22085  8750 8752 8813  18321 18324 18540  18363 18364 18365  12111 12113 12207  12165 17696 22324  9291 9292 9293  13058 13061 13782  8738 8739 8740  19463 19464 19477  13625 18676 22116  12520 18601 18766  15610 18602 18603  7851 8144 19044  18042 18045 18046  13059 13060 13062  11739 11741 13037  17764 17765 17766  9407 19551 19928  13140 13141 18546  11392 22256 22282  13086 13087 13088  8976 8977 8978  14133 15751 18341  16234 16236 17927  8324 8326 18604  13092 13094 13096  9883 9884 9885  12688 19769 21811  13248 13857 18793  14265 18913 18914  18452 19016 19017  9795 17958 20016  14467 15844 17571  12100 12858 14520  15498 15499 15500  10743 10745 21829  11473 18534 18535  14201 16289 18489  9288 9289 9290  11488 11540 19748  18570 18571 18572  9881 11443 18580  10100 10102 10103  14806 15228 15229  14538 15831 15832  10334 10336 19660  7811 7812 7813  16714 17723 22105  16278 19710 19712  11817 19331 22222  18650 18657 18658  11827 17960 22411  10343 10509 18592  8736 12520 18497  16028 18545 22242  4536 7554 18405  9525 9528 18561  13054 13056 13057  9501 19463 19464  11156 11238 18591  18788 18789 22217  13760 13821 18916  18503 18504 18505  17868 22175 22460  19375 19377 19386  11151 11152 11153  12104 12105 12106  10337 10339 11462  10739 10741 12624  13855 14270 19772  18319 18321 18322  7711 7712 7713  13232 13234 13286  7806 7807 7808  13874 16260 18148  9382 19554 19941  9332 9501 19463  11950 18918 19839  18526 18596 18597  8740 8741 8742  16276 17994 19712  12109 12110 12111  20391 20392 20393  9884 9885 9886  14488 15787 18542  15871 15872 15873  17478 17480 17586  13492 14478 19167  12122 12125 18917  11361 19927 19937  14486 14488 15787  18888 18889 18890  11160 11236 19171  12964 18969 18970  11858 19972 22238  10333 10334 10335  14478 19167 19168  12520 18766 22214  14401 14461 19460  15883 15884 15885  19165 22477 22487  8318 8319 8320  15869 19755 19756  8522 8524 9098  14391 14464 19496  7855 11500 18956  9614 22277 22305  13499 14475 19352  8315 8316 8317  11364 11930 21751  18287 18288 18289  7801 7803 9097  10347 13086 18515  19187 19189 19193  18272 18771 18772  13625 18674 18675  15502 15504 17190  15863 17462 17463  14496 15657 18960  15102 16088 18986  13782 14101 14218  18248 18249 18746  19248 19249 19250  15746 17836 17837  15118 15153 18275  18569 18570 18571  12440 18989 18990  18970 18973 19350  12537 18329 18330  9885 9886 9887  13759 15756 19029  18218 18220 18223  17699 17701 17702  8732 8734 18601  11145 18085 21744  10350 10351 10352  11207 12397 21977  14536 15833 15834  19931 19979 22073  19423 19427 19429  18062 22369 22388  12494 13011 13012  17934 17935 17936  8994 8996 12505  11325 11327 19771  15915 15916 19809  12032 12034 12985  18969 18970 19350  5789 7621 18864  4151 7622 18863  5880 7451 18866  4263 7369 18903  5803 7362 18909  4165 7367 18908  4242 7454 18912  10341 10343 10509  13052 13054 14476  10333 10335 10505  7813 7814 7815  12025 12027 12859  9289 9291 9503  14677 20038 22071  8978 8979 8980  9117 19578 22590  9290 9291 9292  13084 15865 19572  9109 16262 17040  12019 17844 19998  12363 13789 19144  9415 18987 21759  14947 15678 18761  11930 19846 21751  9105 19022 19023  12666 19452 21739  11154 11155 11156  5852 7363 18899  5845 7623 18899  8316 8318 11473  19284 19285 21967  15884 15885 15886  12758 13749 14516  13057 13058 13059  18320 18321 18324  19407 19408 19516  14442 14443 14444  8724 12838 21882  17887 17891 17892  7831 8131 18662  19024 19026 19027  14351 15087 19323  18569 18571 19757  15508 15510 18589  18502 18503 18504  17467 17468 17469  9105 19024 19026  9102 18669 18670  13216 19979 22073  16703 19481 19482  12818 12820 19747  15087 19323 19324  17409 17412 18154  14458 17530 18577  17950 17951 17952  8760 8762 8811  17293 17295 17926  12115 12117 12120  9297 9299 18703  8382 9115 19549  8713 8855 18294  14345 14481 19319  9873 9875 10647  8742 8743 8744  11153 11154 11155  18866 18867 18882  15163 15178 16099  8824 13863 14548  10352 10353 10354  14264 14265 18913  19138 19139 19140  9886 9887 9888  10791 10792 10793  5894 5901 18870  14481 19319 19320  17405 17407 17722  8324 9062 18604  10735 10737 12445  12899 12900 12901  15506 15508 16120  5908 5915 18874  8971 8972 8973  14339 14519 19315  14464 19213 19496  10808 10810 10811  10351 10352 10353  12743 13880 19758  7808 7809 7810  19365 19366 22207  5922 5929 18878  15497 15498 15499  9293 9294 9295  18279 18282 18286  12684 19106 19662  10157 10159 20042  18571 18575 19757  12406 19124 21735  19132 19135 19138  19994 20042 20043  19571 19719 21763  13062 13063 13064  12975 13757 22673  11741 11743 18449  19537 19545 19546  14519 19315 19316  13011 14256 19911  12275 12964 18969  7981 9676 19515  16564 16565 16566  13083 13703 13704  11829 22339 22356  19109 19112 19114  13471 13473 18644  18249 18741 18742  9889 11498 19658  19524 19526 19536  15500 15501 15502  7935 19178 19199  9541 9543 9563  8493 9189 19725  14484 14485 14486  12782 13763 18307  11356 11358 19756  12445 18502 21727  13662 19031 19405  11420 11421 11422  12438 19045 19046  7859 9105 19022  8744 8745 8746  18218 18223 18642  19102 19103 19104  18925 19940 21839  10204 10206 12539  13743 13769 14229  19430 19431 19432  9718 19164 22469  12406 19430 21868  11141 12203 13083  12972 18087 18147  14461 19210 19460  13663 19062 19063  8328 8330 18714  10569 12440 18989  14613 18920 19581  8317 8318 8319  9520 13084 19572  12064 18958 18959  14375 19223 19224  7977 19571 19719  8134 19356 19357  10811 10812 10813  4137 6825 18837  11436 11438 13026  18506 21727 22029  6888 6895 7568  6846 6853 7570  2086 2884 7575  2352 2541 7576  2261 2457 7574  2100 2877 7573  6867 6874 7569  6930 6937 7565  6825 6832 7571  6909 6916 7566  2464 2814 7572  6979 6986 7551  2723 2919 7577  6965 6972 7617  6951 6958 7563  14475 17727 19352  16575 16578 16691  10814 10815 10816  11417 11419 11420  14088 16443 19327  8770 8772 8809  18417 18418 18419  14599 19351 19718  7969 19504 19505  11150 11152 11472  10354 10355 10356  12444 18608 18609  13088 13089 13090  13598 14112 18705  7813 7815 9109  14454 18493 18494  16262 18583 18584  18507 18511 18512  12111 12112 12113  7810 7811 7812  15891 18270 19936  8733 8734 8735  19363 22285 22304  13060 13062 13063  7362 18909 19005  15885 15886 16191  10647 18462 18463  13394 14000 19158  10190 10191 10621  11236 19171 19172  12638 19076 19077  9887 9888 9889  9486 19472 21887  17897 17900 22602  16617 19614 21773  19174 19175 19177  12032 12033 12034  18613 19857 21870  10727 10729 18607  13872 14452 14544  16818 16820 18857  16161 22733 22750  12770 12772 13658  19063 19072 19461  14112 15105 18705  12436 19087 19088  8961 8963 11529  10356 10357 10358  15910 19497 21837  14550 17382 17383  12625 18607 18631  9292 9293 9294  12956 19101 19103  17469 17470 17471  14548 14549 14550  12315 13646 19808  17686 18137 19911  8729 11480 18277  19045 19046 19057  19062 19063 19461  9888 9889 9890  8307 8309 8570  8320 8321 8322  13741 19115 19116  18321 18323 18540  13139 13141 15091  18221 21829 22160  12387 13759 19029  10864 13047 13048  12106 12107 12108  9890 9891 9892  17471 17473 17474  12287 14088 19327  17766 17767 17768  18515 18567 18659  9870 9871 9872  7806 8069 18783  9666 19809 19988  9887 9889 19658  12323 13816 19826  12109 12416 18455  13094 13096 13743  11183 20035 20036  7273 7380 19649  18633 18634 18635  10793 10794 10795  8746 8747 8748  10353 10354 10355  13769 14581 14582  9528 9585 13085  10795 10797 11928  11950 19940 21839  11158 11160 19171  16538 16539 17150  16823 18857 19203  9893 9966 19724  11484 11486 12538  10073 13896 22371  12724 18112 22318  13422 13424 21864  11155 11156 11157  8350 11505 19075  19247 19248 19249  8734 8736 12520  9537 9539 12750  15498 16118 18564  18662 18663 18664  18122 18124 18127  13705 19131 19138  12633 19145 19146  12126 12446 19399  11422 11423 11424  11497 13086 13087  10103 10104 10105  9889 9890 9891  10813 10814 10815  17467 17469 18538  18502 18506 21727  7837 7839 18709  7933 7935 19178  18080 18138 19809  15071 19147 19153  11438 11440 18569  9564 13084 13865  8303 8305 11469  17474 17475 17476  8855 18294 18479  14518 19163 19164  12901 12902 12903  19690 19769 21811  7881 8134 19356  10786 10787 10788  12927 12928 12929  12925 12926 12927  12923 12924 12925  12921 12922 12923  12919 12920 12921  12917 12918 12919  12915 12916 12917  12913 12914 12915  12911 12912 12913  8780 8782 8783  12909 12910 12911  13475 13477 18660  8980 8981 8982  8784 8786 8821  12907 12908 12909  8322 8324 9062  11409 11410 11411  8133 19173 19175  12905 12906 12907  12903 12904 12905  9297 9481 18703  19240 19244 19247  19979 22067 22177  12430 13615 18988  13463 13467 18788  12439 19200 19201  13087 13088 13089  11156 11157 11158  9103 19002 19003  14373 14375 19223  7815 7816 18583  15129 19214 19215  12299 13663 19062  18886 18888 18897  12383 13662 19405  7791 7792 7793  14794 14795 14796  19101 19102 19103  9385 18517 21855  13409 19365 19366  8748 8749 8750  7819 7820 7821  8150 19206 19207  10558 12438 19045  8735 8736 8737  11521 13855 19772  10788 10789 10790  13057 13060 19421  10202 12579 20039  11154 11156 11238  14486 14487 14488  9528 9529 9585  17897 17898 17900  10474 17898 17899  10499 18531 18532  19810 19811 21403  12430 18988 22069  12895 12896 12897  11225 12669 21740  10012 10013 10190  7810 11503 19942  17386 17387 17388  12841 13884 15165  9906 11524 19403  14119 16629 21755  14471 19220 19221  12673 19133 19431  14543 18065 19367  18608 18609 18610  10358 10359 10360  7967 7969 19504  13729 15625 19342  8730 8732 8733  9892 9893 9894  9114 19505 21733  19147 19148 19153  9891 9892 9893  14490 14492 15610  8152 19499 19500  10721 10723 21870  20656 21720 21750  12891 12894 12895  19131 19132 19138  9533 9535 9575  15112 19227 19228  14582 15276 16197  19087 19088 19099  18778 18779 18780  9358 19547 19958  13407 13409 19366  13140 13142 13143  13450 14543 19367  7812 7813 7814  14078 14244 15838  15108 19229 19230  14356 14358 21847  7380 19649 19650  13234 13235 13236  14003 19559 19560  5936 5943 18901  12506 21921 21998  9295 9296 9297  12889 12890 12891  12311 12638 19076  17476 17477 17478  15093 19231 19232  10355 10356 10357  10380 10382 18707  14549 14550 17382  11057 11059 11060  11058 13710 13711  11263 15551 16249  12164 12182 12210  11245 11247 19796  15090 19235 19236  19015 19744 20838  13054 14476 19421  19173 19174 19175  7935 7937 19199  14069 19483 19575  11201 19556 19940  8322 8323 8324  11424 11425 11426  12140 12153 13656  7790 11478 22075  13396 14000 19154  12031 12032 12033  10392 10394 21815  12842 19239 19247  12373 12956 19101  7821 7822 7823  12319 13741 19115  14003 14004 19559  18492 22108 22127  10582 10583 10658  16061 17280 17281  12669 19279 19280  8750 8751 8752  12917 17964 19021  7897 19375 19386  12113 12114 12115  7825 9102 18669  15886 16191 16192  10547 12436 19087  8360 11508 19129  17421 17422 17423  8711 8713 8855  15878 15880 17604  10795 10796 10797  16566 16567 16568  19541 19542 22264  8505 8507 19806  19275 19285 19286  7800 9101 18762  12887 12888 12889  12955 18695 19732  12153 12227 18633  14375 14377 19224  9895 9897 19345  18598 18599 18600  17387 17388 17389  7969 7971 19505  11818 12841 18646  19002 19004 19044  12343 13729 19342  12792 18295 18300  12359 13705 19131  13479 15071 19147  18752 19950 19951  12355 12673 19431  10729 12625 18607  14210 16750 19680  12337 19423 19429  7814 7815 7816  13483 14518 19163  18557 18559 21813  14524 19311 19312  13233 13234 13235  19558 22141 22173  11352 19754 22130  13738 14210 19680  18196 18198 18203  13084 13865 14005  18571 18572 18574  18637 19854 21948  10538 12633 19145  13110 13112 13113  12768 12770 18443  15895 18103 18104  8319 8320 8321  14962 19502 22196  14621 14627 19744  14397 15150 19208  18219 18221 18222  9891 9893 19724  13063 13064 13065  14104 21058 22040  12776 13730 18314  19804 19805 19835  18651 18652 18653  15880 17604 18792  7931 8133 19173  11480 11481 11482  11391 18062 22369  13064 13065 13066  15502 15503 15504  15492 15494 17188  9428 11547 19569  8737 8738 8739  9520 9564 13084  10528 12439 19200  10345 10347 11497  8054 8056 19950  16578 16691 16775  12641 14077 14078  13858 18651 18652  14444 14445 14446  15025 19330 19331  13287 18649 18650  8729 9138 11480  11448 19933 19982  19135 19138 19139  10357 10358 10359  7953 8150 19206  8752 8754 19237  7949 11507 19493  20092 21730 21782  12885 12886 12887  19239 19240 19247  7823 7824 7825  13526 13528 13552  15838 15894 15895  14387 15139 19211  8328 11494 18714  16822 16823 18672  10784 10785 10786  11426 11427 11428  14383 15129 19204  18675 18676 18677  7999 19407 19516  16191 16192 16193  14381 15129 19214  8005 8143 19216  18695 18699 19732  13409 13411 19365  8039 8135 19217  8370 11527 19219  7965 8152 19499  18104 18105 18106  8782 8783 8784  11157 11158 11159  8495 19586 19725  18613 18616 21870  9531 9533 18594  10766 11550 19354  13843 14261 14584  14371 14471 19220  9894 9895 9896  18610 18611 18612  9294 9295 9296  10360 10361 10362  14367 15112 19227  8752 8753 8754  11482 11483 11484  8332 8334 18859  14587 15826 15827  18427 18428 18429  14359 15093 19231  15498 15500 18564  18311 18314 18315  14363 15108 19229  12031 12726 19341  15138 19154 19155  10622 10783 10784  14261 14584 14585  9520 9521 9564  12119 12122 18917  9295 9297 9481  12444 18609 19857  9893 9894 9895  14355 15090 19235  14699 15842 17537  9342 19524 19536  17398 17400 17403  11428 11429 11430  9286 9288 9692  10348 10349 10350  14947 15515 18761  11366 11930 19982  13056 13058 13061  18506 18510 22029  13999 19160 19162  8499 9196 19715  19083 19084 19123  13471 15042 18644  12823 12825 12952  11411 11412 11413  12108 12109 12110  7266 19648 19649  9319 19387 19388  19448 19451 21991  12788 13797 18301  17383 17384 17386  19573 19574 19575  13701 13995 18143  14112 14190 15105  13240 13242 18649  5845 5852 18899  16816 18850 18988  12883 12884 12885  12955 18694 18695  8803 8851 19370  17772 17773 17774  9904 9906 19403  14407 14409 19332  10384 10386 19371  13096 13769 14581  8300 8301 8302  17478 17479 17480  11486 12538 14102  8506 9206 18958  18482 22267 22271  19155 19156 19157  12361 12363 19144  11223 12669 19279  9491 22200 22263  17854 17855 17856  16264 19676 21760  15012 19152 22305  18634 18635 18636  9352 19537 19546  11240 12842 19239  8516 8518 9092  7365 18871 18872  17384 17386 17387  14333 14524 19311  13858 18652 19859  18104 18106 18109  11158 11159 11160  8754 8755 8756  13809 18009 18010  15102 15131 16088  9896 9897 9898  10362 10363 10364  13789 14619 19144  14593 15686 19281  14329 15025 19330  8448 19488 19497  7825 7826 7827  10729 10731 12625  12227 18633 18634  7548 22050 22638  16788 16789 16790  13530 13555 14009  14431 14432 14433  11500 19022 19025  13522 13524 14010  10797 10915 10916  7847 9103 19002  11363 12722 19937  16193 16194 16459  18111 18113 18116  10573 10575 19108  12627 18989 19114  14356 17323 21847  14446 14447 14448  8390 8558 19310  11161 11163 19392  13632 18722 19749  7816 7818 7819  8973 8974 8975  11440 12140 19757  13144 13604 13605  16158 22332 22346  15496 15498 16118  7837 11493 18709  19418 19425 19426  10564 19773 21974  14488 14489 14490  7829 7831 8131  13469 13471 15042  16192 16193 16194  8982 8983 8984  8324 8325 8326  7618 18875 18876  8739 8740 8741  13557 14132 14133  8305 11469 18719  18106 18107 18108  10425 10500 19930  13896 13897 17617  11278 12391 19283  7808 7810 19942  11480 15911 18277  13130 14069 19575  11547 15127 19569  8394 11530 19328  16075 19489 22577  11430 11431 11432  9579 19546 21976  10095 10096 10097  18570 18572 18573  13695 15592 20870  19109 19111 19112  18694 18695 18696  14216 16703 19481  9002 9004 12835  8309 8570 19233  14200 14202 15662  13238 13240 13287  13880 16060 16061  7792 7794 8080  8398 8549 19333  11327 11329 21869  10109 10111 22137  19294 19295 19296  10509 18592 18593  10733 10735 21727  9879 9881 11443  10429 11557 20030  19178 19179 19199  20037 20038 22071  10427 10500 20030  18609 18613 19857  10506 22070 22072  18458 22412 22434  18523 18524 18525  13865 14579 14580  11493 18709 18710  16097 22873 22877  9206 14947 15678  15276 16197 16198  7995 8138 19346  9870 9958 18606  8756 8757 8758  19448 21921 21991  7827 7828 7829  13606 14314 14537  7849 7851 19044  9389 11545 19555  13863 14548 14549  15884 17577 18648  9895 9896 9897  18221 18225 22160  12115 12116 12117  14494 14496 18960  10389 10390 10477  12233 12235 13612  18503 18505 18508  9523 9525 18561  9898 9899 9900  16495 19711 22380  12122 12124 12125  12034 12036 19832  11158 18591 19171  19448 21921 21998  10105 10106 10107  10406 10408 10479  11323 12666 21739  13431 14599 19351  10807 11445 14588  5943 18901 19130  9370 11544 19552  16226 19827 21815  12518 21743 21928  14586 19362 19363  13422 16056 21864  12125 12126 19399  14244 15838 16451  13516 13518 16071  10815 10816 10817  14458 16098 17530  11186 12679 19457  19244 19247 19249  10790 10791 10792  7825 7827 18669  9899 10600 19775  18749 18752 21831  16573 16574 16575  18722 18725 19749  8965 8967 9065  9525 9527 9528  10725 10727 12444  8139 19375 19376  12678 18679 18680  18682 18684 18690  8408 8548 19359  10396 10398 18769  7620 18866 18867  8321 8322 8323  18609 18610 18611  13475 15055 18660  18992 18995 19282  8080 18446 18447  8049 8051 18092  9873 10647 22007  14582 15172 15276  12245 12247 18679  9347 9348 21766  7863 19026 19028  18643 19752 21723  8733 18277 21871  13062 13064 14016  13804 18557 18558  13124 19676 21760  13048 13869 18264  13888 14457 18586  7831 7833 18662  10816 10817 10818  17398 17399 17400  18108 18110 18111  18634 18637 19854  15079 15116 18568  12238 12241 21995  18710 18712 18713  14492 14494 18602  10364 10365 10366  10474 17899 19739  13632 18721 18722  19504 19505 19506  11159 11160 11161  11544 15184 19552  10423 18531 19930  19002 19003 19004  9900 9901 9902  10359 10360 10361  13366 13368 21729  10400 10402 10480  19037 19038 19039  10553 19798 21961  10816 10818 10918  14002 15138 19154  11545 15175 19555  9704 18065 22367  9006 9008 9048  8713 8715 18294  12034 12035 12036  13057 13059 13060  16065 22467 22476  13473 13475 15055  12227 18634 19854  10366 10367 10368  14077 14078 14244  20023 20026 22143  13240 13287 18649  11169 12395 19666  9562 9565 9566  16818 18850 18857  12986 19423 19424  9648 9682 21821  8748 8750 18554  16560 22321 22428  7818 7819 7820  10355 10487 18796  8326 8328 11494  16032 19562 22231  8758 8759 8760  8332 9104 18859  13126 14216 19481  18871 18872 18873  9315 9319 19387  9442 9489 19343  8741 8742 8743  12128 12130 18957  7829 7830 7831  9897 9898 9899  14612 14613 19581  13477 16093 16094  15499 15500 15501  8512 11528 21881  16459 16460 16461  18696 18697 18698  12881 12882 12883  19133 19431 19432  8138 19346 19348  8418 8547 19400  13467 13468 13469  19470 19855 21769  8321 12177 19960  12283 13593 19326  16194 16459 16460  10394 10396 10481  7455 18879 18880  13579 18252 18257  12499 13841 13843  10386 10388 10389  7861 9105 19026  7853 7855 18956  9152 11554 19410  13402 13405 19706  14796 14798 22561  14598 18545 19579  8326 8327 8328  11156 11158 18591  13242 13244 13858  17469 17472 18538  12126 12128 12446  12038 12040 12958  17388 17389 17390  14494 18602 18960  7820 7821 7822  13139 15091 19810  9297 9298 9299  18305 18307 18308  18721 18722 18723  18652 18655 19859  9476 9480 19572  13561 14469 22446  15882 15884 17577  9104 18859 18860  17518 17520 17523  13088 13090 15176  11432 11433 11434  10542 19800 21956  10206 12539 19043  10388 10389 10390  17769 17771 17772  12124 12125 12126  9480 9519 9520  18680 18681 18682  8760 8761 8762  11164 11538 19714  18192 18193 18194  13816 19411 19419  18249 18742 18746  19355 19356 19358  9436 9500 19368  9347 19524 19525  19585 19752 21723  11368 11448 19982  18875 18876 18877  9884 10593 19665  14500 15634 19512  12029 12031 12726  7835 7837 11493  16568 16569 16570  12499 13843 18560  9487 19537 19538  11160 11161 11162  18614 18617 18618  11386 12426 19682  16910 16913 16914  14457 14458 18577  12627 19109 19114  9105 19023 19024  10719 10721 12442  13065 13066 13067  13236 13237 13238  18770 18771 18773  16825 18672 18673  12231 12233 21948  18637 18639 21948  19673 19674 19675  14256 17686 19911  12243 12245 12678  14627 19612 19744  12964 18971 19795  13463 13465 13467  12110 12111 12112  19111 19112 19113  14218 16435 18268  11356 11372 19756  16570 16571 16573  7831 7832 7833  12745 16233 16234  18687 18688 18691  15002 19848 22188  10380 10470 18707  18166 18167 18168  16816 16817 16818  10792 10793 10794  12031 12033 19341  16461 16462 16463  11434 11435 11436  11345 12688 19731  13469 13470 13471  12937 19076 19085  10368 10369 10370  9301 9303 9316  11317 12506 19435  7815 16262 18583  16514 18180 18181  18111 18112 18113  14125 16665 19573  7259 7266 19648  10382 10384 11496  12253 12255 18720  11161 11162 11163  9899 9900 9901  2100 2807 18849  2261 2807 18844  6895 6902 18798  6853 6860 18821  7822 7823 7824  8762 8763 8764  18115 18117 18118  14621 19015 19744  17522 17525 17925  17281 17282 17283  14526 14528 14529  10378 10380 10470  17407 17408 17409  15919 19980 21959  12128 12446 18957  8323 8324 8325  10575 19107 19108  14518 19165 19166  9521 9523 19226  13888 14015 14457  12609 19917 19922  11917 20053 20406  12117 12118 12119  17755 17756 17757  8330 8332 9104  7839 7841 8142  11132 11183 20035  9902 9903 9904  15504 15505 15506  13021 18720 19086  19763 19767 19769  12506 19435 20002  14490 14491 14492  10370 10371 10372  16818 16819 16820  16226 18271 21815  17465 17467 22220  10361 10362 10363  18216 18218 18642  13446 14586 19362  10818 10918 19604  8743 8744 8745  13546 17492 17614  18113 18114 18115  18222 18225 18226  12349 12406 21735  18751 18755 21831  7857 7859 19022  19588 19694 19725  11413 11414 11415  8328 8329 8330  14479 14480 14483  18332 18333 18334  12247 12249 12955  7895 8139 19375  13354 13356 19580  9897 9899 19775  13843 14260 14261  13066 13067 13068  12379 13009 19404  7877 9106 19355  18971 18975 19795  7461 19645 19646  11359 11361 19927  14478 19169 19170  11436 11437 11438  14206 14210 16716  9888 11495 19518  7833 7834 7835  10018 11536 19843  8748 18554 18775  10785 10787 22227  13366 16047 21729  19249 19250 19253  13041 13042 13043  12245 12678 18679  8764 8765 8766  19107 19108 19110  9904 9905 9906  18683 18686 18687  14588 14589 17336  12307 12937 19847  12416 18188 18455  9299 9300 9301  16030 21896 21924  14178 16815 16816  11503 19942 19943  13046 14030 14479  16823 19203 22401  12325 13816 19411  13471 13472 13473  12365 14617 19662  14078 15838 15894  14239 14240 14241  10353 10355 10487  17527 17529 17815  4144 7450 18863  5887 7620 18866  4221 7368 19564  4158 7622 18908  5782 7457 18864  5796 7621 18909  4256 7624 18903  4249 7624 18912  18680 18682 18684  16460 16461 16462  9576 13097 15072  16544 17813 19576  11167 11169 19666  16575 16576 16578  12335 12986 19423  13663 19064 19802  12996 19595 19596  18867 18868 18869  15686 16225 16653  9557 9558 9559  13233 18557 21813  14594 16226 19827  18633 18635 18641  12042 12044 13594  9500 22258 22308  10372 10373 10374  7833 7835 19663  13738 13739 14206  16820 16821 16822  12351 12406 19430  7819 7821 11476  7849 19002 19044  14537 14538 15831  13490 13492 19167  8752 8813 19237  18168 18169 18170  12251 12253 13021  15042 18786 18787  18557 18558 18559  11171 11173 19396  12138 19015 22241  9206 15678 18958  9906 9907 9908  9296 9297 9298  16822 16825 18672  12822 12823 12824  12820 12821 12822  12818 12819 12820  12816 12817 12818  12814 12815 12816  12812 12813 12814  12810 12811 12812  12808 12809 12810  12964 18970 18971  14622 14623 14624  14401 14403 19460  9403 9426 19507  16463 16464 16679  12688 19731 21811  12806 12807 12808  18651 18653 18657  16816 16818 18850  12798 12799 12800  19498 19499 19503  8766 8767 8768  12796 12797 12798  9472 9474 9477  10794 10795 10796  14593 14594 15686  18695 18696 18697  12794 12795 12796  8319 8321 19960  12638 19078 19808  7835 7836 7837  12879 12880 12881  13497 13499 19352  9397 9491 19510  16820 16822 16823  7823 7825 9102  10820 11841 19604  18826 18827 18828  13362 14598 19579  7939 9111 19491  7945 8136 19492  14524 19313 19314  7824 7825 7826  13097 15867 19834  14481 19321 19322  8510 11818 19806  10598 19558 22141  12792 12793 12794  8434 9117 19577  18079 18080 18081  14492 14493 14494  10477 14594 19827  16665 19573 19574  18663 18665 18666  18879 18880 18881  9015 9056 19959  8512 8514 11528  10060 11515 19490  11197 11950 19839  13741 19117 19826  12804 12805 12806  15085 15098 18701  12790 12791 12792  18882 18883 18884  9330 9332 19463  12036 12038 19020  18652 18653 18654  10050 11514 19480  14337 14339 19315  9344 9347 19524  7961 9112 19498  8721 8723 8857  13246 13248 13857  9901 9902 9903  14343 14345 19319  14519 19317 19318  10477 14593 14594  12365 12366 19662  15137 15138 17961  9354 9487 19537  12255 12257 13632  15894 15895 18103  13235 13774 21813  10040 11516 19479  7853 8144 18956  9360 9385 19547  4137 18837 18843  14349 14351 19323  17899 17903 19739  12119 12121 12122  12788 12789 12790  12609 19917 19923  11163 11164 11165  12440 18990 18991  8745 8746 8747  18803 18804 18805  9301 9302 9303  7451 18882 18883  10366 10368 10472  13473 13474 13475  15247 15811 18516  11162 11164 19714  14265 18914 18915  18619 18621 18624  19064 19067 19802  18970 18971 18972  15231 15232 15233  9874 11471 19610  14391 14393 19496  13120 13124 19673  14594 15686 16225  10030 11517 19433  16028 22242 22277  17529 17815 17816  14433 14434 14435  9895 9966 19345  8330 8331 8332  8497 9196 19586  14599 15053 16062  16494 17843 19561  9451 13097 19834  17409 17410 17411  8768 8769 8770  11162 11163 11164  9908 9909 9910  15790 19454 19455  11138 11139 11140  12112 12113 12114  10363 10364 10365  10020 11536 19406  15433 15436 19607  19470 19472 21769  7851 7853 8144  9310 9311 9494  9466 9468 9478  10817 10818 10819  12786 12787 12788  11484 11485 11486  15064 15083 18765  15776 17340 19743  18644 18645 22249  17389 17390 17391  17171 17173 17178  10372 10374 10471  18990 18991 18992  13615 14178 18988  10374 10375 10376  7837 7838 7839  12038 12958 19020  11888 20150 23093  10643 14607 19721  8081 18748 18749  18297 18301 18302  17396 17398 18562  19683 19684 19693  11165 11166 11167  8495 8497 19586  19078 19083 19808  18888 18890 18897  7826 7827 7828  10807 10808 21726  12253 13021 18720  11255 22276 22306  13134 14125 19573  15369 15370 17152  10376 10377 10378  14207 14209 16670  10575 10577 19107  4956 7473 19788  10390 10392 19827  10421 10499 18531  10159 10188 20042  10157 11552 20042  18103 18104 18105  10481 18769 18770  11415 11416 11417  18105 18107 21752  14585 18961 18962  10396 10481 18769  14550 17383 17384  13427 13550 21983  16822 16824 16825  19117 19122 19826  19586 19587 19588  9451 9452 9576  11488 11490 11540  9928 11525 19344  13338 16030 19774  10577 10586 12441  9910 9911 9912  18710 18711 18712  11947 12205 12206  7845 7847 9103  10203 10205 17992  16462 16463 16464  10796 10797 10915  9866 22895 22897  11438 11439 11440  8770 8771 8772  17466 17467 17468  17856 17857 17858  16140 16158 19563  12784 12785 12786  16041 22309 22331  6888 7568 22233  15742 17169 17170  7847 7849 19002  11168 11232 19836  10723 10725 19857  9307 9309 9310  15861 15863 22090  11327 19771 21869  14483 14484 14485  14478 19168 19169  13066 13068 14167  11331 12996 19595  18610 18612 18615  13248 13250 18793  11203 11265 19556  17516 17518 18984  19346 19347 19348  8824 12515 13863  11184 11186 19457  10069 13402 19706  13096 14581 21907  10704 22887 22892  8336 8338 8583  9501 19464 19465  15902 19953 21781  9918 11513 19238  11968 18552 22136  18828 18830 18831  7839 7840 7841  8746 8748 18775  13759 13760 15755  19258 19550 22248  11440 11441 12140  13250 13252 13854  13663 19063 19064  17464 17465 17466  18722 18723 18724  10829 10831 11395  9501 19465 19855  7266 7273 19649  10378 10379 10380  12261 12263 13631  12132 12134 12139  8325 8326 8327  9460 9462 9493  17462 17463 17464  18890 18897 18898  12249 12251 19732  17855 17856 17857  13238 13239 13240  14093 14541 14542  18623 18626 18627  15072 15073 15369  13675 15592 15693  14403 19458 19460  13097 15072 15074  12273 12275 18969  14487 14488 14489  13027 18969 19350  7808 18783 19942  11740 11742 12530  12122 12123 12124  9582 19555 21860  19805 19835 21845  13250 13854 18793  15495 15497 15824  15884 15886 18648  17802 17803 17804  7981 7983 19515  8380 8382 19549  13514 13598 22057  9903 9904 9905  14178 16816 18988  16679 16680 16681  13025 19683 19693  17782 17783 17786  9100 18851 19410  11525 22378 22412  16154 16159 19582  8747 8748 8749  10477 14592 14593  8348 8350 19075  10622 10784 22037  18118 18119 18120  12782 12783 12784  12140 12141 12153  12488 18984 22163  18972 18974 18976  13117 13120 19673  13067 13068 13069  12638 19077 19078  14190 15105 15106  7828 7829 7830  13089 13092 21907  19063 19064 19065  8448 8450 19488  14481 19320 19321  13738 14206 14210  9303 9304 9305  18992 18993 18995  13475 13476 13477  17757 17758 17759  13699 13701 15532  18194 18195 18196  8311 8313 11956  9451 9576 13097  17906 17908 19977  8772 8773 8774  12438 19046 19047  14950 21743 21928  14519 19316 19317  7841 7842 7843  9905 9906 9907  20050 21730 21782  11547 13099 15125  11164 11165 11166  14002 15137 15138  19046 19047 19048  11266 11267 19613  18992 18994 19282  10365 10366 10367  10600 19775 19776  13741 19116 19117  18522 18523 18524  7203 7458 19616  6139 7385 19633  3157 7391 19624  3661 7627 19654  4851 7639 19640  6230 7383 19632  6160 7469 19651  1050 7463 19638  6097 7629 19636  4809 7632 19634  6104 7629 19631  1085 7377 19637  3906 7389 19629  3171 7635 19656  7252 7461 19645  1099 7630 19642  4795 7376 19639  5999 7637 19653  7231 7381 19643  4865 7474 19641  6041 7387 19635  6062 7464 19652  18120 18121 18122  17396 17397 17398  10384 11496 19371  9959 10643 19721  7857 11500 19022  8499 8502 19715  19285 19292 21967  14498 14500 19512  9689 21896 21924  9908 11524 19489  12033 12034 12035  15755 15756 16646  13477 13549 16093  19077 19078 19079  7879 7881 19356  11846 22568 22588  14078 15894 21770  14485 14486 14487  11167 11168 11169  10380 10381 10382  12530 12531 13887  7855 7857 11500  8774 8775 8776  14101 14218 16603  15166 19458 19459  14088 14089 16442  10569 10571 18989  4144 5971 7450  4151 4158 7622  4165 4172 7367  5803 5810 7362  5901 5908 7365  5754 5761 7364  5887 5894 7620  5824 5831 7453  5852 5859 7363  5775 5782 7457  4186 4193 7452  4214 4221 7368  4263 4270 7369  5789 5796 7621  5873 5880 7451  5838 5845 7623  5950 5957 7366  4200 4207 7619  5929 5936 7455  5915 5922 7618  4249 4256 7624  4235 4242 7454  12361 13705 19144  16681 16682 16870  7620 18867 18868  8754 12512 19237  19464 19465 19466  7217 19779 19780  19116 19117 19118  9903 11534 19944  9912 9913 9914  9885 9887 9967  13705 19138 19140  18889 18890 18891  19376 19377 19378  12097 13878 14587  14518 19164 19165  13318 20656 21720  13490 19166 19167  13396 13398 19154  13662 19029 19030  13871 14451 14620  15482 15484 17218  12271 12273 13027  18805 18807 18808  11143 11463 13041  14494 14495 14496  8332 8333 8334  16059 19006 19007  18686 18687 18688  18504 18506 18507  7804 7806 8069  19188 19190 19191  14004 14323 19559  18617 18618 18619  10915 10916 11444  14264 15742 18913  12036 12037 12038  14210 16716 16749  12629 19045 19057  14269 15790 19454  19462 19463 19477  18681 18682 18683  12275 12277 12964  13398 14002 19154  9100 9152 19410  11819 18492 22108  15501 15502 15503  7861 7863 19026  10331 19811 21403  7865 7867 8156  9581 13101 15147  14002 15136 15137  11734 11735 11736  13821 14264 14265  8133 19175 19176  11505 19372 19373  12285 12287 19327  8776 8777 8778  19088 19089 19090  18105 18106 18107  13497 19170 19352  12097 14587 21910  14337 19314 19315  8749 8750 8751  11335 13564 19679  16442 16443 17126  19588 19589 19590  14455 15195 16064  9456 9458 11504  7843 7844 7845  9527 9528 9529  10571 10573 12627  12436 19088 19089  9730 20050 21730  9914 9915 9916  16197 16198 16487  11882 22167 22197  12060 12641 21770  15436 19607 19608  15444 15445 17142  14804 15054 22433  9330 19462 19463  19248 19251 19796  19251 19277 19796  12780 12781 12782  8342 8344 11502  19102 19104 19105  14102 14628 15707  9313 9315 19387  17857 17858 17859  17169 17170 17171  10382 10383 10384  10012 10190 22136  14343 19318 19319  12113 12115 22128  15125 15127 15444  13124 19673 19674  19030 19031 19032  10577 12441 19107  8506 8508 9206  9907 9908 9909  11161 12071 19392  9427 9428 11547  14461 19208 19209  16815 16816 16817  9309 9310 9311  10107 10108 10109  8327 8328 8329  14581 14582 15172  19048 19049 19050  8768 12517 22566  19465 19470 19855  7859 7861 9105  14393 19494 19496  9448 9450 9451  14349 19322 19323  9876 9878 10594  19540 19543 19606  14543 15089 16027  8056 12599 19950  12153 12154 12227  11376 11378 19585  13467 13469 18786  14471 19221 19222  12281 12283 13593  10566 10569 12440  11339 13025 19683  4291 4298 22278  12114 12115 12116  12257 12259 19749  12387 12448 13759  12877 12878 12879  9916 9917 9918  14524 19312 19313  13587 19062 19461  9882 9884 10593  8352 8354 19372  19079 19080 19081  12388 14614 19759  8778 8779 8780  19863 21720 21750  10478 15807 19570  7830 7831 7832  17170 17171 19553  15024 21809 22312  19525 19526 19527  9290 9292 11501  9315 9318 9319  19076 19077 19085  9362 9364 21781  9904 10648 19403  13448 13450 19367  11166 11167 11168  16222 17994 19678  12283 12285 19326  15150 19494 19495  13429 13431 19351  15775 15776 19743  13880 16061 19758  12259 12261 19218  9322 9324 19369  9196 19586 19587  14597 15866 17834  18801 18810 18811  19375 19376 19377  10367 10368 10369  10111 10112 10113  15506 15507 15508  14455 16064 17587  11545 13102 15173  15033 15062 19042  13233 13235 21813  8346 8348 8584  9320 9322 9613  15447 15448 17139  12297 12299 19062  12684 19101 19102  7845 7846 7847  14618 15568 17007  9442 9444 9489  8984 8985 8986  9897 19345 19775  7621 18909 18910  19411 19412 19413  18041 18043 18044  9564 13865 14579  13099 15892 19851  9583 19569 21938  19951 19980 21959  18626 18627 18628  11353 12982 19770  5873 7451 18885  13887 13888 18586  12678 18680 18681  12632 19087 19099  10362 10364 11492  10356 10358 10482  9412 9413 9581  11382 12458 19807  14598 15012 16028  9298 9299 9300  10384 10385 10386  9427 13099 19851  19466 19468 19469  11508 19485 19486  12842 19247 19248  11376 19585 19752  9305 9306 9307  19762 19763 19769  10478 15009 15807  12412 13738 19680  13789 14617 14618  11544 13103 15182  9890 9892 9956  15182 15183 19672  8780 8781 8782  16029 16070 18965  18122 18123 18124  9440 9442 19343  15147 15148 15447  13729 14616 15623  19134 19135 19136  12673 19131 19132  9336 9338 21769  12287 12289 14088  19090 19091 19092  9494 13100 15775  13509 19147 19148  18997 18999 19000  13431 13547 14599  14627 19612 19745  8152 19500 19501  13107 13109 13110  14464 19211 19212  19538 19539 19540  15894 18544 21770  19022 19023 19025  12273 13027 18969  12383 12385 13662  9918 9919 9920  16464 16679 16680  11506 19173 19174  10109 10110 10111  16870 16871 16872  18721 18723 18738  7881 7883 8134  15832 16772 16773  18971 18972 18974  16817 16818 16819  14593 14595 19281  8784 8785 8786  9436 9438 9500  13739 14206 14207  12309 12311 19076  9519 9520 9521  18216 18224 18642  7847 7848 7849  8348 8584 19075  17390 17391 17393  9909 9910 9911  15139 19204 19205  13354 19580 19856  8054 8081 19950  15875 15877 17003  19527 19528 19529  19413 19419 19420  8350 8352 11505  9491 22263 22297  7832 7833 7834  18107 18108 18110  17283 17284 17285  12295 12297 13587  17516 17517 17518  15456 15457 17133  7877 7879 19355  14272 15790 19829  15902 18517 21781  9901 9903 19944  13049 13868 13870  13455 14995 19681  11388 12411 19682  12841 13882 13884  14229 15663 16436  14475 15075 16045  15173 15175 15456  17171 17178 19553  11190 12388 19759  8717 8719 11474  10560 10562 12629  9596 9597 19001  18574 18575 18576  9434 9436 19368  19499 19500 19503  9574 9598 18777  9480 9520 19572  10386 10387 10388  19590 19591 19592  17499 17502 17570  11527 19519 19520  19423 19424 19427  19500 19501 19502  19356 19357 19358  9388 9389 11545  7816 7817 7818  12299 12301 13663  19132 19133 19134  15623 15625 16625  10355 10357 18796  15776 17339 17340  12317 12319 19115  15742 17170 18913  13099 15125 15126  9428 9430 19569  13411 13446 14586  19540 19541 19542  13068 13069 13070  19466 19467 19478  11188 12679 19759  15182 15184 15466  15466 15467 17130  8358 8360 19129  9920 9921 9922  11169 11170 11171  10555 10558 12438  19148 19149 19150  10571 12627 18989  10558 10560 19045  14403 14405 19458  9415 9417 18987  1064 7470 19778  10390 10391 10392  14604 18852 19843  13446 13448 19362  9369 9370 11544  14496 14498 15657  14327 14329 19330  10643 14604 14605  9430 9432 9583  14498 15657 19512  7893 7895 8139  18636 18637 18638  1036 7463 19785  13843 14584 18560  12385 12387 19029  12381 12383 19405  7224 7381 19779  19150 22399 22416  14504 15360 19733  12379 12381 19404  13444 13479 19147  18330 18331 18332  10647 18464 22007  19807 21756 21814  7875 7877 9106  13450 13536 14543  9427 11547 13099  7887 7889 9107  15488 15490 18537  19587 19588 19589  12307 12309 12937  13266 14456 19812  12311 12313 12638  8334 8335 8336  11171 11172 11173  13481 13483 19163  13884 14470 14583  12371 12373 19101  19537 19538 19545  14125 15563 16216  12377 12379 13009  11386 11388 19682  7895 7897 19375  12341 12343 19342  18991 18992 18993  8975 8976 8977  12231 12232 12233  11166 11168 19836  9300 9301 9302  7879 19355 19356  8751 8752 8753  13235 13236 13237  12738 19239 19240  12373 12375 12956  13548 13550 19803  13488 13490 19166  17518 17523 18984  12315 12317 13646  9326 9328 9584  12357 12359 19131  12353 12355 19431  9423 9425 9427  14331 14333 19311  9318 9319 9320  8356 8358 8585  14611 18918 19839  9322 9613 19369  14947 14948 15515  19482 19483 19484  13398 13400 14002  19524 19525 19526  8380 19548 19549  13705 19140 19144  13437 13440 19670  18198 18199 18200  7849 7850 7851  8336 8337 8338  12319 12321 13741  10549 10551 12632  18196 18197 18198  14335 14337 19314  14529 14530 14531  12323 12325 13816  14405 14407 15166  7905 7907 8151  12369 12371 12684  13124 19674 19676  19052 19055 19056  17518 17519 17520  12285 19326 19327  7899 7901 9108  9896 9898 11023  19240 19241 19242  15354 15820 19717  10544 10547 12436  10014 14604 19843  12325 12327 19411  13362 13436 14598  11171 12395 19396  17847 17850 18067  10369 10370 10371  13495 13497 19170  9412 13101 19928  7640 19643 19644  13015 13016 13906  8786 8787 8788  17475 17476 17477  12279 12281 19353  12778 12779 12780  12333 12335 12986  14089 16442 16444  8329 8330 8331  14531 14532 14533  13906 13907 14525  15624 19125 19126  14496 14497 14498  12363 12365 13789  16872 16873 16874  10825 10827 12516  12335 12337 19423  11160 11162 11236  8360 8362 11508  14405 15166 19458  14604 14605 14606  10083 10085 11400  17473 17474 17475  12339 12341 13629  8352 11505 19372  14341 14343 19318  14397 14399 19208  13390 13392 13999  16113 18078 19713  7955 7957 22333  12343 12345 13729  8456 8556 19804  12359 12361 13705  13101 15898 19928  19593 19695 19696  12355 12357 12673  13240 13241 13242  9417 9419 9499  13442 13444 13509  12351 12353 19430  13394 13396 14000  9752 9850 20051  15903 18518 18519  7917 7919 8157  9922 9924 10645  12349 12351 12406  13479 13481 15071  9328 9330 19462  9912 9914 10646  19295 19297 19298  17470 17471 17473  17391 17393 17394  9916 9918 11513  7911 7913 9110  10392 10393 10394  7929 7931 19173  13125 13126 14216  13483 13488 14518  17520 17521 17522  11950 18918 21839  19176 19179 19180  10071 10528 19200  9906 9908 11524  9487 19539 19958  8362 8364 19485  9730 20050 21821  13386 13388 13389  10538 10540 12633  9932 9934 10644  7458 19780 19781  9922 9923 9924  19538 19545 19606  9959 10014 10643  9902 9904 10648  13101 15147 15149  10097 10098 10099  9908 9910 19489  14347 14349 19322  10823 10824 10825  19064 19065 19066  9872 9874 11471  16819 16820 16821  10534 10536 12437  9918 9920 19238  14395 14397 15150  13122 13123 13125  8788 8789 8790  14399 14401 14461  19377 19378 19379  13453 19681 22023  7931 7933 8133  9332 9334 9501  13492 13495 14478  10528 10530 12439  9926 9928 11525  14409 14411 14455  9928 9930 19344  12289 14088 14089  11173 11174 11177  18010 18011 18012  14353 14355 19235  10536 10538 19145  9409 9411 9412  12233 12234 12235  13382 13384 18267  7927 7929 11506  14357 14359 19231  15302 15304 18492  15312 15314 17991  16680 16681 16682  9412 9581 13101  7851 7852 7853  9417 9499 18987  12895 12898 19853  15332 15334 17707  10064 10071 10637  18920 18921 18938  10014 10643 14604  12277 12279 19795  15322 15324 17814  15338 15340 15896  15308 15310 15912  7943 7945 8136  7937 7939 9111  7939 7941 19491  15328 15330 15906  15318 15320 15909  10547 10549 19087  14393 14395 19494  9936 9938 11526  10764 10766 19354  11839 13350 19856  8744 8746 12514  14385 14387 15139  8366 8368 8586  7834 7835 7836  7953 7955 8150  10060 10062 19490  11136 21890 21969  11184 11374 19457  7949 7951 11507  7945 7947 19492  14389 14391 14464  10058 10060 11515  9389 9391 19555  10054 10056 10638  14608 14610 16921  13499 13502 14475  13256 13258 14453  10048 10050 11514  14491 14492 14493  11192 14611 19839  7947 7949 19493  12448 13759 13760  14069 19481 19482  13374 13376 16029  19094 19097 19098  13759 15755 15756  10044 10046 10640  10050 10052 19480  7965 7967 8152  10038 10040 11516  18134 21756 21814  7959 7961 9112  14381 14383 15129  12235 12236 12237  7951 7953 19206  10034 10036 10641  10024 10026 10642  7971 7973 9114  10028 10030 11517  9403 9405 9426  9682 20051 21821  18611 18613 18614  13120 13121 13122  18990 18992 18994  19133 19432 19750  10040 10042 19479  9446 9448 19834  10020 10022 19406  17468 17469 17470  10018 10020 11536  19471 19473 19474  7985 7987 8132  17627 22038 22122  14361 14363 19229  12126 12127 12128  10030 10032 19433  7995 7997 8138  8790 8791 8792  8005 8007 8143  8001 8003 11510  9401 9403 19507  8017 8019 8154  8011 8013 9113  8027 8029 8158  9183 9184 9185  8039 8041 8135  8035 8037 11511  9924 9925 9926  14377 14379 15124  19078 19079 19080  12388 14611 14612  12297 13587 19062  8338 8339 8340  9338 9340 9486  9911 9912 9913  10394 10395 10396  14489 14490 14491  19696 19697 19698  8460 13146 19761  14371 14373 14471  14365 14367 19227  9397 9399 9491  14367 14369 15112  13448 19362 19367  7963 7965 19499  17625 17628 17675  9114 13114 13115  12988 13913 13914  9294 9296 9683  8317 8319 8594  9395 9397 19510  8370 8372 11527  15095 15096 15097  16461 16463 16669  14359 14361 15093  14586 19363 19364  19530 19532 19533  9391 9393 9582  14369 14371 19220  14363 14365 15108  7961 7963 19498  9348 9350 9579  19117 19118 19119  8003 8005 19216  17522 17524 17525  8801 8803 19370  5922 7618 18878  9430 9583 19569  9370 9372 19552  9384 9387 9388  7853 7854 7855  18970 18972 18973  15773 17515 17516  8037 8039 19217  14355 14357 15090  13013 13014 13015  8368 8370 19219  14351 14353 15087  14600 15816 15817  16872 16874 17433  9344 9346 9347  9342 9344 19524  18638 18639 18640  12048 12050 12724  13536 14543 15089  11221 11223 19279  12366 12369 19662  14974 15300 19736  8445 19395 19497  9378 9380 9488  14387 14389 19211  9909 9911 19735  15639 16263 16668  9372 9374 9511  9352 9354 19537  9354 9356 9487  13405 14003 19706  14216 14217 15639  8376 8378 8587  16225 16226 16446  9487 19538 19539  9360 9362 9385  9366 9368 9369  8443 8528 19395  14345 14347 14481  9358 9360 19547  8792 8793 8794  12228 12230 12231  18928 18930 18946  13102 15173 15174  15486 15488 16121  7983 19514 19515  5908 7365 18874  9388 13102 19941  18943 18949 18951  14379 14381 19214  14611 14612 14613  19589 19590 19591  13069 13070 13071  19438 19439 19441  11223 11225 12669  12261 13631 19218  11219 11221 11393  18923 18926 18945  11227 11229 12738  12309 12937 19076  8358 8585 19129  11211 11213 11308  14339 14341 14519  11240 11245 12842  11215 11217 12651  7993 7995 19346  12412 13681 13738  14329 14331 15025  12116 12117 12118  12385 13662 19029  14383 14385 19204  13117 13119 13120  7461 19646 19647  8753 8754 8755  13071 13072 13073  13465 13467 13468  14333 14335 14524  19695 19696 19697  19047 19048 19049  14581 18328 21907  14269 14270 19454  9302 9303 9304  11203 11205 11265  7836 7837 7838  19412 19413 19414  10398 10399 10400  5894 7620 18870  11249 11252 13558  19259 19261 19263  10560 12629 19045  19286 19288 19289  10396 10397 10398  11229 11240 19239  10371 10372 10373  11207 11209 12397  18919 18920 18921  8986 8987 8988  13132 13134 19573  14399 14461 19208  8388 8390 8558  9871 11470 22007  9388 11545 13102  13503 13506 19708  13244 13246 19859  13134 13794 14125  11168 11169 11170  12676 19435 19436  13103 15182 15183  11177 11178 11184  13360 13362 19579  12317 13646 19115  14617 14618 15568  14325 14327 15013  18507 18510 18511  16130 16132 18968  19048 19050 19053  15913 20845 21058  13102 15900 19941  14613 18919 18920  19695 19697 19720  8372 8374 19519  19156 19158 19159  7855 7856 7857  14616 15623 15624  19382 19383 19384  11270 11272 12502  9926 9927 9928  8382 8384 9115  13115 13116 13117  8464 8550 19840  16134 16136 18484  11274 11276 12677  11201 11203 19556  9369 13103 19953  13468 13469 13470  14615 16586 16663  11197 11199 11950  11190 11192 12388  11192 12388 14611  13436 14598 15012  11519 11520 11521  19596 19597 19598  12801 12803 12804  9328 9584 19462  12381 19404 19405  19270 19272 19273  13730 18311 18314  12337 12339 19429  17525 17526 17527  13356 13360 19580  19538 19540 19606  13855 14269 14270  11521 11522 19772  16138 16140 19563  7897 7899 19386  9369 11544 13103  12688 19762 19769  14284 15792 19906  19132 19134 19135  11370 11448 19752  12996 19596 19597  10400 10401 10402  11520 11521 11522  9391 9582 19555  13662 19030 19031  11278 11280 12391  16140 16142 16158  8392 8394 11530  8396 8398 8549  12327 19411 19412  14990 15014 16032  11252 11266 19550  19540 19542 19543  11310 11313 21991  13128 13130 14069  16884 16886 17554  11819 21888 22020  18647 22528 22541  13444 13509 19147  14000 19156 19158  7891 7893 19434  16144 16146 18062  11186 11188 12679  11357 12609 19922  14395 15150 19494  12371 12684 19101  8390 8392 19310  15016 15020 18483  19090 19092 19095  8314 8316 18747  13481 15071 19163  10209 10211 11446  12341 13629 19342  11481 11482 11483  19436 19437 19438  8362 11508 19485  12301 12303 19802  12345 13729 14616  13850 14954 21987  11162 11236 19714  19125 19126 19127  15229 15230 15231  15336 15338 19509  19465 19466 19467  13488 14518 19166  8394 8396 19328  14542 15026 15027  19539 19544 19958  11284 11286 12451  14498 14499 14500  18518 18519 18520  12365 13789 14617  8340 8341 8342  12353 19430 19431  8069 18783 18784  12357 12673 19131  14003 19560 19706  13103 15902 19953  19464 19466 19468  12128 12129 12130  15013 19557 19558  16148 16150 17960  8400 8402 11531  11267 11270 19613  8398 8400 19333  14590 14600 15816  15022 15035 18263  9372 9511 19552  13821 14265 18916  9296 9683 22615  11537 19909 19910  11288 11290 13018  14088 16442 16443  9056 14649 19959  8556 11518 11519  8378 8380 19548  7857 7858 7859  9928 9929 9930  14988 14990 19562  19814 19817 19819  18110 18111 18112  12243 12244 12245  19466 19469 19478  13495 14478 19170  17527 17528 17529  8406 8408 8548  19031 19032 19033  11518 11519 11520  19917 19918 19923  12241 12242 12243  11276 11278 19283  9450 9451 9452  9913 9914 9915  16682 16870 16871  16821 16822 16824  14605 14607 14608  15326 15328 19511  9340 9342 19536  13130 13132 19575  16152 16154 19582  19089 19090 19091  9887 9967 19658  14327 15013 19330  19063 19065 19072  11292 11294 13609  9576 15072 15073  12313 12315 19808  10404 10405 10406  11177 11184 11374  18496 19933 19982  8331 8332 8333  19300 19302 19303  9886 9888 11495  16749 16750 16764  14608 14609 14610  8408 8410 19359  18200 18201 18205  7929 11506 19173  10402 10403 10404  12281 13593 19353  11522 14590 14600  13070 13071 13072  16154 16156 16159  14610 15346 15812  14493 14494 14495  11358 19756 21886  7977 7979 19571  14454 18494 18495  16102 20053 20406  11917 11918 20053  17633 19507 22330  19179 19180 19181  15039 15046 16055  15073 15369 15370  13054 13057 19421  14331 15025 19311  10071 10637 19200  11421 11422 11423  8131 18663 18665  8755 8756 8757  10406 10407 10408  8556 19804 19835  13502 14475 15075  12321 12323 19826  7798 7800 9101  9915 9916 9917  9889 9891 11498  12678 18681 21818  14335 14524 19314  8052 8081 18748  10536 12437 19145  16786 16787 16788  14464 19212 19213  7979 7981 9676  15037 15039 19583  13467 18786 18788  13089 13091 13092  13073 13074 13075  11296 11298 13652  10549 12632 19087  8410 8412 11532  15316 15318 19513  8368 8586 19219  7947 19492 19493  7951 11507 19206  14389 14464 19211  14972 14974 19736  19590 19592 19593  14461 19209 19210  10408 10409 10410  13126 13128 19481  12245 12246 12247  9930 9931 9932  14353 15087 19235  11513 22509 22528  10713 22458 22531  14341 14519 19318  14347 14481 19322  14357 15090 19231  7859 7860 7861  8455 8556 11518  15445 17142 17493  10389 10477 14592  14361 15093 19229  8416 8418 8547  11818 12840 12841  8418 8420 19400  19116 19118 19120  8502 12064 19715  13092 13093 13094  11547 15125 15127  7983 7985 19514  11184 11185 11186  12289 14089 21725  14365 15108 19227  8003 11510 19216  18015 18016 18017  8037 11511 19217  17477 17478 17479  14369 15112 19220  7838 7839 7840  19240 19242 19244  15127 15444 15445  10566 12440 21974  9932 9933 9934  9307 9308 9309  19525 19527 19528  7963 19498 19499  14385 15139 19204  15367 15821 19751  9853 10010 10011  15048 15050 19611  19079 19081 19082  14379 15124 19214  14502 14504 19733  9350 9352 19546  15883 15885 16288  8510 8541 11818  11419 11420 11421  8396 8549 19328  8372 11527 19519  16779 16866 17682  9444 9446 19422  8392 11530 19310  15050 15056 16057  13123 13125 13126  4641 7559 19584  14216 15639 16703  15306 15308 19517  11221 11393 19279  11347 12688 19762  13470 13471 13472  7712 7713 7714  8400 11531 19333  4221 4228 19564  5782 5789 18864  4144 4151 18863  5880 5887 18866  4256 4263 18903  5796 5803 18909  4242 4249 18912  4158 4165 18908  19295 19296 19297  7974 7977 19719  14089 16445 21725  19560 19706 21982  7457 18864 18865  8410 11532 19359  11169 11171 12395  13789 14618 14619  11359 12609 19927  19528 19529 19530  19411 19413 19419  12247 12248 12249  10809 10864 13047  7861 7862 7863  13121 13122 13123  11170 11171 11172  9380 9382 19554  9581 15147 15148  8420 11533 19400  14125 16216 16665  13850 14267 14954  11229 12738 19239  9206 14946 14947  16192 16194 16195  9405 9407 19551  16714 16777 17723  14069 19482 19483  12673 19132 19133  19134 19136 19137  19473 19474 19475  13729 15623 15625  19539 19540 19541  11545 15173 15175  8436 11535 19577  9419 9421 19523  15029 15094 15095  12369 12684 19662  8420 8422 11533  9340 9486 19536  11199 11201 19940  15148 15447 15448  8601 9100 18851  14543 16027 18065  11544 15182 15184  12099 18156 18445  14500 14501 14502  8378 8587 19548  9425 9427 9428  11315 11317 12506  14475 16045 17727  15100 15102 18986  15457 17133 17619  11252 13558 19550  19008 19010 19011  13370 13407 21964  15027 15028 15029  9917 9918 9919  15625 16625 16998  9934 9935 9936  9444 9489 19422  13914 14596 14597  15175 15456 15457  15182 15466 19672  16619 16711 16712  14598 16028 18545  9474 9477 19234  12130 12131 12132  12776 12777 12778  19439 19441 19442  7840 7841 7842  13509 19148 19149  11388 11390 12411  15184 15466 15467  14990 16032 19562  15074 15867 15868  12249 12250 12251  11186 11187 11188  15058 15060 19664  17759 17760 17761  8342 8343 8344  13794 14125 15563  8426 8428 8546  19597 19598 19599  16560 22321 22333  19149 19150 19151  13117 13118 19673  7863 7864 7865  9421 9423 19851  12738 19240 19241  12820 13688 19747  9138 11480 11481  15789 19334 19335  13119 13120 13121  9474 9476 19234  9411 9412 9413  19764 19766 19912  19532 19533 19534  12339 13629 19429  11372 19755 19756  11276 12677 19283  15817 18715 18716  15039 16055 19583  9346 9347 9348  12118 12119 12121  11167 11259 19666  9350 9579 19546  7973 9114 13114  12684 19102 19106  11546 21736 21737  10865 19746 20015  11317 11319 19435  14316 15113 21925  19241 19242 19243  8434 8436 19577  14323 19557 19559  9304 9305 9306  14514 17602 19727  11298 11309 19605  7893 8139 19434  11392 19563 22313  11319 11321 12676  19918 19921 19923  11370 11376 19752  7899 9108 19386  19272 19273 19274  10373 10374 10375  12293 12295 21893  15050 16057 19611  11270 12502 19613  13132 19573 19575  15060 15067 16063  9682 9752 20051  14599 16062 19718  11382 11384 19807  13072 13073 13074  12251 12252 12253  7991 7993 11509  9387 9388 9389  13350 13354 19856  8502 8504 12064  15338 15896 19509  11373 19683 19684  19436 19438 19439  14972 19736 21772  12253 12254 12255  19288 19289 19290  13242 13243 13244  7933 8133 19178  9368 9369 9370  11323 11325 12666  16824 16825 16826  9101 18762 18763  14620 17357 17358  14232 16649 19722  9419 9499 19523  15788 19360 19361  9405 9426 19551  7865 7866 7867  9380 9488 19554  15144 15145 15146  12327 19412 21732  12101 12858 19987  9936 9937 9938  13115 13117 13119  10818 10820 19604  14323 14325 19557  9311 9312 9313  11172 11173 11174  8746 12514 18775  15786 19401 19402  16544 16615 17813  18124 18125 18126  11165 11167 11259  10216 10602 19393  12238 12240 12241  16445 21725 21893  14495 14496 14497  16617 16619 19614  10763 10765 22175  10555 12438 21961  19026 19027 19028  16542 16544 19576  15060 16063 19664  9614 19151 22370  9893 9895 9966  17479 17480 17481  9919 9920 9921  18697 18699 18700  14266 19812 19813  7967 8152 19504  12345 14616 21735  13128 14069 19481  14373 14471 19223  12255 12256 12257  15328 15906 19511  15136 15137 16096  16480 22296 22396  9310 9494 13100  10822 11841 19844  8757 8758 8759  10824 10861 19844  18094 22623 22624  13260 13262 14454  7842 7843 7844  13472 13473 13474  11343 11345 19731  13376 16029 16070  7867 7868 7869  11188 11189 11190  12641 13706 14077  18112 18113 18114  19412 19415 21732  13342 13344 19833  7985 8132 19514  19349 19407 19408  14261 15767 18961  12411 12412 19680  7196 7633 19616  3493 7638 19629  7245 7640 19645  3213 7635 19624  6111 7462 19631  4816 7475 19634  6146 7628 19633  6048 7644 19635  6090 7386 19636  1092 7630 19637  1057 7626 19638  6055 7644 19652  3738 7389 19654  1106 7472 19642  4802 7632 19639  4858 7639 19641  7238 7640 19643  4844 7375 19640  5992 7388 19653  6153 7628 19651  6223 7645 19632  4032 7480 19656  9012 9015 19959  14612 14614 14615  15608 15869 19797  13427 13548 13550  12241 12243 21818  5936 7455 18901  9940 9941 9959  9313 9314 9315  9938 9939 9940  11543 19907 19908  11319 12676 19435  11440 18569 19757  11911 18064 22493  8344 8345 8346  11245 12842 19796  7210 7458 19780  13388 13389 13390  19436 19439 20002  16871 16872 16873  15069 15081 17959  9407 9409 19928  13146 19804 19805  11483 11484 11485  8432 8434 9117  14616 19124 21735  19924 19927 19937  8813 18554 18555  17501 22099 22155  16494 16542 17843  13237 13238 13239  11298 13652 19605  14502 15634 19733  15318 15909 19513  18614 18616 18617  14411 14455 15195  9959 9960 10014  18599 18600 19671  17400 17401 17402  14501 14502 14503  13125 14216 14217  12395 19396 19397  19686 19688 19691  19363 22304 22327  11521 11523 13855  16492 16494 19561  15348 15350 17038  16446 18271 18272  18566 22191 22235  18217 18219 18221  14615 15390 16586  8497 8499 9196  10544 12436 21956  12738 19241 21740  10375 10376 10377  16495 19710 19711  13574 17572 19938  16764 16765 16844  11888 20150 23094  12249 12955 19732  8346 8347 8348  12331 12333 21892  18114 18115 18117  8436 8438 11535  12257 12258 12259  19439 19443 20002  12259 12260 12261  11378 11381 19585  13360 19579 19580  9315 9317 9318  13469 15042 18786  14497 14498 14499  13114 13115 13116  7993 11509 19346  12676 19436 19437  14499 14500 14501  11384 12426 19807  13547 14599 15053  9303 9305 22113  22050 22051 22052  13855 13856 14269  11534 19945 19946  12261 12262 12263  13841 13843 14260  11329 11331 12996  11331 11333 19595  8138 19349 19407  16280 16492 16495  14613 18918 18919  14217 15639 16263  14502 14503 14504  14269 14272 15790  7979 9676 19571  15183 15903 21935  11423 11424 11425  12132 12133 12134  9921 9922 9923  12035 12036 12037  13077 13080 13890  19765 19767 19768  10818 10819 10820  9940 9959 19721  13075 13076 13077  11425 11426 11427  13400 14002 15136  18468 18470 22024  9334 9336 19855  17898 17899 17901  10390 10477 19827  18531 18532 18533  7566 18813 18814  15308 15912 19517  13082 17572 17933  11337 13025 19679  11190 11191 11192  15793 19336 19337  12982 19770 19912  13681 13738 13739  19586 19588 19725  9382 9384 19941  14500 14502 15634  11493 18710 18711  18010 18014 22064  13509 19149 21749  19437 19438 19440  11384 11386 12426  11174 11177 11178  8462 8550 19761  9648 9730 21821  11333 13564 19595  12844 19762 19763  13120 13122 13124  12263 12264 12265  10784 11966 22037  12228 12231 19854  8348 8349 8350  16619 16712 19614  13368 13374 21729  8441 8443 8528  12411 19680 22027  11381 12458 13136  7844 7845 7846  14505 14506 14507  19684 19685 19686  7873 7874 7875  11059 11060 11061  13710 13711 16722  11159 11161 12071  11522 13910 14590  12182 12210 13689  8455 8456 8556  7875 7876 7877  18317 18318 18325  8468 11546 21736  7999 8001 19516  19951 19952 19980  8759 8760 8761  9364 9366 19953  8333 8334 8335  10582 10658 11925  10583 10658 10659  19763 19765 19767  13455 13876 14995  15352 15354 19717  14261 14585 18961  13060 19421 21746  13115 13119 21733  10350 10478 19570  12121 12122 12123  16542 17843 19576  10018 10019 10020  10377 10378 10379  12458 13136 13565  7997 7999 19407  18921 18922 18923  12038 12039 12040  11429 11430 11431  11333 11335 13564  11341 11373 19683  7877 7878 7879  15354 15356 15820  12257 13632 19749  13116 13117 13118  9581 15148 21759  16220 16222 19678  14272 14274 19829  11335 11337 19679  12134 12135 12136  19241 19245 21740  9850 20047 20051  10410 10411 10412  10020 10021 10022  7846 7847 7848  15126 15892 15893  9923 9924 9925  19415 21732 21892  17176 17177 17179  11339 11341 19683  14507 14508 14509  14503 14504 14505  8350 8351 8352  9320 9321 9322  12695 18014 22359  19764 19770 19912  14511 19727 19741  12676 19437 21739  19686 19687 19688  7879 7880 7881  16278 16280 19710  13084 14005 15865  17388 17390 17429  13077 13079 13080  18724 18725 18726  15097 15141 15142  10022 10023 10024  14612 14615 19581  11355 11357 19922  18923 18924 18926  7203 7210 7458  6062 6069 7464  6111 6118 7462  7252 7259 7461  7189 7196 7633  5082 5089 7370  6048 6055 7644  6097 6104 7629  7238 7245 7640  994 1022 7378  1106 1113 7472  6230 6237 7383  6083 6090 7386  4802 4809 7632  4921 4928 7634  4998 5005 7642  5033 5040 7371  3416 3472 7390  3738 3906 7389  1078 1085 7377  4956 4963 7473  7308 7315 7625  3010 3990 7465  3661 3822 7627  6160 6167 7469  7294 7301 7471  6146 6153 7628  1092 1099 7630  7224 7231 7381  7175 7182 7382  6034 6041 7387  4788 4795 7376  4816 4823 7475  4851 4858 7639  4886 4893 7374  4935 4942 7373  4970 4977 7631  4984 4991 7372  5012 5019 7468  4837 4844 7375  4865 4872 7474  4907 4914 7476  5985 5992 7388  3157 3199 7391  6181 6188 7384  7322 7329 7379  7273 7280 7380  6132 6139 7385  1036 1050 7463  1015 1064 7470  3304 3493 7638  1001 1043 7643  5999 6006 7637  1057 1071 7626  6251 6258 7466  6202 6209 7477  5054 5061 7479  6013 6020 7478  4004 4032 7480  5068 5075 7636  6216 6223 7645  3171 3213 7635  6265 6272 7641  3409 3577 7467  10359 10361 10497  11427 11428 11429  15431 15433 19607  10352 10354 11479  18681 18685 21818  8428 8546 19707  17761 17762 17763  13415 14986 19858  12269 12270 12271  16222 16276 17994  7881 7882 7883  17285 17286 17287  18711 18712 19339  14514 17601 17602  19688 19689 19692  8458 13146 19804  11509 19346 19347  14409 14455 19332  8727 8729 9138  16492 16495 19561  15302 15303 15304  13763 18305 18307  14325 15013 19557  12273 12274 12275  13518 16071 16072  13453 13455 19681  1008 1064 19778  12271 12272 12273  11197 11198 11199  13268 14266 19812  14260 14261 15767  8804 19988 20080  17654 17658 19837  9899 9901 10600  13344 13901 19833  10598 22030 22118  15300 15301 15302  12136 12492 21742  9109 17040 17041  15508 15509 15510  10821 10822 10823  1029 1036 19785  8761 8762 8763  12275 12276 12277  11337 11339 13025  7883 7884 7885  13244 13245 13246  15358 15363 17039  18484 22256 22282  7217 7224 19779  13474 13475 13476  18974 18975 18977  15749 15750 16425  14504 14505 14506  12054 12056 12687  14274 17264 19829  10825 10826 10827  13100 15775 15776  15304 15305 15306  10024 10025 10026  11164 11166 11538  12826 12828 13742  14109 15635 16078  13074 13075 13076  17882 17884 17886  18926 18927 18928  8335 8336 8337  9925 9926 9927  11199 11200 11201  7885 7886 7887  8474 8551 21758  7848 7849 7850  8445 8448 19497  12036 19020 19832  13080 13081 13082  4949 4956 19788  11818 18646 19806  10026 10027 10028  7259 7461 19648  13119 13911 21733  12277 12278 12279  8055 11537 19909  16111 16113 19713  6188 7384 19791  12492 15744 21742  12458 19807 21756  11349 12844 19762  18251 18252 18253  14311 15104 21936  10028 10029 10030  11178 11184 11185  8456 8458 19804  7887 7888 7889  19149 19152 21749  19593 19694 19695  15306 15307 15308  9576 15073 21824  16026 21890 21962  13118 19673 19675  12279 12280 12281  8352 8353 8354  17715 17717 17720  15149 15898 15899  8428 8430 19707  15308 15309 15310  9356 9358 19958  13413 13415 19858  15383 15825 19850  14511 14512 14514  11188 11190 19759  18928 18929 18930  13407 13408 13409  12283 12284 12285  14325 14326 14327  11201 11202 11203  12281 12282 12283  10030 10031 10032  13424 13429 21864  13409 13410 13411  16444 16445 16524  14323 14324 14325  12277 12964 19795  7889 7890 7891  13411 13412 13446  14511 14514 19727  14506 14507 14508  12285 12286 12287  13446 13447 13448  11381 11382 12458  15310 15311 15312  10643 14605 14607  10115 10116 10117  15293 21989 22061  10032 10033 10034  19437 19452 21739  8450 8454 8455  9322 9323 9324  15312 15313 15314  8337 8338 8339  8450 8455 19488  16113 16220 18078  7787 7789 19828  7787 8140 19828  8709 22267 22271  13440 13442 21749  16445 18587 21893  10379 10380 10381  7891 7892 7893  13136 13565 13566  11341 11343 11373  13136 19585 21723  11225 11227 21740  14435 14436 14437  12287 12288 12289  19248 19250 19251  8001 11510 19516  14327 14328 14329  14506 15360 19737  19250 19251 19252  8443 8445 19395  13448 13449 13450  12303 19802 22085  17299 17301 17302  11431 11432 11433  16460 16462 17562  14509 14510 14511  7814 7816 7817  18685 21818 21995  13901 15854 19833  7893 7894 7895  18930 18931 18932  18664 19339 19340  15314 15315 15316  11203 11204 11205  17173 17174 17176  11964 20845 21058  15503 15504 15505  13082 13574 17572  19923 19924 19927  10034 10035 10036  8354 8355 8356  11193 11197 19839  19763 19764 19765  13450 13451 13536  11155 11157 11237  7895 7896 7897  13264 13266 14456  16280 16495 19710  4949 19787 19788  11147 11149 11256  10036 10037 10038  8460 8462 19761  18623 18625 18626  10819 10820 10821  10015 10017 10018  14329 14330 14331  15174 15900 15901  10038 10039 10040  9927 9928 9929  15316 15317 15318  7897 7898 7899  12293 12294 12295  18886 18887 18888  12301 13663 19802  8763 8764 8765  7997 8138 19407  16524 18587 18588  11811 19830 19831  12295 12296 12297  14514 14515 17601  12297 12298 12299  14331 14332 14333  14178 16258 16815  10735 12445 21727  19038 19039 19040  13827 16052 21970  10745 12449 21829  15318 15319 15320  12299 12300 12301  19066 19067 19068  18932 18933 18934  19557 19559 22118  19080 19083 19084  9324 9325 9326  11347 11349 19762  7850 7851 7852  16844 16845 16846  17171 17172 17173  10820 10822 11841  15155 15157 18565  15606 15608 19797  7899 7900 7901  10040 10041 10042  13125 14217 21760  16220 18078 19678  14333 14334 14335  13266 13268 19812  10015 10018 19843  9909 9964 19735  7870 7872 7873  8356 8357 8358  17807 17808 17810  11205 11206 11207  15320 15321 15322  12301 12302 12303  14274 14276 17264  13476 13477 13549  12313 12638 19808  15148 15907 21759  10042 10043 10044  7810 7812 11503  19913 19914 19915  12266 12268 12269  19414 19415 19416  15322 15323 15324  14335 14336 14337  18619 18620 18621  9448 9451 19834  7901 7902 7903  15183 15902 15903  8731 8824 12515  15684 16111 16114  14592 14593 14595  10725 12444 19857  18621 18622 18623  12321 13741 19826  10865 19746 20203  14533 14534 14535  13362 13363 13436  9891 11498 19724  9306 9307 9308  17763 17764 17765  14607 14608 14609  10349 10350 10478  12311 12312 12313  8358 8359 8360  15365 15367 19751  11193 11196 11197  18934 18935 18936  12309 12310 12311  7903 7904 7905  11972 13414 21757  14609 14610 15346  15624 19124 19125  15324 15325 15326  13532 13544 13807  12313 12314 12315  13360 13361 13362  12488 21989 22061  11207 11208 11209  14337 14338 14339  18117 18118 18119  10044 10045 10046  12307 12308 12309  14504 14506 15360  12315 12316 12317  15188 15189 15190  14974 15299 15300  7905 7906 7907  18936 18937 18939  19068 19069 19070  10046 10047 10048  12317 12318 12319  4641 4648 19584  13444 13445 13479  13442 13443 13444  7852 7853 7854  10048 10049 10050  15326 15327 15328  12319 12320 12321  13479 13480 13481  14239 14241 16475  13405 13861 14003  12321 12322 12323  7907 7908 7909  13760 13820 13821  12237 19949 22156  15328 15329 15330  19176 19178 19179  12323 12324 12325  14339 14340 14341  17855 17857 17860  11209 11210 11211  13411 14586 19365  15367 15373 15821  13440 13441 13442  13565 13566 14211  14341 14342 14343  12325 12326 12327  17394 17396 17680  11185 11186 11187  14600 15817 18715  10050 10051 10052  13481 13482 13483  11546 21737 21809  15330 15331 15332  8360 8361 8362  7909 7910 7911  13483 13484 13488  8472 8551 19974  9326 9327 9328  14343 14344 14345  11351 11353 19770  15332 15333 15334  17397 17398 17399  10052 10053 10054  19416 19417 19418  14509 15845 19741  9929 9930 9931  12333 12334 12335  15146 15185 15186  13488 13489 13490  14109 16078 22203  12335 12336 12337  14345 14346 14347  7911 7912 7913  19599 19600 19601  15903 18517 18518  12337 12338 12339  15742 17168 17169  16111 16114 19713  12339 12340 12341  14004 14322 14323  18939 18940 18941  12341 12342 12343  19766 19914 19916  12343 12344 12345  18080 18081 18082  7913 7914 7915  13901 15853 15854  9016 9034 19996  12331 12332 12333  13490 13491 13492  11211 11212 11213  15334 15335 15336  17774 17776 17777  13902 15653 21865  8339 8340 8341  10054 10055 10056  14347 14348 14349  13492 13493 13495  13821 14263 14264  8977 8978 8979  12351 12352 12353  15075 19708 19709  14594 16225 16226  11259 19667 19668  12357 12358 12359  13122 13124 21760  15562 18496 19846  10056 10057 10058  7562 18392 18394  12355 12356 12357  12353 12354 12355  7915 7916 7917  18993 18996 18997  16114 19753 19754  13495 13496 13497  11378 11380 11381  8462 8464 8550  7818 7820 8096  12359 12360 12361  7917 7918 7919  12349 12350 12351  15336 15337 15338  12363 12364 12365  8466 11546 19840  15338 15339 15340  13095 13508 14021  14349 14350 14351  10058 10059 10060  12361 12362 12363  18909 18910 19005  4942 7373 19787  19286 19287 19288  7919 7920 7921  14351 14352 14353  14509 14511 19741  11213 11214 11215  7921 7922 21745  18941 18942 18943  19813 19814 19815  7922 7925 21745  13497 13498 13499  11373 19684 19685  8458 8460 13146  12371 12372 12373  10381 10382 10383  11435 11436 11437  19736 21888 22020  13615 13905 14178  12373 12374 12375  11390 12411 12412  14353 14354 14355  11345 11347 12688  9931 9932 9933  19442 19443 19444  18748 18749 18750  8081 18749 18752  10062 10063 10064  10060 10061 10062  12388 14612 14614  12124 12126 12127  14355 14356 14357  7854 7855 7856  14563 14565 19059  10099 10100 10102  18943 18944 18949  13370 13373 13407  14307 15043 21937  10064 10065 10071  8362 8363 8364  14357 14358 14359  8765 8766 8767  13499 13500 13502  12369 12370 12371  12377 12378 12379  7927 7928 7929  18654 18655 18656  13377 13380 19760  11215 11216 11217  12774 12775 12776  12375 12376 12377  7929 7930 7931  9579 19531 21976  8138 19348 19349  10071 10072 10528  18467 18468 18475  10528 10529 10530  14359 14360 14361  7925 7926 7927  12379 12380 12381  7931 7932 7933  19415 19417 21892  9328 9329 9330  11217 11218 11219  11166 11538 19836  9454 9456 22076  11433 11434 11435  16750 16764 16765  12383 12384 12385  7933 7934 7935  17393 17394 17395  14001 16026 21962  10530 10531 10532  7935 7936 7937  14615 16663 19581  7196 7203 19616  6139 6146 19633  3661 3738 19654  3157 3213 19624  4844 4851 19640  6153 6160 19651  6223 6230 19632  1050 1057 19638  3171 4032 19656  6090 6097 19636  4809 4816 19634  6104 6111 19631  1085 1092 19637  3493 3906 19629  5992 5999 19653  7245 7252 19645  1099 1106 19642  4795 4802 19639  7231 7238 19643  4858 4865 19641  6041 6048 19635  6055 6062 19652  14361 14362 14363  19912 19913 19914  13268 13270 14266  11219 11220 11221  7937 7938 7939  10532 10533 10534  10323 21761 21822  14363 14364 14365  7939 7940 7941  11168 11170 11232  7941 7942 7943  8364 8365 8366  13244 13858 19859  7943 7944 7945  7945 7946 7947  11221 11222 11223  12492 13828 15744  13246 13247 13248  7210 7217 19780  7947 7948 7949  18433 19846 21751  10538 10539 10540  14365 14366 14367  14508 14509 14510  7949 7950 7951  7951 7952 7953  10540 10541 10542  12381 12382 12383  9933 9934 9935  7953 7954 7955  7555 18409 18412  10536 10537 10538  8366 8367 8368  10534 10535 10536  7955 7956 7957  15834 16564 16565  11381 13136 19585  15375 15379 17042  7957 7958 7959  11223 11224 11225  10542 10543 10544  11187 11188 11189  14119 16628 16629  14969 15601 15602  7959 7960 7961  15682 15684 19753  9330 9331 9332  7961 7962 7963  13338 13340 16030  7963 7964 7965  7965 7966 7967  7967 7968 7969  14369 14370 14371  14367 14368 14369  17804 17806 17807  7969 7970 7971  19444 19445 19446  11734 11736 12540  7971 7972 7973  14371 14372 14373  19446 19447 19449  7981 7982 7983  15435 15438 19852  7979 7980 7981  12290 12292 12293  7983 7984 7985  7985 7986 7987  8368 8369 8370  7987 7988 7989  11225 11226 11227  13126 13127 13128  7989 7990 7991  7991 7992 7993  7856 7857 7858  7993 7994 7995  11519 11521 11523  7995 7996 7997  7997 7998 7999  7999 8000 8001  8001 8002 8003  8003 8004 8005  10549 10550 10551  8005 8006 8007  8007 8008 8009  8009 8010 8011  15608 15680 15869  8011 8012 8013  8013 8014 8015  8015 8016 8017  8017 8018 8019  8019 8020 8021  8021 8022 8023  8023 8024 8025  8025 8026 8027  8027 8028 8029  8037 8038 8039  8039 8040 8041  10551 10552 10553  8041 8042 8043  14373 14374 14375  8464 8466 19840  8035 8036 8037  14284 14286 19906  13067 13069 13891  19049 19051 19052  7977 7978 7979  11227 11228 11229  10577 10578 10586  21708 21768 21777  14375 14376 14377  14210 16749 16750  18465 18466 18467  10586 10587 10715  11229 11230 11240  14523 15746 17836  10553 10554 10555  15915 19988 20080  10547 10548 10549  15436 19608 19609  18997 18998 18999  8033 8034 8035  11240 11241 11245  10346 10348 10349  18883 18885 18886  10544 10545 10547  19766 19912 19914  12406 19124 21868  11321 11323 21739  19252 19254 19255  8370 8371 8372  14264 15741 15742  11349 11351 12844  9332 9333 9334  14377 14378 14379  13071 13073 13078  11245 11246 11247  18470 18472 18791  13076 13077 13079  14507 14509 15845  19501 19504 19506  13566 14211 15250  8341 8342 8343  14379 14380 14381  19467 19470 19471  11247 11248 11249  10560 10561 10562  8316 11473 18747  8021 22701 22734  14381 14382 14383  15563 19722 19723  10562 10563 10564  15606 18433 19797  16615 16617 21773  20586 21119 21120  10388 10390 10391  12040 12041 12042  19255 19256 19257  8372 8373 8374  13413 19858 21906  18318 18325 19325  11249 11250 11252  9582 22038 22122  11252 11253 11266  12304 12306 12307  12385 12386 12387  14280 14284 15792  19685 19686 19687  19257 19258 19259  13061 13782 14101  13356 13358 13360  10564 10565 10566  10854 10865 20015  9935 9936 9937  14383 14384 14385  9730 21716 21730  16130 16131 16132  19259 19260 19261  14963 21880 21942  7858 7859 7860  16132 16133 16134  8767 8768 8769  14507 15845 19838  10383 10384 10385  15163 16099 22259  16134 16135 16136  16136 16137 16138  13437 13439 13440  9334 9335 9336  10558 10559 10560  18688 18689 18692  16128 16129 16130  19261 19262 19264  14217 16264 21760  13128 13129 13130  16138 16139 16140  8374 8375 8376  19091 19093 19094  9423 9427 19851  8550 19761 19848  8481 8483 19955  13130 13131 13132  16140 16141 16142  14385 14386 14387  12387 12447 12448  8319 8594 19960  13132 13133 13134  16142 16143 16144  10555 10556 10558  13239 13240 13241  11274 11275 11276  11276 11277 11278  11520 11522 13910  10573 10574 10575  19264 19265 19266  11272 11273 11274  14510 14511 14512  11270 11271 11272  11278 11279 11280  16144 16145 16146  15604 15606 18433  8376 8377 8378  9336 9337 9338  16146 16147 16148  10721 10722 10723  19052 19054 19055  12328 12330 12331  11280 11281 11282  14387 14388 14389  16150 16151 16152  18683 18685 18686  13704 15871 15872  19297 19299 19300  15360 19737 19738  13134 13135 13794  8378 8379 8380  16148 16149 16150  18463 18464 18465  19285 19286 19287  13250 13251 13252  14611 14613 18918  11282 11283 11284  10571 10572 10573  19687 19688 19689  19270 19271 19272  11284 11285 11286  19471 19472 19473  16152 16153 16154  9919 9921 19975  8988 8989 8990  9338 9339 9340  16154 16155 16156  8380 8381 8382  14389 14390 14391  12346 12348 12349  9184 9185 9187  13574 15573 19938  14391 14392 14393  16156 16157 16160  19530 19531 19532  8802 8804 19988  11468 17654 19837  16544 16614 16615  13248 13249 13250  14614 14615 15390  9869 9871 11470  7860 7861 7862  15684 16114 19753  9334 9501 19855  15562 15603 15604  8140 19828 19862  11286 11287 11288  13608 14622 14623  15573 17113 17578  14286 17265 19906  9348 9349 9350  13548 15140 19803  13827 14449 16052  16619 16710 16711  11290 11291 11292  16779 16865 16866  16714 16776 16777  16777 16778 16779  9340 9341 9342  14604 14606 18852  11437 11438 11439  16280 16491 16492  14512 14514 14515  11288 11289 11290  8382 8383 8384  15250 15251 15252  16617 16618 16619  13351 14976 19954  16278 16279 16280  16711 16713 16714  16542 16543 16544  15606 15607 15608  12844 19763 19764  19094 19096 19097  11292 11293 11294  18502 18504 18506  14988 14989 14990  14990 14991 15014  8053 8055 19909  10575 10576 10577  18190 18192 18193  19243 19245 19246  16494 16541 16542  13565 14211 14237  8455 11518 19488  15608 15679 15680  16222 16275 16276  14393 14394 14395  12366 12368 12369  14986 14987 14988  15014 15015 15016  9903 9905 11534  16615 16616 16617  8384 8385 8386  15560 15561 15562  16492 16493 16494  8386 8387 8388  7922 7924 7925  13503 13505 13506  15073 15904 21824  12304 12307 19847  9937 9938 9939  11523 13855 13856  15016 15017 15020  9034 15758 19996  10569 10570 10571  10392 19827 21815  16226 16446 18271  8388 8389 8390  11189 11190 11191  9342 9343 9344  15253 15559 15560  16220 16221 16222  19588 19590 19694  15252 15253 15559  9853 10011 10012  15020 15021 15022  16113 16219 16220  16276 16277 16278  11524 19489 22605  19300 19301 19302  11294 11295 11296  15022 15023 15035  9344 9345 9346  8390 8391 8392  15035 15036 15037  14395 14396 14397  11298 11299 11309  7862 7863 7864  8769 8770 8771  10566 10567 10569  15682 15683 15684  15684 16110 16111  18919 18921 18922  15604 15605 15606  15573 17578 19938  17619 17620 17621  11296 11297 11298  13079 13080 13081  9370 9371 9372  9939 9940 9941  13252 13253 13254  14505 14507 19838  14503 14505 17557  7713 7714 7715  7712 7714 12160  14981 15255 16042  16574 16575 16576  16111 16112 16113  9409 9412 19928  11199 11950 19940  15037 15038 15039  8321 8323 12177  9350 9351 9352  9861 10688 20179  15039 15040 15046  14535 14536 15833  16765 16844 16845  8392 8393 8394  14001 21962 21996  9047 9153 19864  8896 9047 19864  17515 17516 17517  9352 9353 9354  12016 20586 21119  10385 10386 10387  9354 9355 9356  9389 9390 9391  8396 8397 8398  15046 15047 15048  15251 15252 15253  12875 12876 12877  15680 15681 15682  8394 8395 8396  9941 9959 9960  13856 14269 14272  7974 7976 7977  15559 15560 15561  13349 19954 21776  9907 9909 9964  9356 9357 9358  8398 8399 8400  14397 14398 14399  9310 13100 21859  9358 9359 9360  14515 17601 17605  8030 8032 8033  13045 14551 14552  17387 17389 17392  14505 17557 19838  13072 13074 14147  12127 12128 12129  9360 9361 9362  8466 8468 11546  14510 14513 21734  14506 14508 19737  8400 8401 8402  9362 9363 9364  15435 15436 19852  15381 15383 19850  10723 10724 10725  11192 11193 19839  17493 17494 17495  11441 12140 12141  14286 14288 17265  8343 8344 8345  11315 11316 11317  11191 11192 11193  9013 9016 19996  16032 22231 22276  11317 11318 11319  7864 7865 7866  15048 15049 15050  9372 9373 9374  9364 9365 9366  8491 8493 9189  13081 13082 13574  19394 20035 22325  9374 9375 9376  9366 9367 9368  13910 14590 14591  11353 11355 12982  15050 15051 15056  17519 17520 17521  20852 21748 21750  6188 6195 19791  14399 14400 14401  13842 14282 21986  11313 11314 11315  15448 15907 15908  15853 15854 16058  9378 9379 9380  9380 9381 9382  8483 9161 19955  13414 13814 21757  9376 9377 9378  13063 13065 13892  8402 8403 8404  14981 16042 21830  17625 17626 17628  8122 13308 19932  8122 8124 19932  17621 17622 17623  14401 14402 14403  9384 9386 9387  11267 11269 11270  8454 8455 8456  17623 17624 17625  15056 15057 15058  17899 17901 17902  18531 18533 19930  9382 9383 9384  9384 9388 19941  9413 9414 9415  15561 15562 15603  9960 10014 10015  9312 9313 9314  8406 8407 8408  9309 9311 9312  13814 16127 16128  13097 15074 15867  11319 11320 11321  15252 15559 17099  13711 16722 16808  11060 11061 11066  11059 11061 11062  12182 13689 13690  12210 13689 13691  8404 8405 8406  15469 15471 20203  9391 9392 9393  10342 10344 11810  17630 17631 17632  17521 17522 17524  10658 10659 10660  10583 10659 16598  9393 9394 9395  13963 20091 20092  8408 8409 8410  17517 17518 17519  9395 9396 9397  17628 17629 17630  18891 18892 18893  11321 11322 11323  15383 15386 15825  9850 9852 20047  9397 9398 9399  19915 19918 19919  7866 7867 7868  9399 9400 9401  9413 9415 21759  20093 21716 21730  19440 19452 19453  13566 15250 15251  8410 8411 8412  11323 11324 11325  15773 17516 22061  9366 9369 19953  9401 9402 9403  20093 21716 21741  19267 19269 19270  8478 11812 21840  13254 13255 13256  12129 12130 12131  19133 19134 19750  10077 10079 12542  15058 15059 15060  18193 18194 18195  17765 17766 17767  9428 9429 9430  9405 9406 9407  15460 16809 22851  9403 9404 9405  10719 10720 10721  9407 9408 9409  9314 9315 9317  15060 15061 15067  9305 9307 21859  8345 8346 8347  12718 13909 20268  10014 10015 19843  11439 11440 11441  14403 14404 14405  9409 9410 9411  15560 15562 18496  14232 16478 16649  11325 11326 11327  10213 10215 12839  8412 8413 8414  8771 8772 8773  14508 14510 21734  7868 7869 7870  13419 16080 19659  14960 14961 16085  8416 8417 8418  8414 8415 8416  11486 14102 14628  16873 17561 17591  17499 17500 17502  15067 15068 15069  13415 13813 14986  9356 9487 19958  16565 16566 16567  8418 8419 8420  12202 21880 21942  17524 17525 17526  15603 15604 15605  12290 12293 21725  14455 17587 19332  18609 18611 18613  14241 16475 16476  19962 19964 21719  9417 9418 9419  17497 17498 17499  8472 8474 8551  14211 14237 15701  9415 9416 9417  11025 13963 20091  10688 13963 20179  9735 9861 20179  13560 19864 19865  9419 9420 9421  18080 18082 18138  18081 18082 18083  16030 19774 21896  10731 10732 10733  12141 12153 12154  17495 17496 17497  14569 15120 19984  18634 18636 18637  13902 14168 15653  20093 20179 21741  11329 12996 21869  8347 8348 8349  8081 18752 19950  18749 18750 18751  18095 19909 19910  14405 14406 14407  12060 12175 12641  11327 11328 11329  17402 17404 17405  19764 19765 19766  9317 13338 19774  19435 19436 20002  9901 10600 19944  11380 11381 11382  8420 8421 8422  18922 18923 18924  9318 9320 9321  15888 15891 19936  12690 19962 21719  14440 14442 14443  11310 11312 11313  7817 19956 19957  10822 10823 10824  10019 10020 10021  11196 11197 11198  12690 19961 19962  15436 19609 19852  11329 11330 11331  11555 19934 19935  10017 10018 10019  15469 19746 20203  15471 18590 20203  17418 17420 17421  12599 19950 19951  17526 17527 17528  9430 9431 9432  7829 8131 18667  16901 20633 24736  8422 8423 8424  9423 9424 9425  7621 18910 18911  10363 10365 11542  11331 11332 11333  12154 12227 12228  17504 17505 17506  18366 18368 18369  19612 19745 21761  9421 9422 9423  8487 8489 12509  15605 15606 15607  19924 19926 19937  11198 11199 11200  16062 19718 22389  13909 16229 20268  12718 13752 20268  17394 17395 17396  12709 20849 21428  15607 15608 15679  9184 9187 9492  9185 9187 9188  13069 13071 19841  15142 15143 15144  13346 13348 21724  15562 15604 19846  17502 17503 17504  8140 19862 19863  10021 10022 10023  8470 8472 19974  8424 8425 8426  15917 20849 21428  15081 15082 15110  18752 19952 21831  13071 13078 19841  8773 8774 8775  11205 11207 21977  13752 19968 20010  17627 19510 22200  14407 14408 14409  16571 16573 16574  11368 11370 11448  15917 19983 21428  8141 18095 19909  15069 15070 15081  11467 11945 20087  14960 16085 22089  10338 10340 10473  12328 12331 21732  9434 9435 9436  18924 18926 18927  12037 12038 12039  7713 7715 12696  7714 7715 7716  13752 19968 21719  15917 19983 21199  13099 15126 15892  13374 13375 13376  7874 7875 7876  9076 9077 19929  9436 9437 9438  15370 15904 15905  8426 8427 8428  11909 20015 21290  15253 18643 19933  11333 11334 11335  19597 19599 19600  19964 19968 21719  13337 14001 21996  11552 19993 19994  12690 19961 20087  9438 9439 9440  14567 14569 19984  8349 8350 8351  9432 9433 9434  8479 9147 21825  13364 16047 21819  13069 13891 19841  14107 15675 19986  13359 14960 21968  9114 13115 21733  14637 19990 20032  13861 14003 14004  17899 17902 17903  15388 15391 17044  18533 19930 19931  16088 18986 22691  12346 12349 21735  15300 15302 22020  11060 11066 11973  11061 11062 11063  13711 16808 16857  13689 13690 14126  12210 13691 13716  10659 10660 10661  13963 20092 20093  10391 10392 10393  14648 19990 20032  8428 8429 8430  12232 12233 12234  7876 7877 7878  13374 16029 21729  9442 9443 9444  12236 12237 12238  18685 19949 21995  19746 20015 21290  10155 11552 19991  11200 11201 11202  11355 12982 19922  10023 10024 10025  15301 15302 15303  12495 18137 19911  13308 19932 21728  4942 4949 19787  11945 12690 20087  11467 13918 20087  19983 20032 21199  16475 16476 16717  14241 16476 16806  13918 19989 20087  9490 20157 21464  13918 19989 21718  7365 18872 18874  12042 12043 12044  18082 18138 18139  14636 21417 21718  19952 19980 19981  8470 19974 21736  18750 18751 18753  18695 18697 18699  13876 14995 16115  10822 10824 19844  14637 19983 20032  9440 9441 9442  14648 19990 20157  7828 7830 8088  13150 19997 20041  14080 14107 19986  9444 9445 9446  12720 14116 14969  7618 18876 18878  8775 8776 8777  10856 11909 20015  14324 14325 14326  15303 15304 15305  9187 9188 9217  8782 8784 8785  7872 7873 7874  9657 9727 20034  13281 13283 14157  12131 12132 12133  13150 20041 20072  11357 11359 12609  11465 13918 20001  13918 20001 21718  18893 18895 18896  12234 12235 12236  8133 19176 19178  7715 7716 7717  10153 10155 19991  9490 13150 20157  19990 20157 21464  12138 20005 22241  13150 19997 20157  14636 20033 21717  8430 8431 8432  10859 12843 20040  18927 18928 18929  14636 20033 21718  14578 19061 19984  11343 11373 19731  17902 17903 17904  18533 19931 19979  10723 19857 21870  14948 15515 16223  11883 21997 22098  11066 11973 11974  11062 11063 11064  11550 20004 20096  13691 13716 14175  13690 14126 14192  10660 10661 10662  10868 13454 21957  9739 19995 20001  9739 11465 20001  13349 13351 19954  19961 19989 20087  20033 20034 21717  9727 9796 20034  13382 13383 13384  11552 19994 20042  9215 9509 20006  9657 19995 20034  10156 11890 20007  7878 7879 7880  20008 20041 20072  19989 21417 21718  13256 13257 13258  16476 16717 16718  13963 20093 20179  18138 18139 18140  12843 14653 20040  9057 14654 20008  18751 18753 18754  18750 18753 18756  9639 9739 19995  17398 17403 18562  13348 14985 21724  11335 11336 11337  10857 10859 20040  15679 15680 15681  14322 14323 14324  12242 12243 12244  13351 13353 14976  9188 9217 9218  14648 19997 20157  10768 11550 20096  8805 8851 20000  14654 20008 20041  9151 9215 20006  11159 12071 19801  7716 7717 7718  10154 10156 20007  10075 20003 20014  10725 10726 10727  9026 9057 20008  10860 10919 20052  15299 15300 15301  11313 11315 21921  17903 17904 17906  17902 17904 17905  11063 11064 11065  11973 11974 11975  13716 14175 14176  14126 14192 15629  13691 14175 14231  13690 14192 15633  10660 10662 12983  10661 10662 10663  8814 13559 20080  13101 15149 15898  19995 20001 20033  11974 11978 21714  14266 19814 19817  11066 11974 21714  10919 14644 20052  9035 9118 20072  13752 20010 20268  18753 18756 18757  18751 18754 18755  10025 10026 10027  13559 15915 20080  11909 21290 21710  10858 10860 20052  15476 17993 18064  11557 20030 20037  9188 9218 9219  9217 9218 13334  11909 20052 21710  10769 12459 20017  8806 8814 20080  9118 13150 20072  9223 21712 21715  7716 7718 10604  7717 7718 7719  9027 9035 20072  10500 20029 20030  14644 14646 21710  17904 17906 17907  11064 11065 11067  11974 11975 11976  14126 15629 16631  13716 14176 16281  14192 15629 16860  14175 14231 16600  10662 10663 10664  10661 10663 10952  20038 22070 22072  16016 21708 21711  10880 14641 20096  8060 20078 20202  14654 20041 20082  19997 20041 20082  14573 15109 20044  19995 20033 20034  18756 18757 18758  15216 15218 20031  14641 20004 20096  15918 20078 20202  11557 20037 20038  9218 9219 9220  9217 13334 13610  10770 10880 20096  8058 8060 20078  7718 7719 7720  7717 7719 10619  10188 20042 20043  14571 14573 20044  17906 17907 17908  11975 11976 11977  11065 11067 11068  11064 11067 11175  11974 11976 11978  15629 16631 16856  14231 16600 16601  10781 10882 20079  10663 10664 10665  16026 21890 21969  14644 20052 21710  10882 12470 20079  9495 9632 20103  18757 18758 18759  10905 10907 21667  13334 13610 14067  9219 9220 9221  10780 10781 20079  15343 20153 20155  10905 20152 21667  9632 13145 20103  10903 10905 20152  7719 7720 7721  9216 11554 20099  15343 20153 21638  9148 9495 20103  10903 12613 20152  20151 20153 21638  12613 20144 20146  17907 17908 17909  11976 11978 12151  11065 11068 11069  11975 11977 13599  11067 11175 14127  10664 10665 10666  12526 20151 21638  12613 20146 20152  8580 8582 21608  16014 21691 21693  12613 20144 21124  12526 20151 21667  8582 20329 21608  8582 8596 20329  9586 11553 20081  11620 20321 20323  10907 12526 21667  14939 16014 21693  9245 21690 21692  10160 10652 20083  11620 20321 20634  20319 20321 20634  14654 20082 21358  9049 20319 20634  14939 21693 21695  9049 20316 20319  14944 21690 21692  10895 10897 20142  8605 8607 20915  18757 18759 18760  12850 20312 20314  20124 20127 20143  10895 20142 21579  12850 20312 21219  10893 10895 21579  9507 14939 21695  20143 20144 21124  20309 20312 21219  12525 20123 20143  15738 15740 21322  9055 20309 21219  16188 20431 20720  8565 20084 20719  8613 8615 21591  9055 20307 20309  20084 20449 20719  8560 20813 21420  16186 16188 20720  10875 14650 20088  11931 20449 20719  15920 20813 21420  8560 20085 21420  15920 20813 21574  8615 20330 21591  8615 8617 20330  8560 20085 20920  8596 11620 20329  12612 20116 20118  19745 21761 21822  20123 20124 20143  11620 20323 20329  9128 20300 20302  11645 20086 21094  15729 15731 21377  9040 20328 21580  9040 20328 21608  20086 21089 21094  13610 14067 14255  13334 14067 16021  9220 9221 9222  12612 20116 21059  8545 21089 21094  8619 8621 21548  8580 9040 21608  12525 20123 20142  8621 8623 20332  8545 21089 21090  8621 20332 21548  20127 20143 20144  15921 21090 21128  20113 20116 21059  9049 20316 20915  10897 12525 20142  9508 9586 20081  15921 20551 20651  15921 20651 21128  9061 20294 20296  8545 21090 21128  9130 20551 20651  9130 20551 21132  20292 20294 21571  7720 7721 7722  10158 10160 20083  8263 8265 21227  15294 20131 20132  12611 20113 21059  9061 20294 21571  8543 20882 21504  12850 20314 20915  9149 14654 21358  8605 9049 20915  8607 12850 20915  15922 20882 21504  11574 20650 21526  10921 12598 20088  8627 8629 20331  8617 9128 20330  12611 20111 20113  8565 20084 20720  8543 20094 21504  20326 21679 21680  20089 20410 21288  10893 12612 21579  15740 20449 21322  16318 16320 21376  15738 15920 21322  9128 20302 20330  16401 20772 20827  10805 20089 21288  10279 10281 21506  16186 20084 20720  17907 17909 17910  17908 17909 17911  11758 20410 21288  16322 16324 20828  15122 20877 21106  8543 20094 21324  12556 20288 20290  11758 20410 20492  20094 20792 21324  11978 12151 12152  11068 11069 11070  11175 14127 16831  10277 10279 20493  15920 21322 21574  8820 11556 20131  10710 20090 20608  20085 20920 21377  10279 20493 21506  10664 10666 12680  10665 10666 10667  10257 10259 20336  10259 10261 21524  10710 20090 20650  12556 20288 20871  11931 20449 21322  20090 20650 21526  16334 16336 21287  8613 9055 21591  11664 20095 20509  10259 20336 21524  14720 20128 20878  10959 20097 21215  20286 20288 20871  10959 20097 20812  9055 20307 21591  16349 16352 21558  16338 16340 21350  15731 20085 21377  20097 20812 21141  11953 20812 21141  8623 9061 20332  12067 20792 21324  9075 20286 20871  9128 20300 21548  9588 14871 20099  17660 17661 20073  11645 20086 21377  10668 20098 20971  10668 20098 21216  11953 21141 21390  15729 20086 21377  10254 21661 21662  9061 20296 20332  13923 14720 21641  10287 10289 21480  9075 20283 20286  12612 20118 21579  10668 20734 21216  16404 20734 20832  12067 20101 20792  16404 20734 21216  15122 20877 20950  16347 16349 20833  8619 9128 21548  20281 20283 21522  9075 20283 21522  16349 20833 21558  10885 10887 20855  8629 12556 20331  11610 20100 20769  11556 20131 20132  8263 20882 21227  16406 20459 20917  11610 20100 20459  10289 20922 21480  8815 8820 20131  12556 20290 20331  9130 21132 21227  12067 20101 20256  16322 16401 20828  16401 20827 20828  20128 20878 20950  11610 20459 20917  8637 8639 20333  20292 20331 21571  8265 9130 21227  14720 20128 21641  16406 20917 20980  12611 20111 20855  15925 20677 20678  10588 21572 21589  10289 10291 20922  15922 20882 21227  10982 20105 20921  11758 20492 20493  16358 16360 20981  13919 13920 20950  10277 11758 20493  10982 20105 20814  10257 10779 20336  15923 15925 20677  16404 20832 20833  10779 20335 20336  16347 16404 20833  12525 20143 21124  16407 21572 21589  16318 20089 21376  16320 16401 21376  12566 20277 20279  10805 20089 21376  12845 20104 21321  16401 20772 21376  15595 15597 20576  10281 10959 21506  11574 20828 21526  10779 20335 21287  16334 20335 21287  8627 20331 21571  12566 20277 21245  16336 20095 21287  11664 20095 21350  20105 20814 21184  10876 10921 20088  10227 10229 20446  20095 20509 21287  20275 20277 21245  12498 20532 20806  8542 20129 21282  10261 10710 21524  12070 20814 21184  10227 11575 20446  12610 20106 20108  10710 20608 21524  16338 20095 21350  11953 21390 21480  16340 20098 21350  14067 16021 16022  12070 20138 21184  20104 20156 21321  11575 20445 20446  12489 20244 20450  9828 9830 21576  9221 9222 9593  11575 20445 20874  16406 20980 20981  9220 9222 9223  13610 14255 16423  20877 20878 20950  8639 12566 20333  20098 20971 21350  20536 20803 20805  12498 20806 21210  10982 20921 20922  12498 20532 20953  16358 16406 20981  20127 20144 20145  10287 11953 21480  10959 21215 21506  12070 20138 20774  20129 20552 21282  11575 20782 20874  20137 20624 21174  9080 20275 21245  10887 12611 20855  12566 20279 20333  11983 20242 20246  10885 12610 20855  16352 20100 21558  19863 21748 21750  10291 10982 20922  20536 20805 20806  16324 20828 21526  9490 20344 21464  9510 9588 20099  20530 20532 20953  11755 20139 20552  13924 20156 21321  7721 7722 7723  9838 9840 21557  20281 20333 21522  10225 20130 20137  12635 20530 20953  10225 20130 20782  9826 9828 20172  11754 20623 20624  20101 20256 20576  20242 20244 20450  20130 20782 20874  9836 9838 20621  9080 20273 20275  11983 20242 20450  15930 20165 21379  11754 20624 21174  9826 9957 20172  15923 20104 20677  13920 15122 20950  14660 15930 20165  12545 21514 21536  12610 20106 20558  9828 20172 21576  8542 20129 20576  10225 20137 21174  11699 20811 21055  10272 21636 21637  12845 20104 20677  15925 20678 21536  12526 21207 21638  14006 20180 20418  8683 8684 21425  11755 20552 21282  12635 20527 20530  14657 20158 20204  15931 20167 21155  12608 20444 21020  9957 20140 20172  13919 20128 20950  15927 20169 20512  15595 20129 20576  13924 20156 20490  9838 20621 21557  12846 21021 21582  9997 20620 20622  16247 16292 21233  9836 9997 20621  14657 16546 20204  8637 20333 21522  11755 20139 20809  14838 15931 20167  14127 16831 17129  9997 20620 20621  10230 10232 21530  15597 20101 20576  14131 20168 20592  10666 10667 10702  10665 10667 12401  11699 20811 21587  11068 11070 11071  10588 20981 21572  12151 12152 12670  9080 20273 20928  20644 21679 21680  20805 20806 21210  9580 20166 20539  15942 20176 21068  9957 20140 20161  14660 20159 20165  15927 20169 20170  14670 20158 20204  14872 20168 20592  11233 20194 20345  15946 20259 20467  14659 20159 20165  12610 20108 20855  12608 20441 20823  10649 20461 20463  8073 13151 20202  12521 14655 20558  12635 20527 20872  13151 15918 20202  12608 20441 20444  20192 21439 21440  20230 20232 21515  20161 20826 20929  15929 20344 21464  14670 20158 20205  15930 20572 21379  15940 20201 20247  20434 20441 20823  16394 20622 20810  20214 20883 21559  20170 20185 21080  11098 11100 21460  9695 20571 21601  21151 21519 21619  15929 20344 21156  12545 20678 21536  9970 20187 21109  15714 15736 20182  20271 20273 20928  9957 20161 20929  8571 20176 21068  11582 11584 20999  12155 20201 20247  14665 14667 20541  12489 20244 21564  12550 20164 20169  13322 13324 21113  14901 21069 21252  10649 20461 20572  8832 21590 21635  10649 20463 21021  12846 20563 21142  14901 20184 21252  12846 20563 21582  14838 20167 20259  9695 21178 21601  12550 20169 20512  20243 20246 21418  15927 20170 20185  10511 20160 20579  20622 20811 21055  11983 20246 21418  8683 20185 21425  15936 21450 21541  12711 20186 20427  13929 13930 20744  15930 20461 20572  14901 20184 21230  20614 21167 21251  13893 15342 20248  20525 20527 20872  8687 20162 21425  14575 15109 20174  8531 20173 20517  20161 20262 20826  10667 10703 21643  16407 20446 21589  15929 20166 21156  12149 20243 21418  14006 20180 20419  11556 20132 20133  10189 20190 20404  15934 21108 21342  11756 20883 21559  20138 20774 21233  15109 20174 20175  20166 20189 20539  15931 20696 20994  9079 21069 21252  20100 20769 21558  15736 20182 20183  11074 21632 21644  15931 20994 21155  20163 21519 21540  8565 20430 20720  16394 20622 20811  20236 20242 20246  16360 20981 21572  15934 20187 21109  14703 21450 21541  20620 20622 20810  11969 20245 20658  14701 20207 20941  11944 12404 20538  11638 20271 20928  14659 20159 21363  15934 21108 21109  15935 20194 20345  20485 20760 20844  20876 21106 21198  20613 20616 21593  13923 15925 21641  15928 20478 20716  8612 9626 21406  20173 20517 20642  10511 20160 20696  12489 20567 21564  14655 20106 20558  13893 13894 20248  8683 20185 21080  14243 16693 20338  15928 20716 20744  14131 15558 20592  11969 20245 21224  20028 20253 20404  9607 20498 20499  14751 16551 21566  14891 20658 21421  15946 20167 20259  14688 14691 20688  9661 21108 21342  12190 12192 21220  20430 20431 20720  13308 21106 21198  8245 8247 20809  11689 20262 20826  20162 20163 21540  20314 20316 20915  15971 20189 20539  15723 15921 21090  8542 20256 20576  15942 21068 21069  10230 20645 21530  20392 21653 21655  11624 20455 21465  20614 20617 21251  12636 20525 20872  12561 20334 20562  15926 15927 20185  12191 12194 21308  20616 21320 21495  20177 21116 21300  10228 12569 20645  10288 10290 21142  12550 20164 20999  16292 20138 21233  8684 8687 21425  8253 8542 20256  20219 20490 21170  20205 20207 20941  9973 20258 20866  9580 20166 21156  12945 14152 20196  15975 20479 21269  11638 20269 20271  13988 16002 21586  20759 20760 20844  20192 21439 21564  14832 20695 21053  13924 20351 20490  10511 20696 20994  16168 21250 21276  14684 20219 20732  20160 20579 21363  10691 14006 20418  20837 21313 21319  11673 20380 20381  9640 20362 20925  20028 20190 20404  20266 20603 21129  15712 15714 20182  14659 20579 21363  8531 20173 20541  16247 20247 21233  20667 20668 21375  20244 21439 21564  20234 20236 20246  9607 20497 20498  9626 20223 21406  14243 14664 20338  9830 11699 21576  21160 21161 21334  13964 20188 21508  16000 21441 21475  13158 20259 20478  15567 15939 20820  13158 20259 20467  15945 20258 20866  14679 20180 20418  20886 21246 21367  12561 20334 20561  10292 10294 21021  20501 21458 21471  16274 20819 20820  14665 20173 20541  14808 20853 21407  8241 8452 20896  16551 21566 21567  11673 20381 20843  16405 20921 20922  14701 20207 20942  9840 11754 21557  14933 14937 21561  20432 20434 20823  16167 16168 21276  13962 20765 21527  12945 12947 20196  10189 20190 20405  13158 15928 20478  15567 16274 20820  15951 20401 20425  14684 20219 20490  9221 9593 10689  15342 20248 20249  20729 21518 21546  13955 20514 20550  14667 20139 20541  14808 20405 21229  9197 20617 21502  15722 15798 20220  15442 15443 20102  13322 13811 21113  14711 20191 20192  13171 13173 20215  14708 20197 20255  20168 21202 21429  11724 11750 21622  9222 9223 9224  10229 20446 21589  12711 20427 21005  13941 20341 20544  11640 21028 21316  20469 20638 21410  11584 12550 20999  11100 20194 21460  15939 20820 20998  10674 20346 21491  14685 20222 20261  14669 20139 20552  11582 11586 20999  13930 20716 20744  13189 13191 20456  18553 20342 21302  12637 20400 20425  11995 21349 21489  14642 14643 20213  13929 14833 20744  13329 21385 21386  8687 20162 21540  20176 20177 21116  9832 9834 21055  13933 20412 20942  13316 20214 20215  9974 21190 21575  20398 20403 20595  14857 20184 21389  12855 21095 21449  12692 20471 20473  7742 9607 20499  12636 20522 20525  11571 20205 20207  14865 21136 21298  11935 11937 21351  7740 7742 20499  10228 10230 20645  8253 8255 20256  9620 20837 21313  10881 12521 20558  13744 20825 21277  13776 14711 20191  15940 20201 21381  20156 20490 21170  13973 13975 20171  20818 21508 21581  14933 20181 21561  15723 15725 21090  20144 20145 20146  14830 20334 20562  12081 20518 21268  12155 20247 21233  13933 20412 21047  11961 12189 20252  20463 21021 21582  21319 21320 21495  13324 14052 21113  16215 21220 21221  14808 20405 21407  16039 20668 20670  11672 20712 20983  14669 15296 20552  13316 13321 20214  14895 16757 20226  15971 20189 20427  11645 20920 21377  12711 20186 20383  11701 13964 21508  19661 20181 21588  20158 20205 20941  8659 21274 21365  14575 14577 20174  11707 20605 20606  20426 20427 21005  10704 20264 20862  12675 14172 20413  20889 20979 20991  7722 7723 7724  14872 20168 21202  14704 20764 20765  12192 14062 21220  11719 13956 21346  13333 20208 20209  20587 20588 21189  13945 15963 21483  20951 20952 21138  8247 11755 20809  20711 20712 20983  14718 15940 21381  11638 20269 21014  20187 21202 21429  16039 20668 21375  15945 20866 21140  20665 21313 21319  8184 11709 20494  11107 11264 20385  14857 21389 21450  12637 20400 20403  15938 20254 20340  14921 21514 21536  8062 8073 20202  20610 21235 21356  10506 20255 20986  12636 20522 21035  12198 12546 21514  20588 21189 21190  13823 20542 21231  15961 20341 20544  20197 20255 20986  15970 20539 21048  20705 21385 21386  13964 20188 21534  15952 20261 20857  13331 15979 21285  20532 20533 20806  15939 20997 20998  21017 21031 21364  14823 20384 20686  20713 20714 21133  12852 20901 21431  15999 21474 21503  20230 20245 21515  12664 14709 20766  10187 20711 20713  13930 20337 21348  20691 21149 21169  12569 20643 20645  10627 20342 20957  13838 13840 21260  20533 20536 20806  12545 20678 21308  14025 14690 20453  20381 21095 21449  9816 20708 21411  20396 20398 20595  13162 13955 20550  10187 20711 20983  13898 15779 20464  20671 20672 21042  14708 20197 20254  20337 20899 21348  9846 21149 21169  20518 20519 21268  12085 13333 20208  8815 8825 20131  9079 21068 21069  11673 20380 20896  14937 21539 21561  12587 20250 20251  12422 12664 20766  10314 10317 20914  8571 20176 21116  11558 14684 20732  20190 20405 21229  11794 11797 20251  14829 14830 20562  10899 10901 21124  11571 20205 20206  13962 14875 21297  13181 14704 20765  13173 13316 20215  14889 21311 21523  10232 12557 21530  12152 12670 12671  11778 12489 20450  8557 20510 20564  9626 20223 21347  13988 20992 21074  20991 20992 21074  15937 20514 20550  13168 15956 21117  9199 9514 21100  11644 20421 20919  11689 20262 21436  20137 20624 20625  8289 8565 20719  11560 14684 20351  9661 21017 21342  11802 12208 20836  12079 12081 21268  8241 11673 20896  14685 20222 20260  11070 11071 11072  11785 13997 20481  12081 12083 20518  15956 20834 21117  13181 13962 20765  13323 14906 20570  12187 13683 20206  12663 20396 20595  13933 20942 21143  16391 16395 20447  13191 14716 20456  13922 15924 21067  13617 13780 20993  13973 20171 20407  11085 11090 20863  20602 20603 21129  15987 21183 21218  9084 9207 20487  8245 8531 20809  13969 13970 20407  20412 20942 21077  16408 20623 20624  20421 20497 20976  20163 21519 21619  7744 7746 20976  10187 20713 21133  11969 20658 21421  15944 20343 20687  14851 20729 21226  15926 20185 21425  12848 14755 20511  14854 20825 21277  13206 13208 21159  20334 20561 21433  11102 11233 20194  14197 20198 20199  8287 8289 20719  20381 20843 21095  12588 13921 20635  12559 20561 21433  16039 20670 21347  10610 21281 21468  11678 20680 20681  11802 11804 20836  13202 20254 20340  21461 21482 21587  10290 12846 21142  10667 10702 10703  18553 20342 20957  14703 14857 21450  11573 20517 20642  14756 20269 21014  15177 20542 21231  20540 21400 21499  20593 20925 21066  19963 19966 20504  9815 20952 21138  14851 20423 20728  13298 21019 21412  9640 20925 21066  11707 20605 21032  14754 21364 21405  13295 20979 20991  9197 21300 21502  14758 20421 20497  10294 10649 21021  16038 20223 21347  20682 20901 21431  15938 20197 20254  9594 9674 20780  14701 20942 21077  10317 14812 20914  10674 20346 20758  20184 21230 21389  20447 21250 21436  8535 20382 20884  20108 20111 20855  20382 20884 21484  15962 20822 21091  20232 20243 21515  13969 21441 21475  7760 9640 21446  20578 21028 21316  10265 11574 20650  8298 8300 20468  10913 12187 20206  11090 11304 20863  15971 20186 20427  16000 21323 21441  8174 8184 20494  9759 20846 21469  15994 21289 21362  20455 20456 21465  11725 11728 20260  11594 11596 20637  13323 13596 20570  9834 9997 21055  13165 20686 20943  8612 8614 21406  12194 12545 21308  11728 13935 20260  14663 20173 20642  12663 20394 20396  20428 20605 21032  13993 15927 20512  14058 15957 20640  13294 20479 21269  20417 21594 21599  9997 20622 21055  11727 11729 21359  20398 20400 20403  12080 12692 20471  20570 20571 21601  11133 21596 21627  9980 9982 20718  8163 20604 20706  13921 15549 20635  20170 20695 21080  16609 20486 21193  10914 21339 21463  14683 20189 20426  15950 15951 20425  12675 14028 20413  9770 9771 20587  15991 21294 21492  8666 8669 20629  14195 14197 20198  9804 9844 20840  10901 12613 21124  10258 12548 20507  13948 15955 20707  14685 20261 20857  20712 20853 21407  9250 13331 21285  13306 13948 20707  14875 21297 21380  9839 21583 21595  14875 21380 21459  14670 20205 20206  14639 19963 20504  12569 20643 20831  16168 21250 21436  20933 20934 20968  20139 20541 20809  11793 11794 20251  20264 20862 21314  13962 21297 21527  16388 16413 20422  13164 20457 21177  20647 21036 21373  15924 21067 21170  9962 10625 21143  14873 21427 21496  13198 13200 21123  10192 20574 21064  10263 10265 20650  11995 21489 21490  11098 11234 21460  14892 14895 20226  20409 21444 21507  12151 12670 12672  14688 15944 20688  11648 20775 20793  8679 20695 21053  20376 20382 21484  13938 20540 21499  10288 12561 21142  11806 12077 20735  9149 9496 21358  15953 20593 21066  10165 10189 20404  8667 20578 20939  9831 9978 20726  20258 21380 21459  16402 20335 20336  8284 9070 20673  21258 21311 21523  15936 20550 21541  14826 20263 21075  13008 13898 20464  13780 20508 20993  8293 8295 20429  10486 20822 21091  13313 15987 21218  11797 12587 20251  20481 20482 20484  13200 13202 20340  10692 10695 20705  14182 20594 20690  7773 20671 21042  15993 21258 21259  11783 11785 20481  14817 15931 20696  20562 20563 21142  14023 14025 20453  11711 20714 21009  9661 21017 21031  12657 14058 20640  11960 12188 20424  13330 14941 20759  8100 8105 20956  9970 20187 21429  15963 20559 21483  20261 20841 20946  13934 14678 21401  8644 8894 20675  20454 20717 21115  20945 21594 21599  14684 20351 20490  12190 14115 21220  13332 20556 20580  11711 20714 21133  14833 20164 21535  16356 16406 20459  9980 10878 20718  14898 20408 20409  15940 15941 20247  13304 20553 20940  9948 13933 21047  20499 21435 21516  14851 20423 20729  11941 20403 20595  16357 16400 20583  9803 20428 21032  11778 11780 20450  9084 9204 20487  13161 14712 20761  15948 21364 21405  20384 20686 20730  10292 12846 21021  11759 20880 20894  13735 20486 21193  15963 20559 20740  12544 13916 21199  9262 9650 20927  20263 20362 20925  20189 20426 20427  10962 20875 21152  14712 20470 20761  15952 20261 20946  10607 20515 21134  11594 12963 20637  9607 20497 20976  14861 20565 20591  16381 16383 20810  20670 21457 21510  20709 20988 21211  12560 20573 21368  13325 14898 20408  9625 21050 21315  14911 21455 21512  9820 9823 20549  10690 10692 20705  15945 20768 21140  15372 20820 20998  10922 12636 21035  13200 20340 21123  12551 14832 21053  11666 20933 20968  8557 20564 20947  13992 14934 20352  16332 16402 20335  14832 14834 20695  13165 20649 20943  9947 13163 20694  20672 20697 21042  16408 20618 20623  13997 20481 20484  20132 20133 20134  11711 20936 21009  13941 20341 20638  14864 21147 21338  13304 20554 21060  13164 20457 21129  12585 13939 20768  20228 20245 20658  16378 16503 21415  12714 20631 20824  12149 20243 21515  9829 9831 20726  16371 20137 20625  12648 20667 21375  11625 20559 20740  9252 20773 20924  10005 10007 20452  14814 21262 21363  11939 11941 20403  12189 12191 21308  16184 20084 20449  8202 13294 21087  13640 15968 21166  13989 20414 20415  14642 14656 20213  14100 14182 20690  11614 20451 20452  8665 8666 20629  15956 20773 20924  11668 11670 21473  10224 11575 20782  9968 9969 21093  16343 16345 20776  20501 20502 21471  9817 9818 20513  11795 14891 21421  20519 20580 21268  15956 20773 20834  14853 20265 20266  11124 11176 20847  12083 13333 20518  11134 20505 20506  20648 21458 21471  8600 9049 20634  8557 20510 20884  9770 10685 20587  9580 20539 21048  9197 20617 21251  12946 14911 21455  11669 12848 20511  11995 21291 21490  10222 10224 20782  8284 8286 20673  11635 20546 20547  8535 20382 20896  11944 12072 20538  14182 15781 20835  12634 14045 20770  8291 8565 20430  10163 20253 20404  15932 20222 20841  14815 14817 20696  13189 20456 20715  16391 16396 20447  13943 20221 20257  20361 20661 21041  15982 21281 21468  11678 20679 20680  10617 11993 20881  16648 21102 21261  11732 12541 21395  20638 20717 21115  20451 21291 21490  8452 8535 20896  8203 8205 21162  15546 16532 20216  9640 20362 21446  20577 20578 20939  12854 13989 20414  8650 8652 20546  11791 13330 20759  11935 20770 21351  8608 21457 21510  14853 20457 21129  7752 7753 21253  11124 11126 20847  9772 9774 20627  11078 11134 20505  15938 15977 20340  10674 21369 21491  10631 21628 21634  8114 8146 21197  11560 11562 20351  16379 16392 20618  14746 20628 21081  8589 10687 20582  13832 13834 20476  11128 11130 20829  10869 11612 20545  14905 15999 21503  10691 10693 20418  20859 21304 21330  10218 12570 20257  8681 20652 21239  16353 16355 20960  8642 8644 20675  13683 14670 20206  20628 20755 21081  9674 20500 20780  20177 21300 21502  20245 21224 21515  11666 20966 20968  14073 15743 20602  15949 20694 21306  10475 20181 21173  12549 13993 20512  7744 9607 20976  14631 14634 20996  9818 20513 20549  11666 20965 20966  11917 20406 21186  12184 15620 21479  7770 7773 20671  14715 14853 20265  13617 14761 20993  11927 13035 21110  15946 20467 20607  11130 11183 20829  8116 8147 20965  11234 11752 21293  20553 20628 20940  15975 20346 21269  13935 20222 20260  10258 10260 20507  14927 20643 20831  15959 20755 20756  10249 10251 20971  14849 20934 20968  9844 11704 20840  10239 11610 20769  11614 12215 20451  15993 21258 21311  11687 12944 21024  14687 21196 21202  14777 20491 20659  11760 12457 20555  9849 10627 20342  20764 21435 21516  13938 20540 21123  20901 21111 21462  11754 20623 21557  11929 20420 21175  12618 14149 20723  10245 20734 20832  8677 20886 21246  13157 14701 20941  8535 8536 20884  10687 21052 21194  14647 17205 20520  14934 20352 21043  9787 9970 21109  12450 20361 21041  8243 8531 20517  14923 21332 21505  10777 11957 20935  20502 21098 21437  10245 10247 20734  15721 15921 20551  12855 20460 21449  20186 20383 21401  15937 20514 20516  15949 20997 21306  14152 20195 20196  16335 16530 20737  12196 12198 21514  16341 16346 20750  14074 14639 20504  8163 9671 20604  15990 21052 21194  14838 20259 20478  10615 10914 21339  9201 9595 20679  9818 9820 20549  8113 8117 20748  16343 16346 20776  12851 21352 21416  12944 14153 21024  20341 20638 21410  12716 14711 20567  9514 13297 21100  8285 11931 21574  16583 20568 20569  13157 13603 20941  10251 11664 20971  20707 20708 21411  14754 20573 21405  11957 13624 20935  10005 11614 20452  8269 8271 21128  8198 8222 21160  20502 20780 21437  11622 14819 21157  16355 16400 20960  13573 14831 20577  9696 14840 20411  9832 11699 21055  20369 20510 20564  16319 16321 20353  14833 20744 21535  16582 21518 21546  9855 10657 20741  16330 16402 20608  16309 16311 20225  15954 20346 21491  14837 14838 20478  20400 20401 20425  10269 20772 20827  12078 12080 20471  14865 14867 21298  10775 20661 21041  8536 8557 20884  10194 10607 21134  9119 9490 20344  15957 20652 20839  9703 20773 20834  11929 20420 21036  15994 20544 21362  16357 16359 20583  13925 14829 21542  13155 14683 20426  11672 20712 21407  9207 20487 21031  9099 20841 20946  9595 9645 20679  21146 21307 21398  11993 20881 21325  9989 10198 20343  11694 12565 20951  12072 13908 20538  9070 20673 20674  20967 21050 21315  9045 13161 20761  12619 12621 20730  21392 21539 21613  12648 20667 20700  10686 13967 20632  11699 21576 21587  11770 12554 20609  8575 21116 21300  14731 20363 20364  13727 15582 21453  10239 10241 20769  20181 21173 21561  13202 13204 20254  13832 20476 20477  20655 20656 20657  8622 11639 20742  10297 12070 20774  12586 21550 21573  10276 11576 20767  9625 20458 21019  16377 16379 20618  13840 14753 21260  12855 20414 20460  11723 11725 20260  8598 8600 20634  10489 11648 20793  15939 20996 20997  11779 11781 21396  12962 21653 21655  21082 21206 21447  15926 20162 21425  20554 21056 21060  9146 9199 21100  10163 10165 20404  14825 15972 21478  8669 21238 21371  11595 15913 20845  14876 20337 20699  13304 20553 20554  9946 9947 20694  9722 21007 21018  7768 7770 20671  20145 20146 20147  12621 12701 20730  8117 8159 20748  8534 8537 21139  15955 20707 20708  13300 13302 20454  11902 11980 21419  13296 20704 21016  10167 10189 21099  10179 10181 20936  10198 20343 20687  9257 9260 20926  15743 20602 20603  9260 9262 20927  12577 13937 21075  14864 21217 21338  16407 20445 20446  10322 10324 20959  9978 20726 20727  13943 14767 20221  14831 20577 20578  11933 12634 20770  8227 8228 21011  14198 16799 21015  20458 21019 21412  13939 15945 20768  13917 14631 20996  11641 20722 21022  10161 10163 20253  13581 13822 21270  20222 20261 20841  10322 10498 20959  16328 16330 20608  9772 20627 21135  16395 20447 21250  11692 20951 21138  11075 11077 20589  14900 15942 21069  16398 20488 20489  13947 13966 21081  15968 20824 21166  16392 20618 20619  14859 20967 21025  9715 9995 20887  20564 20880 20947  14829 20562 20563  7736 8186 20762  11958 13823 21231  8202 8204 21087  14171 16658 21275  10936 12630 20807  16354 16356 20459  13208 14677 21159  16499 21057 21118  16388 16390 20422  20831 21331 21550  10197 20646 20923  11747 11749 21012  10947 13164 21177  15693 20195 20196  16365 16407 20445  16366 16398 20488  15943 20178 21337  12189 20252 21308  10913 11571 20206  7748 7750 20918  10934 10936 20807  8281 8560 20813  15977 20340 21123  12614 14721 21207  9974 21136 21298  14577 17650 17651  13824 13879 20596  10625 11571 21143  8604 9620 20837  13961 15980 21164  12570 13943 20257  14769 20775 20793  14872 21196 21202  11612 13944 20545  13163 15949 20694  20784 20785 20786  16371 16372 20625  9715 9764 20887  9605 9816 21211  8100 8104 20956  11615 21056 21103  14656 17334 17335  13300 20454 20717  8573 14728 20864  14718 20455 21381  12852 20901 21111  12998 14073 20602  8267 9130 20651  10297 10299 20774  20208 20209 20212  16339 16341 20750  7731 8568 20747  11805 11806 20735  15587 20778 20902  16335 16337 20737  8222 8242 21160  9774 11700 20627  14840 20411 20412  7746 11644 20976  14032 15747 20633  16367 16369 20874  20420 21036 21373  16378 16380 21415  16381 16392 20810  9200 9594 20780  14913 21488 21551  20640 21246 21367  16314 20410 20492  11994 20729 21226  9969 10004 21093  11636 20477 21002  13766 14916 20569  14182 20594 20835  9855 9994 20741  14908 21537 21556  16268 16684 16685  14747 14749 21201  9517 9621 20865  8650 11635 20546  10932 10934 21210  14664 15642 20338  8207 8208 20944  9813 10192 21368  11644 20918 20919  8681 8682 21239  13838 20476 21260  11749 12695 21012  12457 14082 20555  12552 14876 20337  20516 20875 21152  16298 16300 20921  8652 8655 20546  8208 8213 20944  20708 20709 21211  11664 20971 21350  14729 14731 20363  14928 21525 21569  14743 20423 20728  20616 21404 21495  8233 20889 20979  20383 20384 21401  20234 20243 20246  9973 20258 21459  9228 9230 21127  13198 13938 21123  11727 11776 21359  14827 20690 20691  12630 20802 20807  20616 21320 21593  9223 9224 9225  15968 20631 20824  10920 10922 21035  10614 10617 20881  7734 7736 20762  16300 16405 20921  13879 20596 20597  12565 14722 20951  11649 11651 21195  16383 16394 20810  16367 20445 20874  13206 14708 21159  9755 20754 20755  20515 20516 21134  11566 13924 20351  14840 20412 21077  14819 20808 21157  11127 11129 21049  9681 12851 20684  10306 10511 20579  10276 10278 20767  14738 20781 20987  13780 14130 20508  10293 10982 20814  10934 20807 21210  13952 20347 20348  9944 9948 21047  12583 21474 21503  11695 20197 20986  9823 20549 20945  8622 8624 20742  11568 11570 21321  8180 8193 20777  14853 20266 21129  8237 8446 20843  8161 9755 20754  11782 11983 21418  9721 9787 21109  15115 16204 21355  12554 20609 20610  15977 20540 21123  9515 9517 20865  15944 20343 21105  11642 11900 21046  16609 20771 21193  10968 14851 20728  11914 11917 21186  14048 15583 20448  12701 20383 20384  13298 21254 21412  13983 13985 21033  9620 20669 21313  10608 13186 20724  9737 10704 20862  11636 12661 20477  13294 20479 21087  11759 20864 20894  10267 10269 20827  12630 20800 20802  11765 11766 20781  14859 14860 21050  14754 21017 21364  14847 14849 21025  15966 20188 21534  10189 20405 21099  10607 20469 21410  20298 20300 21548  10956 12418 20753  20457 21177 21310  11097 11751 21323  16038 16039 21347  15712 16505 20182  14941 20759 20760  11805 14713 20735  13894 15344 20248  13767 15199 20736  8618 8620 21008  13946 14841 20639  20365 20880 20894  14092 15587 20902  14787 16488 20702  14772 20789 21027  8105 14720 20956  10316 10318 20607  16346 20750 20751  11602 11604 20647  8681 20652 20839  10304 10306 20579  12544 13149 21199  8654 8657 20995  9593 10689 10690  11761 14878 21267  16345 20776 20930  15948 20487 21364  11751 21323 21441  14045 15950 20770  20347 20349 20649  9816 20708 21211  15981 21044 21107  15115 21110 21355  7723 7724 7725  15296 15595 20129  9771 20587 21189  14029 16037 20854  11624 21114 21381  12576 21307 21398  8103 21532 21578  13894 14465 15344  11641 11643 20722  11746 14874 21088  15372 20935 20998  7750 7754 20918  20756 21076 21248  8567 8573 20864  10452 10489 21366  8269 20651 21128  7722 7724 9636  15924 20104 20156  10248 21665 21666  20408 20409 21507  14052 16267 16268  8261 8543 20882  15981 20900 21107  11937 12637 21351  10167 10169 21099  10243 10245 20832  8669 20629 21371  14916 16583 20569  11596 13580 20637  8618 9635 21008  13165 20686 20730  13947 14746 21081  10966 14851 21226  12701 12702 20383  13945 15531 21483  14809 20712 20853  9625 20458 21050  20414 20415 20416  14784 14809 20710  20178 21235 21356  9093 14756 21014  8218 11626 21232  20378 20460 21449  8147 11666 20965  8237 8239 20843  14712 20470 21289  20952 21294 21492  11642 14819 21046  12174 13952 20347  14891 14894 20658  10703 10975 20982  11896 11898 20641  7731 7733 20747  14634 15939 20996  10293 10295 20814  14847 14859 21025  7762 10199 20890  12225 12422 20766  12152 12671 13336  14708 20255 21159  14679 16050 20180  14878 21267 21340  10610 21003 21434  11070 11072 11136  20121 20123 20124  10687 20582 21194  10957 12585 20768  14764 20421 20919  11720 11722 21151  20627 20648 21135  10962 10964 21152  8645 8647 20928  10316 15946 20607  16345 16348 20930  14859 20967 21050  14720 20878 20956  9722 9788 21018  11176 20847 20848  8227 8526 21011  12947 13675 20196  13923 15923 15925  13620 13622 21240  9706 14864 21217  8193 8201 20777  12658 12957 20783  20349 20649 20943  8703 15952 20946  10667 12401 21643  13201 13634 20630  15991 21052 21283  9755 20628 20755  15754 16259 16853  14052 16268 16269  10446 10486 21079  7740 20499 21435  20783 20784 20785  9201 14763 20679  8110 8114 21197  15986 21223 21345  13767 20736 20753  15730 15731 15732  8590 10674 20758  11627 20905 20955  10285 11953 20812  20423 20729 21546  12582 14885 21500  11722 11750 21151  10286 12561 20561  11590 20876 20877  8661 15385 21006  10968 20728 20873  8230 8243 20517  11633 13573 20577  14062 14177 16215  12618 12620 20723  9803 9804 20840  10197 10200 20923  14843 14845 21265  13765 13766 20569  20709 20988 21369  20610 20612 21235  16242 16499 21118  8112 8116 20965  16314 16316 20410  8180 20777 20985  14716 20455 20456  14738 14740 20987  10182 10184 20746  12418 13767 20753  20701 21529 21544  11712 21223 21345  14032 14033 20633  13303 20648 21135  12014 12405 20586  11674 13926 21191  10201 10208 20687  20596 20597 20600  8186 20762 20763  15982 20591 21430  20545 21352 21416  20681 20683 20685  8205 9649 21162  20664 20667 20700  11624 20455 21381  13776 15648 20191  12670 12671 14114  13997 20484 20485  9819 9821 20861  12563 13961 21164  11730 11731 21051  20565 21146 21430  13937 14826 21075  8647 11638 20928  14645 14647 20520  16342 16344 21216  14820 20815 20974  11745 21424 21568  15273 15813 20575  14790 14792 21229  14724 20263 21075  10193 11744 20469  20662 20664 20700  14100 14827 20690  15226 20605 20606  10627 10949 20957  7780 13184 21130  14706 20264 21314  12614 13893 14721  12580 20500 20501  13975 14929 20171  20669 20670 21457  12847 13927 21262  20680 20681 20682  13098 14602 20957  8107 11590 20876  9630 9696 20411  14672 14674 20345  11718 11927 21110  10702 10703 10974  10233 10588 20980  11766 11769 20781  7780 7782 21130  10928 12635 20953  13003 14907 21299  13596 16418 16419  14777 14779 20491  10975 11998 20982  11647 14820 20974  16392 20620 20810  9962 13933 21143  14664 14666 15642  14819 21045 21046  20469 20638 21115  11768 11770 20609  15296 20129 20552  14834 20169 20170  14837 20478 20716  14022 15550 21384  10198 10201 20687  12701 20384 20730  20657 21304 21330  10778 20997 21306  15991 21283 21294  15980 21163 21164  20434 20435 20437  10928 10930 20953  16346 20751 20752  15668 20420 21175  13960 21343 21393  7781 9673 20852  20788 20789 21027  8873 9705 20821  9122 9150 20749  13970 13973 20407  16238 21201 22682  10179 11711 20936  13213 13215 20771  8221 8223 21476  14664 14665 14666  10610 21281 21434  10181 10186 20936  8231 8232 20888  10283 10285 20812  9516 14850 20816  20350 21013 21241  15714 15716 15736  20454 21072 21115  13215 13218 20771  8633 9075 20871  13975 13976 13977  14028 16205 20413  14785 14787 20702  10694 10696 21026  8659 8660 21274  15371 16861 20819  15950 20425 21351  11604 20647 21036  11717 11719 21346  10296 10298 20572  15958 15959 21061  10883 12610 20558  14577 17651 20174  15962 21091 21366  14711 20567 21564  12001 12003 21126  7764 7766 21200  14678 20186 21401  8203 14813 21162  11103 11105 21477  8451 9045 20761  16328 20090 20608  15477 16124 20548  16006 20386 20387  16372 16375 20625  8908 8910 20743  10219 10870 20566  13035 15115 21110  11979 13744 21277  15979 21285 21286  16312 16403 20492  20409 21445 21497  11721 14685 20857  20188 21508 21581  13333 20209 20210  9589 13159 20817  11071 11072 11073  9775 11589 20818  15725 15726 15727  20685 21374 21416  10307 11624 21465  20377 20378 21449  10775 20661 21057  8837 8839 20895  15959 20756 21061  20609 20610 21356  10183 10186 20788  11689 21024 21436  10243 10623 20832  20365 20367 20880  14809 20710 20711  10620 11912 21105  16402 20608 21524  9642 14871 21266  7760 8102 21446  9736 12580 20500  14860 20458 21050  10588 20980 20981  20228 20230 20245  20207 20942 21143  8667 20578 21028  14782 14784 20710  15716 15736 20969  8822 12069 20537  12954 14024 21105  10298 20572 21379  11587 12549 20512  14039 15539 20689  11762 12553 21213  9230 11708 21127  10192 20574 21368  13207 13761 20879  14679 14680 16050  12180 20347 20649  8097 21485 21501  12658 13853 20783  14814 20160 21363  13916 15917 21199  8653 8654 20995  14746 20553 20628  14772 14773 20791  8255 12067 20256  11941 11943 20595  9781 9784 21204  9653 9654 21013  14053 14166 21171  9653 20984 21013  13967 20632 21452  9651 11713 21176  14854 16550 20825  8233 8236 20889  20178 21337 21356  14053 16452 21171  13295 20989 20990  20588 21190 21575  20573 20574 21368  8446 20843 21095  8703 8705 20946  9621 11637 20842  8591 10687 21182  10953 10954 20581  13173 13175 13316  20681 20682 20683  20399 20401 20402  8212 13295 20989  10318 10321 20607  11765 14738 20781  14834 20170 20695  13197 13199 21038  10253 11664 20509  14656 17335 20213  13168 13170 21117  20754 20755 20756  11730 14629 21051  14900 14901 21069  10007 10195 20452  9621 20842 20865  13824 14414 20596  19964 19967 19968  13321 14906 20214  20153 20154 20155  8192 8532 21301  20387 20388 20389  20554 21056 21103  14749 16238 21201  10218 20257 21206  8631 8633 20871  14195 15576 20198  12002 12714 20824  14775 14777 20659  11628 14865 21136  11630 20886 21367  10884 10886 21020  14751 20637 21566  9801 21044 21107  11780 11983 20450  9647 9681 20684  13192 13193 20977  8075 20219 20732  10332 10475 21173  11805 13998 14713  14848 14861 20591  14709 20394 20766  11602 11607 20647  14658 20162 20163  20683 20685 21374  12706 12710 21005  11603 20703 20916  7753 20890 21253  13622 16231 21240  10909 10911 21207  8840 8843 20913  11700 14770 20627  14834 20164 20169  14867 14870 14912  14755 20511 21365  14034 14035 20779  14734 15226 20605  13207 13209 20879  20233 20234 20235  13894 13895 14465  13788 13931 13932  8910 11894 20743  13301 13307 21010  8677 8678 20839  11943 12663 20595  9821 11684 20861  11562 11566 20351  10186 20788 20789  14874 20655 20657  15722 15724 20220  20434 20437 20441  16403 20492 20493  15296 15594 15595  9987 10197 20646  20116 20117 20118  13992 14658 20352  9833 9835 21153  9204 15948 20487  14756 14830 20269  13186 13301 21010  14823 20384 21401  9859 10611 21002  9803 20428 20840  13975 13977 14929  20477 21002 21064  7771 7772 20858  10926 12635 20872  20133 20134 20135  10184 10917 20746  13983 14931 21033  12647 14029 20854  9829 20725 20726  8671 11631 20939  14028 16035 16205  11752 12940 12941  14268 20568 20569  20689 21339 21463  11797 11799 12587  14715 15600 20265  8533 8534 21139  15993 21259 21426  20876 20877 21106  10176 10178 20937  13151 13848 14262  13295 20990 20991  10899 12525 21124  13151 14262 15918  14024 15944 21105  12748 13727 21453  12588 13919 13920  8231 9951 20888  14716 14718 20455  9998 10712 21249  20377 20380 20381  12183 12184 12968  11782 11784 21418  20511 21274 21365  9249 9252 20924  10938 10940 21137  15943 20177 20178  12188 14115 20424  10779 20509 21287  16392 20619 20620  8655 15397 20546  12968 14195 14196  8182 13296 21016  8077 21067 21170  11804 11805 11806  11621 11721 20857  14892 14893 14895  14773 14776 20791  10164 11617 20938  13979 13980 13981  12522 14741 20873  12003 12503 21126  12193 13003 21299  11626 21085 21232  9754 9772 21135  11780 11781 11782  15730 15732 16626  14931 21033 21034  8876 9694 20892  14415 17106 20692  20406 21175 21186  16185 16186 16187  16350 16353 20954  11961 12845 20252  16312 16314 20492  15649 15650 15651  9811 9813 21368  11600 11603 20916  12957 20783 20784  15967 20860 21092  12085 12087 20208  10489 20793 21366  15952 20856 20857  8105 13923 14720  7776 8163 20706  13321 13323 14906  10162 10164 20938  9513 9516 20816  16308 16310 21215  20284 20286 20287  14914 14915 20701  10878 15267 16176  20612 20614 20617  14894 20227 20228  15546 16920 20216  16348 16351 20930  10890 20432 20823  11748 14874 20655  10178 10803 20937  16184 16185 16186  11951 13310 21004  21038 21039 21040  16386 16413 20626  8872 11671 20885  11562 11565 11566  11644 20421 20976  14062 14063 14177  10000 10001 21278  14683 20166 20189  14741 20728 20873  13944 15963 15964  20305 20307 20308  14894 20226 20227  10221 12586 20566  14772 20789 20791  20683 20901 21462  14767 14877 20221  13186 20724 21010  11616 12138 20838  12630 20800 21137  12560 20573 21405  20121 20124 20125  10924 10926 20872  20516 20875 21134  12187 13682 13683  12553 14899 21213  14603 18552 18717  14035 14099 20779  8696 11621 20856  14896 16006 20386  15967 20168 21429  13930 20716 21348  8287 11931 20719  20617 21235 21502  8234 8238 21168  8537 21139 21222  11603 11605 20703  10907 10909 12526  9260 20926 20927  9845 9847 21280  20146 20148 20152  8230 11573 20517  16344 16404 21216  19967 19968 19969  8575 8577 21300  13169 13171 13172  15958 20739 21061  14729 14926 20363  14910 14913 21488  9600 14864 20850  14815 20160 20696  9775 9777 20818  13983 13984 13985  9755 20628 20940  20411 20412 21047  10890 10892 20432  20500 20501 20502  7748 11644 20918  10690 14890 20705  20209 20210 20211  16353 20954 20960  15941 16246 16247  12549 13992 13993  10900 10902 11453  14082 15622 20555  15595 15596 15597  8876 8878 20892  20741 21177 21310  14602 18553 20957  20435 20436 20438  14756 14829 14830  14092 15586 15587  7752 7755 21253  16400 20960 20961  13984 13986 16457  11789 11791 20759  16309 16409 20225  9232 9234 20867  10629 11600 20916  9827 9829 20725  8130 21076 21248  11579 20467 20607  14767 14843 14877  15712 15713 15714  10607 20515 21410  14668 14669 15295  8638 8640 21083  14892 14894 20226  15964 21374 21416  11683 20826 20929  9043 9086 21208  13965 15999 21494  13944 15964 20545  15959 20755 21081  20510 20884 21484  14824 20686 20943  13908 16230 20538  20514 20515 20516  13728 15545 21270  14809 20711 20712  11650 11653 20775  11791 11793 13330  8899 11702 21071  10001 20560 21278  14758 14764 20421  9977 10220 21174  13161 13954 14712  9577 9605 21211  20234 20235 20236  8099 13922 21067  12552 13930 20337  12847 13153 21262  8295 12163 20429  16396 20161 20262  11781 13996 21396  9779 9782 20676  14932 14933 14937  16647 16648 16698  13568 14460 17091  11609 11914 21186  12199 12200 12392  20146 20147 20148  13318 20655 20656  15711 15712 15713  15709 15711 20792  8675 12551 21053  14656 15297 17334  7771 10678 20858  12954 14023 14024  10609 21146 21430  20480 21086 21087  11783 13996 20481  16354 20100 20459  13302 14825 20454  10304 14659 20579  20337 20699 20899  11126 11127 11128  16316 20089 20410  20119 20120 20121  9224 9225 9226  11652 11654 20698  15941 16245 16246  12942 13969 13970  20399 20400 20401  10907 10908 10909  11806 12076 12077  9131 14730 21179  10183 10185 20788  12981 14663 20642  10611 11636 21002  10313 10314 20914  14758 14902 20497  8838 8840 20913  9759 13166 13167  8908 9014 20743  12614 12615 13893  11772 12554 21295  12549 13990 13992  14667 14668 14669  7768 13953 20671  13568 14245 14460  8077 20219 21170  10954 10956 20753  21257 21258 21259  20451 20452 21291  20145 20147 20150  12588 13920 13921  20796 20800 21137  10910 10912 11454  12568 13941 20544  8646 8648 21065  9242 9245 21286  11729 11732 21359  13879 20597 20598  11678 20681 20684  12586 21331 21550  12617 13165 20649  14905 15958 15997  20320 20321 20322  14816 20899 21348  13155 14637 14682  14761 14762 16447  10269 10271 20772  11648 11650 20775  11961 12188 12189  13196 13938 20977  14753 20573 20574  12186 13156 13157  14759 20594 20690  12981 14242 14243  20277 20278 20279  8446 11775 21095  14899 14900 14904  9784 9819 21204  15267 17115 17116  10255 10779 20509  11912 12953 12954  11776 12857 14886  12710 20426 21005  8839 20895 21144  10260 12849 20507  10685 13968 20587  11654 12158 20698  8657 14855 20995  11566 11568 13924  13296 20704 21447  20319 20320 20321  11573 11760 12217  13950 20699 20899  8228 12852 21011  12200 12588 20635  7779 9673 21062  16500 20361 20661  11571 20207 21143  9992 10615 21326  9801 20808 21044  13192 14771 20977  8843 13293 20913  13008 14251 20464  12085 12086 12087  14761 16447 16449  11631 20577 20939  15961 15965 20341  20323 20324 20325  9234 9483 20867  13834 13838 20476  14034 20779 21045  16353 16354 16355  15711 20094 20792  10909 10910 10911  16242 16497 16498  16346 20752 20776  13596 16419 20570  13952 20348 20350  20294 20295 20296  12857 14932 20721  12560 21203 21405  8701 15952 20856  14074 14638 14639  8872 8874 20885  14769 15962 20793  10678 13958 20858  20639 21147 21338  15941 16247 20247  20889 20991 21074  12660 14765 20581  14023 15528 20453  16363 16365 16366  15955 20708 20709  13683 14154 14155  13173 13174 13175  15540 15541 15542  15942 15943 20176  16345 16347 16348  14722 20951 20952  14674 14675 14676  9976 10870 21583  20323 20325 20329  14767 14842 14843  13995 14935 14938  20380 20382 20896  14922 14923 14924  12963 14715 14751  12078 12079 12080  10892 10893 10894  13297 14678 15970  7766 13953 21200  14641 14642 14643  14919 16018 16019  14100 14181 14182  14919 16019 21387  11566 11567 11568  8201 14813 20777  13573 14013 14831  20108 20109 20111  11958 12657 13590  16328 16329 16330  8665 11668 20629  15719 15720 15721  13166 13168 15956  14721 15342 15343  15714 15715 15716  12555 20662 20663  11112 11114 11682  11929 21175 21186  20309 20310 20312  14166 15546 16919  15597 15709 20101  11651 11655 21195  13788 13932 15700  12748 13581 13727  20364 20365 20366  14083 15298 16533  14849 20934 21265  16301 16302 16303  20414 20416 20460  12187 12965 13682  8073 12497 13151  13218 14225 20771  14647 17204 17205  20461 20462 20463  8298 11697 20468  16390 16411 20422  9593 10690 14890  14820 20815 20975  16228 16229 16675  16317 16399 21023  10315 20167 21155  10878 16176 20718  10308 10310 20994  20682 21431 21470  11780 11782 11983  14765 20581 20736  11621 20856 20857  14753 14754 20573  13603 20158 20941  11093 11094 11095  16396 20140 20161  16036 16037 16038  12076 12078 12962  8172 8180 20985  13934 14823 21401  7723 7725 9608  8561 9043 21208  14819 20808 21045  16294 20138 21184  8555 8567 20864  14743 16422 20423  10266 11572 20851  11791 11792 11793  20297 20298 20299  11649 14820 21195  8885 8889 20964  11562 11564 11565  20348 20350 20984  14710 14944 20250  15954 15975 20346  20373 20375 20376  9512 9513 20816  10449 12394 20963  15739 16183 16803  12522 14739 14741  20582 21194 21399  10687 21052 21182  9207 9604 21031  13988 20992 21586  14092 15531 15586  11126 11128 11578  14660 14705 15930  11850 14213 14679  14195 14196 15576  15737 15738 15739  20500 20502 20780  11939 12637 20403  20114 20116 20117  10194 10196 21134  12619 12620 12621  9587 9589 20817  11927 13008 13035  13161 13162 13954  15271 15273 15813  14639 19962 19963  11900 12740 21046  14896 16005 16006  11936 12450 20733  16305 16306 16307  14198 15654 16799  9642 9738 21266  9708 13313 21218  11927 13007 13008  14927 15995 15996  16010 16759 16760  16359 16360 16361  19963 19964 19965  11993 21118 21325  14942 14945 16015  12657 14057 14058  13199 20630 21038  14724 14889 20263  14641 14643 20004  14863 14881 14897  13946 14746 14841  13728 14166 15545  12963 14714 14715  13972 13973 13974  12196 12197 12198  15546 16919 16920  16332 16333 16334  10671 10775 21057  15273 15275 20575  11745 14865 14866  13728 14053 14166  9862 10631 20893  16337 16339 16486  15290 15752 17206  16315 16317 21023  13697 13698 13699  9093 13925 14756  11777 13329 21385  11669 12847 12848  13189 13190 13191  14687 15934 20187  14099 15981 20779  14747 20698 21201  10233 10235 20980  9869 11470 21244  7754 15953 20918  12664 14065 14709  10690 10691 10692  11768 12573 20609  9620 20669 21457  13919 14921 20128  20565 20591 21430  11112 11113 11114  15982 21430 21468  9670 9672 20697  15722 15723 15724  12851 20684 20685  14785 16433 20702  16390 16391 16395  9660 9722 21007  16580 16581 16582  11098 11099 11100  14779 16257 20491  20682 20683 20901  14744 14759 20594  11979 12173 13744  12577 12578 21075  13917 14630 14631  12620 12699 14144  14812 19612 19744  10688 11025 13963  11783 11784 11785  14716 14717 14718  15576 16623 17050  8063 11558 20732  13958 20859 21304  12628 20794 20795  9044 9600 20850  14835 20594 20835  14846 15982 20591  13675 13695 15592  11694 12564 12565  14923 14924 14925  15664 16274 16756  20656 20657 21329  20347 20348 20349  10947 12998 13164  8665 11667 11668  16391 16393 16396  16408 20624 20625  10920 12639 21035  14048 15556 20448  9232 11708 20867  9250 9507 13331  13624 14068 15371  10620 20343 21105  13985 16025 21033  14658 20163 20352  14918 16017 20701  9817 11629 20513  13837 14661 14872  16359 16364 20583  15734 15737 16721  10940 12628 21137  14889 20263 20362  12563 13180 13181  10942 12628 20794  20784 20786 20787  16339 16340 16341  11788 11969 21224  11900 12739 12740  10305 11624 21114  12191 12192 12193  12617 12619 13165  12671 13336 13337  12947 12948 12949  16369 16371 20130  11097 11098 11234  14861 14862 14863  11675 21006 21408  12215 14760 20451  13306 13307 13948  8232 8234 21168  10899 10900 10901  11596 12748 13580  7724 7725 7726  16309 16310 16311  10964 10970 11665  14848 14859 14860  13098 13627 14602  10283 10959 20812  11106 11107 11108  11633 13572 13573  11083 11085 11955  10284 12559 20561  8885 20891 20964  10278 12567 20767  11776 12856 12857  15973 20962 20963  11965 12649 12650  10283 10284 10285  14153 16167 16168  9947 12543 12544  20278 20279 20280  12552 13929 13930  8286 11577 20673  11996 13640 21166  12188 12190 14115  13321 13322 13323  14769 14771 15962  14926 14927 20831  13971 16173 21237  16319 16399 20353  11116 11118 11194  12947 12949 13675  14724 14725 14889  15962 20793 21366  8218 8224 21232  10278 10280 12567  10688 11024 11025  10263 10710 20650  13853 16201 20783  16319 16320 16321  11669 11670 12847  14939 14943 16014  13881 16109 21172  9240 9242 9245  11072 11073 11074  13155 14682 14683  13204 14708 20254  13951 14815 14816  20106 20107 20108  20531 20532 20533  10679 10681 10683  14645 14671 20520  11757 13318 20655  13781 14130 14131  11728 11730 13935  15970 21048 21100  9257 9259 9260  13926 21191 21247  9515 11618 20865  15720 15721 15722  14811 20790 20791  15665 15666 15667  20904 20905 20906  10968 10969 20873  12652 12653 20902  7733 12065 20747  10898 10899 10900  12212 12555 20662  12710 13155 20426  12585 13325 13326  15721 15722 15723  14810 20713 20714  13621 14048 14706  11797 11798 11799  13302 13306 14768  14930 15822 16003  20373 20374 20375  8825 15294 20131  13942 14766 14821  15651 15754 16259  11581 11586 13158  10614 10616 10617  12083 12085 13333  14034 21045 21046  11107 11109 11264  11684 13957 20861  14790 14808 21229  8675 11696 12551  10966 10968 14851  12180 12617 20649  10689 10690 10691  15966 16001 20188  13640 15619 15968  10892 10894 12487  14130 14131 15558  14922 21485 21501  13569 13805 14246  11731 11732 11733  15670 16102 20406  11717 11718 11719  9037 20988 21369  8186 20763 20764  10263 10264 10265  11011 11598 12716  9651 11712 11713  20280 20281 20282  20470 21168 21289  13853 16200 16201  20905 20955 21317  12080 12082 12692  8277 11645 20920  14894 20228 20658  9014 14757 20743  14854 15747 16550  10912 11021 11022  11128 11129 11130  13966 14905 15958  11912 12455 12953  11584 11587 12550  8655 11675 15397  10886 12608 21020  12186 13157 13602  13603 14657 20158  10703 10974 10975  12174 12179 12180  12487 20432 20433  20289 20290 20291  11694 12562 12564  9867 9869 21244  14033 14035 14097  13835 13837 14235  11083 11084 11085  13204 13206 14708  11116 11117 11118  12639 14671 21035  15283 15284 15285  11127 11981 21049  10241 10623 20769  10712 13156 21249  11725 11727 11728  10260 10262 12849  11933 11935 20770  12647 12675 14028  10949 11612 12652  12578 14722 14723  14130 16255 20508  16321 16322 16323  11725 11726 11727  14414 17242 20596  13823 14031 15345  10693 10694 10696  11804 11806 12075  10284 10286 20561  12653 14092 20902  12854 13987 13989  13149 14648 20032  10296 10649 20572  11685 11687 11689  14073 14074 15626  15709 20101 20792  16333 16335 16530  15716 15717 15718  8659 14855 21365  10701 10960 10961  20366 20367 20368  10193 10607 20469  20271 20272 20273  11789 11790 11791  10954 20581 20753  19963 19965 19966  13848 14922 14923  8258 8260 9132  13624 15371 15372  15271 15272 15273  20618 20619 20623  9979 10878 10879  12215 12216 13617  10219 10221 20566  8146 14752 21197  20375 20377 20378  16359 16361 16364  15976 20479 20480  11701 13315 13964  10227 10228 10229  14634 15566 15567  14025 14688 14689  11085 11955 20863  15295 15296 15594  16268 16269 16684  13149 14640 14648  13573 14012 14013  10693 10696 11850  14629 15932 15933  12554 20610 20611  14839 15446 16632  8255 8257 12067  12617 12618 12619  14415 14928 20692  13986 16023 16024  14794 14807 20027  13175 13316 13317  14763 20679 20680  14726 15990 15991  16187 16188 16485  10299 12155 20774  8642 11954 20675  15477 15478 15480  12578 14724 21075  13310 14040 21004  14661 14872 20592  14199 16489 21101  12954 14022 14023  20369 20371 20510  11662 14747 20698  13935 14629 15932  14835 15361 16243  12981 14243 14663  15656 17539 17540  9235 9236 9237  10892 12487 20432  11704 11963 14732  8267 8269 20651  8598 11620 20634  10324 20958 20959  20349 20898 21228  14817 14838 15931  15667 15668 15669  11704 11951 11963  9852 10010 10677  11965 12650 18175  16377 16378 16379  9946 9961 20694  11012 11777 11778  8878 20891 20892  12628 20795 20796  15935 20194 21460  10321 10498 11579  11761 12553 14878  11605 12508 20703  14131 15967 20168  12707 12708 12709  16335 16336 16337  10887 10888 10889  14895 14896 16054  20325 20326 20328  8662 11640 21028  10889 10890 10891  12577 13936 13937  10777 10913 11957  9788 9968 9969  14877 20221 20704  14025 14689 14690  10947 10948 12998  11781 11783 13996  16609 16827 20486  13776 13777 15648  12703 21102 21261  15734 15735 15737  9868 9870 9958  12195 12196 12197  14576 14577 15479  15566 15567 15664  8878 8880 20891  13624 15372 20935  11795 12398 14891  13193 13196 20977  12561 20562 21142  11109 11264 21272  9736 9862 12580  20437 20442 20443  10000 10218 10595  9238 9239 9240  9944 9946 9948  11589 11700 11701  10231 10233 10588  13620 13621 13622  14045 15544 15950  15287 15288 15289  9649 12581 12583  14743 16421 16422  14746 14841 20553  8184 8197 8198  12191 12193 12194  10949 12652 13098  10321 11579 20607  14867 14868 14870  9798 9952 9953  14177 16215 16810  20471 20472 20473  13909 16228 16229  15114 15115 16180  15273 15274 15275  10686 13187 13188  8159 20745 20748  11687 11688 12944  13172 13173 13174  15471 15474 18590  9681 9751 12851  16316 16318 20089  9994 11591 20741  16336 16337 16338  12570 12571 13942  14199 15513 16126  12661 13831 13832  13297 13934 14678  11115 11116 11117  20230 20231 20232  14764 20593 20919  20348 20349 20898  11607 13179 20647  13290 13291 13292  14846 14847 14848  14642 14655 14656  11579 11581 20467  8174 9578 20494  8525 21056 21060  20710 20711 20713  16365 16366 16367  9039 21444 21507  20898 20984 21070  13621 14706 21314  11078 11080 20505  13581 13728 21270  11101 11102 11103  13931 14672 15935  8255 8256 8257  11757 11947 13318  12574 14769 20775  16332 16334 20335  16316 16317 16318  10271 10805 20772  16324 16325 16326  10887 10889 12611  11123 11124 11125  10438 11695 20986  13765 13767 14268  13163 13917 15949  13193 13194 13195  9240 9241 9242  12718 13908 13909  10949 13098 20957  14033 14097 20633  20801 20802 20803  15290 15291 15752  11695 13289 15938  12717 13776 13777  16295 16296 16297  12664 12665 14065  20610 20611 20612  14074 15626 20504  13306 14768 20707  11103 11254 21477  12418 13765 13767  14885 21452 21500  8174 8183 8184  9225 9226 9227  11653 12574 20775  14633 14634 15566  14891 14892 14894  14672 14673 14674  16379 16380 16381  10247 10249 10668  13908 16227 16230  11731 11733 11734  13955 15961 15965  10957 12584 12585  13156 14701 21077  10911 12614 21207  15667 15669 17270  9994 10653 10654  12077 13332 20735  14577 15479 17650  16581 21349 21489  8253 8254 8255  16002 21424 21568  11695 15938 20197  11769 12719 20781  10295 10296 10297  20704 21016 21409  15463 15464 15465  10777 10778 20935  15521 15957 20652  11643 11902 20722  13898 15114 15778  9824 9957 20929  20523 20525 20526  10186 20789 20790  14082 14083 14084  11553 11984 12691  10249 10250 10251  11773 11774 11988  11850 14212 14213  15544 15950 15951  11584 11585 11587  8114 8118 8146  16372 16373 16374  11958 13590 13823  20367 20369 20564  16386 16387 16388  10246 10247 10248  15266 15269 17197  11655 21195 22932  16337 16338 16339  20822 21400 21499  16405 20922 21480  9267 9268 9269  14865 14866 14867  14013 14831 15240  14873 21305 21496  13833 13834 13835  9736 9861 9862  13946 13947 14746  10701 10962 20875  13153 13950 13951  9201 9594 9595  9951 10608 12568  14807 20028 20190  12215 13617 14760  10510 13137 13138  12080 12081 12082  10775 10776 21041  20312 20313 20314  13853 15454 16200  8280 8281 8282  14032 14854 15747  11109 11111 21272  11984 13159 13620  10253 10255 20509  15284 15285 15286  11119 11120 11121  10222 10225 20782  9265 9267 9504  12214 20662 20700  15731 15733 20085  15464 15468 17215  20133 20135 20136  9588 9642 14871  11609 11913 11914  14099 14100 14827  14779 14781 16257  9131 14729 14730  11700 13314 14770  10878 10879 15267  20556 20557 20580  20302 20303 20304  11980 13952 21419  14644 14645 14646  14775 15517 20659  11938 13005 20733  8698 8701 20856  9512 9708 11597  10171 10173 20983  8195 13296 21082  12200 12546 12588  14675 15656 17539  8573 9131 14728  10255 10256 10257  16310 16403 21215  12848 13928 14755  11752 11753 12940  14683 15929 20166  12457 14081 14082  10260 10261 10262  10319 14812 19612  8170 10678 10679  11763 11764 11765  20286 20287 20288  14815 14816 14817  9998 10711 10712  20365 20366 20367  12174 12180 20347  14672 15935 20345  11793 13330 14710  15669 15670 15671  11723 14685 20260  10299 10301 12155  9779 9780 9781  9860 20866 21140  12574 13192 14769  16499 20661 21057  13992 13993 14658  20290 20292 20331  20756 21061 21076  15371 15524 16861  9674 9736 20500  12647 14028 14029  10685 10686 13967  14225 16609 20771  12578 14723 14724  20288 20289 20290  11077 11078 11079  9994 10654 11591  11763 11765 12522  8624 8626 9602  10711 12185 13036  16303 16304 16305  8298 8299 8300  9811 9812 9813  20796 20798 20800  9257 9258 9259  13834 13836 13838  11102 11103 11104  13299 14135 15973  14744 14835 20594  20802 20803 20805  9947 12544 13163  14246 14462 17112  11768 11769 11770  13926 21247 21402  14782 14810 20710  9981 9982 9983  12563 13181 13961  12704 12706 21005  11723 11724 11725  15992 15993 21426  12078 12962 20471  14791 14792 14793  16390 16395 16411  12710 13148 13155  20298 20299 20300  10884 12470 21020  12011 12013 12667  11939 11940 11941  10196 10701 20875  11704 14732 20840  13840 14707 14753  11626 21456 21467  13834 13835 13836  12180 12616 12617  9849 9851 20342  8184 8198 11709  16315 16316 16317  13290 13292 15960  13204 13205 13206  14198 14234 15654  9671 9995 20604  16498 16499 16500  14778 14779 14780  8299 8301 8569  11801 11802 11803  16366 16368 16398  9246 9248 9759  9737 9738 9863  10709 12137 13189  13697 13699 20868  9622 9624 21070  11746 11747 11748  10917 11948 13182  8164 8165 8166  11085 11086 11090  10962 10963 10964  9836 9837 9838  20120 20121 20123  9777 9778 9779  14153 15637 16167  9815 20952 21294  13325 13327 14898  20315 20317 20318  14414 14415 17106  12014 12016 20586  11662 12951 14747  11772 11774 21295  11728 11729 11730  13824 13825 14414  9252 9253 9254  13989 20415 20417  11999 12400 21125  11558 11559 11560  20107 20108 20109  9652 9653 9654  14638 19961 19989  11586 13158 15928  14638 19989 21417  15266 15268 15269  8260 8261 8262  11898 11952 13846  8275 11645 21094  15556 15557 15621  12619 13165 20730  8271 8545 21128  9829 9830 9831  10623 20832 20833  10974 11996 12860  14135 15974 16639  9204 9669 15948  9204 9668 9669  10277 10278 10279  11700 11701 13314  10274 10276 11576  16351 20931 20932  12675 14171 14172  9268 9269 9270  11618 13297 13934  9779 9781 20676  9600 9706 14864  12854 12855 20414  11979 11980 12173  8230 8242 8243  8104 8107 11590  9645 11678 20679  13964 21534 21563  11765 12522 14738  10253 10254 10255  10776 11932 11933  16372 16374 16375  13881 15516 16107  11945 12689 12690  11234 11751 11752  11777 11779 13329  10903 10904 10905  12224 12225 12421  15961 20544 21362  11748 11757 20655  13683 14155 14670  10953 11636 12660  13008 13035 13898  13602 13603 14228  9788 9971 21018  8296 8298 11697  20369 20370 20371  14785 14786 14787  10686 13188 20632  9256 13177 20926  7734 11691 20762  9992 10613 10614  14776 14778 14811  8286 8287 8288  14687 20187 21202  13640 14120 15619  14782 14783 14784  10776 11933 11934  20148 20149 20151  11898 11899 11952  9783 9817 11628  14734 14735 15226  12585 13326 13939  16036 16038 16040  11073 11074 11075  9268 9270 11457  14832 14833 14834  14812 19744 20838  10701 10961 10962  10917 13182 20746  14702 15945 20258  15474 15475 15476  9788 9969 9971  11766 11768 11769  9987 9988 9989  12661 13832 20477  15471 15473 15474  10614 10615 10616  14135 15973 15974  10278 10279 10280  9764 9798 11970  8166 8173 9949  13840 14686 14707  13201 13203 13634  20303 20304 20305  20348 20898 20984  11583 11584 11585  12998 13147 14073  11757 11946 11947  9777 9779 9782  9804 9843 9844  9866 9867 9868  14732 14734 20428  10295 12070 20814  12184 12968 12969  10286 10288 12561  16375 16377 16408  12643 12645 12648  10932 12498 21210  8645 9080 20928  8671 11630 11631  7774 7777 20897  9944 9945 9946  9228 9229 9230  9817 11628 11629  10268 10269 10270  9781 9783 9784  20228 20229 20230  9672 12576 20697  12184 12969 15620  9622 9623 9624  10198 10200 10201  16366 16367 16368  9671 9715 9995  15726 15728 16256  16006 20387 20388  9651 9652 21176  14835 16243 20835  10966 10967 10968  10304 10305 10306  16377 16408 20618  9254 9256 9703  12420 14839 20949  20315 20316 20317  8277 8278 8279  16380 16381 16382  10292 10293 10294  10697 11011 11598  9741 9807 9808  9645 9646 9647  13839 13840 14686  14737 14744 14745  9822 9824 20929  10256 10258 12548  10230 10231 10232  10169 10170 10171  13958 20858 20859  9652 9677 21176  10267 11574 20827  13944 13945 15963  15277 15278 15279  11938 11939 11940  9674 9735 9736  11621 11720 11721  10005 10006 10007  14748 14749 14750  14121 15688 15765  8295 8297 12163  8295 8296 8297  11568 11569 11570  13320 14044 15998  15539 15540 15541  9263 9264 9265  14082 14084 15622  8269 8270 8271  8247 8249 11755  13289 15977 15978  16308 16309 16310  10185 11599 20788  8642 8643 8644  8600 8604 8605  14663 14664 14665  11595 11596 12747  12072 12718 13908  9852 9853 10010  12214 12642 12643  14144 15584 16587  12645 12646 12647  14225 15659 16608  8905 14836 20948  9839 9840 9976  11761 11762 12553  10286 10287 10288  12002 12004 12714  9977 11754 21174  14048 14706 15556  12948 14911 15966  10685 13967 13968  14414 17106 17242  9849 9850 9851  11714 11715 11716  10924 12636 20872  11793 14710 20251  9249 9250 9251  14121 16011 21165  20480 21086 21467  8129 8148 21248  8576 21179 21451  14709 15547 15570  11999 12000 12001  8610 8612 9626  13212 13214 14662  10173 10187 20983  13596 14051 16418  16018 16019 16020  9979 9980 10878  14038 14039 15537  13209 13735 20879  13766 14914 14915  8624 9602 20742  10955 10956 10957  14053 15582 16452  20612 20613 20614  9843 9844 9845  8577 8579 9197  13179 13733 13734  10185 10629 11599  12643 12648 20700  20415 20417 21594  12004 12005 12006  13312 13946 13947  14816 14817 14837  10917 11010 11948  14877 21265 21409  11747 11748 11749  13299 15973 20962  12702 12703 12704  9843 9845 9846  14715 14751 15600  9671 9672 9715  12212 12213 12214  14031 15345 16190  16388 16389 16390  10241 10243 10623  14775 14776 14777  11111 11112 11113  7772 7774 20897  9594 9643 9674  10221 10222 10223  11021 12614 12615  11647 11649 14820  11602 11603 11604  9837 9838 9839  10305 10307 11624  9822 11683 20929  20269 20270 20271  10671 10672 10775  14918 14919 16016  9253 9254 9255  14780 14810 21001  12593 13569 13570  7725 7726 7727  11999 12001 21125  9737 9863 10704  13700 13701 13994  10332 10334 10475  11128 11578 20829  13213 20771 21193  20281 20282 20283  9014 13563 14027  16019 16020 16427  8580 8581 8582  11998 11999 12400  11774 11988 11989  10307 10308 10309  10331 10332 10333  9588 9641 9642  11607 12960 13179  15596 15597 15708  7773 7775 21042  11652 11662 20698  19962 19963 19964  8536 8538 8557  10321 10322 10498  15464 15465 15468  20295 20296 20297  14828 14910 14913  14778 14780 21001  20300 20301 20302  9600 9601 9706  11012 11778 12489  14779 14780 14781  8192 8199 8532  12581 12582 14885  10258 10259 10260  8264 8265 8266  8104 8106 8107  8931 8933 9195  13138 13139 13140  14703 14856 14857  8620 8622 11639  8589 8590 8591  11596 12747 12748  16228 16675 16676  10313 10709 11616  13196 13197 13198  13852 13853 15454  8239 8240 8241  10170 10172 10802  9207 9577 9604  9712 9744 9745  10692 10693 10694  9992 10614 10615  16501 16502 16960  8573 8574 9131  20235 20237 20239  10250 10252 12547  10900 10901 10902  14130 15558 16255  12643 12644 12645  10267 10268 10269  8577 8578 8579  20597 20598 20599  12212 12214 20662  12945 12946 12947  16356 16358 16406  9809 9811 12560  13193 13195 13196  11634 11958 21231  11933 11934 11935  8286 8288 11577  8589 8591 10687  9645 9647 11678  9764 9765 9798  14033 14034 14035  10268 12558 20851  16383 16384 16385  8258 8259 8260  10268 10270 12558  20527 20528 20530  11984 13620 20653  21318 21319 21320  13951 14814 14815  14632 14633 14635  8644 8645 8646  20522 20523 20525  13197 13866 21038  9014 14027 14757  10964 10965 10970  20432 20433 20434  8239 11673 20843  20317 20319 20320  12634 13320 14043  10173 10175 10187  14827 20691 20900  9868 9869 9870  11074 11075 11076  9797 9855 9993  16337 16486 20737  10165 10166 10167  13201 13202 13203  8102 8109 11611  8650 8651 8652  16329 16330 16331  11688 12945 12946  16371 20130 20137  20476 20477 21064  8198 8221 8222  8639 8641 12566  11581 11582 11586  12963 14751 20637  8204 8205 8206  14915 14917 14918  14919 16016 16018  8182 8195 13296  13168 13169 13170  11592 11595 20845  11720 11721 11722  14415 14883 14928  11692 11694 20951  8660 8661 8662  10902 10903 10904  11769 11771 12719  10193 10194 10607  13581 13727 13728  10219 10220 10221  10894 10895 10896  16396 20262 20447  8107 8110 8111  9246 9247 9248  9862 10630 10631  12857 14887 14932  16498 16500 16501  12574 12575 13192  10004 10005 11614  11592 11593 11594  10935 10937 12471  9254 9703 20773  16375 16376 16377  8282 8284 9070  11622 11641 11642  13209 13210 13211  9081 20933 20934  12703 12704 12705  20531 20533 20534  9721 9722 9787  10326 10328 10329  9985 9987 20646  10295 10297 12070  9804 9842 9843  11650 11652 11653  14268 16555 20568  15475 15477 16124  9516 9517 9616  8669 8670 21238  14773 14774 14775  8182 8194 8195  9744 11622 11641  14879 14899 14900  9045 13160 13161  10256 10257 10258  8201 8203 14813  13196 13198 13938  15752 15753 17212  11606 11609 11929  8075 8076 8077  10247 10668 20734  9989 10197 10198  13319 14038 14039  8275 8277 11645  10169 10171 11672  15361 15362 16241  20237 20238 20240  12225 12421 12422  15275 15277 15278  8612 8613 8614  10930 10932 12498  10939 10940 10941  13299 13709 14135  12642 14128 21063  16237 16238 16239  13696 13697 13698  9515 9516 9517  11559 11561 11563  16387 16388 16389  13098 13626 13627  11107 11108 11109  20612 20617 21235  11960 11961 12188  14729 14730 14926  11627 20903 20904  8232 8233 8234  9084 9203 9204  8682 8683 8684  11769 11770 11771  8195 8217 21082  10200 10202 12579  12941 13787 13788  14058 15520 15521  9264 9265 9266  9083 9084 9207  8536 8537 8538  8243 8245 8531  14770 20648 21458  16447 16448 16579  9819 9820 9821  8107 8111 20876  9244 9246 9247  10173 10174 10175  8239 8241 11673  11113 11115 11235  14460 17091 17220  12001 12002 12003  8631 12556 20871  8117 8130 8159  8835 11627 20903  11942 11943 12224  16339 16486 20750  12422 12424 12664  11795 11796 12398  12553 14879 14899  10179 10180 10181  8246 8247 8248  10323 10324 10325  8619 8620 8621  9604 9661 21031  11579 11580 11581  13210 13211 13212  9706 9707 9753  11090 11093 11304  20307 20308 20309  8562 9044 20850  16297 16298 16299  14927 15996 20643  8925 8926 8927  12011 12012 12013  16292 16293 16294  10324 10325 10326  14741 14743 20728  12620 12621 12699  9751 9752 9848  14671 20522 21035  14759 20691 21149  14843 14877 21265  9790 9998 9999  11592 11594 11595  12941 13788 13931  9228 9497 21127  11952 12658 12957  8614 8615 8616  8205 8207 9649  16373 16424 16634  8931 8932 8933  9123 9125 9580  12014 12015 12016  11721 11723 14685  12564 12577 13936  15468 15469 15470  9250 9251 9507  11131 11132 11137  12570 13942 13943  13770 13771 14198  12716 12717 13776  13212 13213 13214  8610 8611 8612  8207 11680 20944  9047 9088 9089  10274 10275 10276  8874 9694 20885  10185 10628 10629  12748 13580 13581  9946 9948 9961  11587 11588 12549  11898 13846 20641  11895 11897 13582  14744 14745 14835  10946 11746 11747  11726 11776 12856  9232 9233 9234  14915 14918 20701  9807 10606 11692  10608 13185 13186  8166 8167 8173  10612 10953 10954  11108 11110 11179  8235 9951 10608  12008 12009 12010  13218 13219 14224  8075 8077 20219  16292 16294 20138  8638 9091 21083  10935 10936 10937  9789 9790 9998  8159 8171 20745  8284 8285 8286  8171 8179 13183  14225 16608 16609  8927 8929 11906  16351 20930 20931  8922 8924 9018  8099 8100 8105  10678 10679 10680  11683 11684 11685  13971 13972 16172  14739 14741 14742  20790 20936 21009  10244 10246 11690  14081 14082 14083  8666 8667 8668  8899 8901 11702  15278 15280 17201  11900 11901 12739  10311 10312 10313  10910 10911 10912  20394 20395 20396  9047 9089 9153  8161 8175 9755  12006 12008 12429  16317 16319 16399  8526 8527 8561  8112 8113 8116  11559 11560 11561  14154 14155 16635  20227 20228 20229  8299 8569 21242  9813 9814 9859  12016 12017 12018  9517 9617 9621  10314 10316 10317  13200 13201 13202  8116 8117 8129  15977 15978 20540  10956 10957 10958  8271 8273 8545  10183 10184 10185  16340 16341 16342  8099 8105 13922  8884 8899 8900  9624 9653 21070  9809 9810 9811  15243 15915 15916  8218 8219 8224  8604 8606 9620  11647 11648 11649  14896 16054 20386  10927 10928 10929  8073 8074 12497  9988 9989 10620  13221 13223 14194  11948 12496 12507  8636 8637 8638  14870 21305 21517  8688 8689 8690  9968 9970 20860  14790 14791 14792  9225 9227 9675  10244 10245 10246  12217 12980 12981  14166 15545 15546  8217 8227 8228  8884 8900 11619  15280 15281 15282  7775 7776 8163  7779 7781 9673  8236 8446 9975  13215 13217 13218  10595 12570 12571  9823 9824 9825  14725 14726 14727  11777 11778 11779  8622 8623 8624  9985 9986 9987  11935 11936 11937  8575 8576 8577  10608 12568 13185  9741 9808 9809  8122 8123 8124  8929 8930 8931  20367 20564 20880  8562 11615 20850  8250 8251 8252  12188 12189 12190  14121 15765 16011  10247 10248 10249  16340 16342 20098  8950 8952 9021  8903 8904 8905  10941 10942 11885  8648 8649 8650  10953 12660 20581  10291 10292 10293  9654 9677 9678  16037 16038 16039  16369 20130 20874  11637 20898 21070  8624 8625 8626  8633 8635 9075  8903 8905 9667  10202 10203 10204  10475 19660 19661  8638 8639 8640  10222 10223 10224  8880 8883 8885  9747 9760 9761  11118 11119 11120  11683 11685 20826  13833 14086 21344  9681 9682 9751  12173 12174 12179  8688 8690 8691  13301 13302 13306  20796 20797 20798  13191 14200 14201  8600 8605 9049  9623 9651 11712  11913 11915 13881  14810 20714 21001  16298 16299 16300  14826 20263 20925  9514 9515 11618  14928 20692 21569  8627 8628 8629  12653 13944 13945  9605 9660 9816  10328 10330 10331  16349 16350 16352  11799 11800 11801  11097 11234 11751  14864 20850 21147  16327 16328 16329  11075 11076 11077  10964 11665 21152  13767 14268 15199  12216 13780 13781  16296 16297 16298  8076 8077 8078  11650 11651 11652  7776 7777 7778  7747 7748 7749  10176 10177 10178  10929 10930 10931  14726 14727 15990  8222 8230 8242  11692 11693 11694  8702 8703 8704  10165 10167 10189  10241 10242 10243  8582 8595 8596  10446 10447 10448  14170 16010 16759  8653 9093 11674  10288 10289 10290  12017 12018 12019  11587 12550 20512  15278 15279 15280  13938 20977 21499  15371 15372 20819  11594 11595 11596  10446 10448 10486  9146 9198 9199  9145 9146 9198  8952 8953 8954  14895 16054 16757  12657 13590 14057  14810 20710 20713  7747 7749 13288  9968 20860 21093  10234 10235 10236  10302 10303 10304  7727 7728 7729  14833 14834 20164  14039 15537 15538  9093 11674 13925  10437 10438 10439  11103 11104 11105  11643 11900 11901  12739 14032 14854  20574 21064 21260  9745 11622 21157  13936 14758 14902  8102 8108 8109  8704 8705 8706  9818 9819 9820  10233 10234 10235  10940 10941 10942  10974 10975 11996  8918 8919 8920  10682 10945 10946  12848 13927 13928  13219 13220 13221  16369 16370 16371  8607 8609 12850  9825 9827 10650  8696 8698 20856  10957 10958 12584  12660 13830 14765  9696 9697 9789  10924 10925 10926  15516 16107 16108  8655 8656 11675  9953 10610 21003  9703 13290 20834  10459 10460 10461  16385 16386 16387  8598 8599 8600  8950 8951 8952  10439 10441 10442  9037 9038 9083  8705 8707 9099  14242 14243 16693  9822 9823 9824  8264 8266 11887  8161 8162 8175  8216 8217 8227  8617 8619 9128  8120 8122 13308  10240 10241 10242  8837 10676 20895  8111 8114 8115  9738 9864 9865  14773 14775 14776  8544 9658 9767  8662 8663 8664  8945 8946 8947  9226 9227 9228  13765 14268 20569  9226 9228 9497  20533 20535 20536  8684 8686 8687  8597 8598 8599  8117 8129 8130  8698 8699 8700  8698 8700 8701  8891 8895 8896  12013 12014 12015  14023 14024 14025  20112 20114 20115  15727 15729 20086  7768 7769 7770  9708 11597 12593  11687 11689 21024  12193 12194 12195  11806 12075 12076  16354 16355 16356  11126 11578 20847  13203 13204 13205  9951 12568 15994  10224 10227 11575  12646 12647 12675  11633 11634 13572  12708 12710 13148  8241 8451 8452  10318 10319 10320  7781 7782 7783  9252 9254 20773  11943 12224 12225  9044 9087 9600  8630 8631 8632  8833 11627 20955  8554 8555 8566  15477 15480 20548  8660 8662 8663  11916 11917 11918  12507 13824 13879  8167 8174 9578  9976 9977 10219  10266 10268 20851  9696 9789 14840  11998 12400 13328  8636 8638 9091  8451 8533 9045  8120 8121 8122  9248 9759 13166  8696 8697 8698  10249 10668 20971  11607 11613 12960  7736 7737 7738  8937 8939 9073  11662 11663 12951  11951 13309 13310  10310 10311 10312  8209 8210 8211  11622 11642 14819  10455 10457 10458  8192 8193 8199  9231 9232 9233  13699 13700 13701  8833 8834 8835  10611 10612 10953  11996 12860 13640  7731 7732 7733  7743 7744 7745  14602 14603 18552  10239 10240 10241  8606 8607 8608  11733 11734 11735  14784 14785 14786  10443 10445 10468  7754 7755 7756  20372 20373 20374  10933 10934 10935  8629 8630 8631  8648 11635 21065  13311 13312 13946  7763 7765 9950  8227 8525 8526  12013 12015 21192  9654 9678 9709  8909 8910 8911  15362 16242 21118  11775 12854 12855  8200 8201 8202  13603 14228 14657  9814 9973 20866  9989 10620 20343  9744 9745 11622  14776 14811 20791  8682 8684 8685  16201 20783 20785  7750 7752 7754  8626 8627 8628  15972 21007 21018  16342 16343 16344  8645 8646 8647  8941 8942 8943  10224 10226 10227  8292 8294 9050  10884 10885 10886  9760 9761 11707  10229 10230 10231  8895 8896 9046  10627 10869 10949  9652 9654 9677  12418 12419 13765  7736 7738 8186  15570 20394 20395  9976 10219 10870  12009 12010 12011  8944 8945 8946  10452 10454 10489  9125 9145 9146  11712 11713 11714  13733 14477 15703  16384 16385 16386  13908 13909 16227  16306 16308 20097  11075 11244 20589  8889 8891 10675  8827 8828 8829  8873 8874 8875  8247 8248 8249  10276 10277 10278  14645 14646 14647  8451 8452 8533  13215 13216 13217  8233 8234 8236  8910 8911 8912  9754 9770 9771  11641 11642 11643  10312 10313 10314  10923 10924 10925  12217 12457 12980  9256 9257 20926  11652 11653 11662  7781 7783 20852  10613 10943 14737  8922 8923 8924  8927 8928 8929  11606 11929 21036  7770 7772 7773  9987 9989 10197  9516 9616 14850  10200 10201 10202  20643 20644 20645  8171 13183 20745  9827 9828 9829  8267 8268 8269  8933 8934 8935  11632 11633 11634  10441 10442 10443  11613 12961 14772  13199 13200 13201  7773 7774 7775  10302 10304 10305  8221 8222 8229  12155 20774 21233  8947 8948 8949  9653 20984 21070  10452 10453 10454  10679 10680 10681  9813 9859 10192  7750 7751 7752  8526 8561 14858  7728 7730 9039  8833 8835 11627  14788 14790 14808  9122 9123 9124  8452 8534 8535  10299 10300 10301  8290 8291 8292  8829 8831 8832  10281 10283 10959  10932 10933 10934  10941 11885 12477  8538 8539 8540  11804 12075 20836  9512 11597 20816  9604 9659 9661  8631 8632 8633  13221 13222 13223  9756 9757 9979  7789 7790 7791  9517 9616 9617  13981 13983 14931  10617 10671 11993  8652 8653 8654  7749 7750 7751  10930 12498 20953  11132 11137 11138  8101 8102 8108  13159 13620 13621  9772 9773 9774  12544 13163 13916  8837 8838 8839  9977 10219 10220  8822 8826 20537  11581 13158 20467  11696 12552 14876  11770 11772 12554  13954 13955 15961  10678 10680 13958  8872 8873 8874  10184 10185 10628  8149 8161 8162  8567 8571 8572  8293 20429 20430  7763 7764 7765  7767 7768 7769  9845 9846 9847  10180 10181 10182  8578 8580 9040  9122 9124 9150  11082 11083 11084  7738 7739 7740  8658 8660 8661  8692 8694 8695  14843 14844 14845  8590 8592 10674  13559 15243 15915  14028 14029 16035  8114 8115 8118  13206 13207 13208  16333 16334 16335  8607 8608 8609  8699 8816 9756  10439 10440 10441  10937 10938 10939  8874 8876 9694  8110 8111 8114  8262 8263 8264  14731 20364 20365  7755 7757 13298  9775 9776 9777  10324 10326 20958  10280 10281 10282  7754 7756 15953  8242 8243 8244  8889 8890 8891  9998 9999 10711  13940 14702 14828  11605 11608 12508  7762 7764 10199  13770 14198 21015  8883 8885 8888  8921 8922 8923  10004 11614 11679  8919 8920 8921  11627 20904 20905  13825 14414 14415  8946 8947 8948  13218 14224 14225  9513 9514 9515  8941 8943 11910  9754 9771 9772  11603 11604 11605  12002 12003 12004  8201 8202 8203  8225 8232 8233  8652 8654 8655  8199 8532 8588  8299 8300 8301  16330 16332 16402  16348 16349 16350  8525 8526 8527  13831 13833 14086  8670 8671 8672  9668 9740 9815  8287 8288 8289  8248 8250 9127  8245 8246 8247  8908 8909 8910  8704 8706 11698  8878 8879 8880  8945 8947 9069  10450 10451 10452  8831 8832 8833  11601 11602 11607  7734 7735 7736  8159 8160 8171  10271 10273 10805  10445 10446 10447  8639 8640 8641  12847 12848 13927  8709 8710 8711  8637 8638 8639  11696 12551 12552  8078 8097 8098  8291 8292 8293  8873 8875 9705  11605 11606 11608  8871 8873 20821  13320 14043 14044  14764 14826 20593  7772 7773 7774  10195 10196 10700  10231 10232 10233  10284 10285 10286  8838 8839 8840  16427 16428 16754  8913 8914 8915  9660 9721 9722  7790 7791 7792  9119 9121 20344  9712 9745 9746  7760 8101 8102  10453 10454 10455  10455 10456 10457  7759 7760 8101  8629 8631 12556  10308 10511 20994  8236 8237 8446  11604 11605 11606  8661 8662 11640  7743 7745 9126  16242 16498 16499  10459 10461 10462  16300 16301 16302  8153 11558 11559  8909 8911 11891  10447 10449 12394  7733 7735 12065  8692 8693 8694  13823 15345 20542  8281 8283 20813  11989 12212 12555  13898 15778 15779  8915 8916 8917  9762 9763 9801  8205 8206 8207  8699 8700 8816  12951 14748 14882  8658 8659 8660  11885 11895 11896  12634 14043 14045  11131 11137 11300  13948 15954 15955  8567 8572 8573  13214 13215 13216  7787 7788 7789  10311 10313 10709  8562 9043 9044  8674 8675 8676  8620 8621 8622  8648 8650 11635  8841 8842 8846  10630 10688 11024  16311 16312 16313  9807 9808 10606  8200 8202 13294  7762 7763 7764  8234 8237 8238  8604 8605 8606  13310 13319 14038  7770 7771 7772  8942 8943 8944  8826 8827 8828  10489 11647 11648  8843 8845 13293  8846 8871 8872  10200 12579 20923  11684 11686 13957  9594 9595 9643  13621 13622 14048  10178 10179 10180  7730 7731 7732  7751 7753 7761  11796 11797 11798  7761 7762 7763  8911 8912 8913  10326 10327 10328  9243 9244 9246  8581 8582 8595  8841 8846 8871  9943 9944 9945  8843 8844 8845  8265 8266 8267  10170 10171 10172  10930 10931 10932  10969 11763 20873  9710 9711 9712  7739 7740 7741  12493 12494 13011  9658 9767 9768  10694 10695 10697  8937 8938 8939  9647 9648 9681  9814 9859 9860  11785 11787 13997  11599 11600 11601  8829 8830 8831  10270 10271 10272  8195 8216 8217  9227 9228 9229  9648 9681 9682  9771 9772 9773  13881 16107 16109  9993 9994 10653  9086 9201 14763  14058 15521 15957  11941 11942 11943  8871 8872 8873  7785 7786 7787  8834 8835 8837  11606 11608 11609  8907 8908 9014  10314 10315 10316  8926 8927 8928  8668 8669 8670  13572 13573 14012  8561 8562 9043  8616 8618 9635  8203 8204 8205  16386 16388 16413  8171 8172 8179  8902 8903 8904  11773 11988 13679  8671 8672 11630  8901 8902 8903  9833 9834 9835  10168 10169 10170  11122 11123 11124  11636 12660 12661  20350 20984 21013  7733 7734 7735  10325 10326 10327  8924 8925 8926  9256 9703 13177  9774 11589 11700  13325 13326 20408  7778 7780 13184  8123 8125 8137  11710 14703 14856  9833 9978 21153  9753 9754 9770  8835 8838 20903  10329 11705 15988  9982 9983 9984  7779 7780 7781  9832 9833 9834  10174 10176 11893  8910 8912 11894  8617 8618 8619  8666 8668 8669  14155 14670 20204  14719 15940 15941  14847 14848 14859  8532 8589 20582  9848 9849 10627  8926 8928 11681  20802 20805 20807  8275 8276 8277  10303 10304 14659  10921 10923 12598  11916 11918 11919  19968 19969 20010  8649 8650 8651  9763 9801 9802  10296 10297 10298  12006 12007 12008  8121 8122 8123  10182 10183 10184  11747 13637 21012  7764 7765 7766  9715 9716 9764  8906 8907 8908  10625 10777 10913  7745 7746 7747  8274 8275 8276  8701 8702 8703  8211 8218 11626  8217 8228 8544  8632 8633 8634  20525 20526 20527  9984 9985 9986  15584 16647 16783  8540 8554 8555  8934 8935 8936  10007 10193 10194  8670 8672 8673  8846 8872 11671  10441 10443 10444  7753 7762 20890  9086 9200 9201  14152 14153 15637  15688 15765 17219  8207 9649 11680  20664 20665 20666  8906 8908 8909  12224 12421 13694  16358 16359 16360  14199 16126 16489  7732 7733 7734  10929 10931 12485  15670 15671 16102  10956 10958 12418  20662 20663 20664  15397 20546 20547  11598 12717 14884  8554 8566 9079  16294 16295 16296  8707 8708 8709  10443 10444 10445  8913 8915 9116  16499 16500 20661  8694 8696 8697  8840 8841 8842  16297 16299 16450  8916 8917 8918  10624 10777 10778  8944 8946 11623  8211 8212 8218  10453 10455 10456  8119 8121 13178  10942 11885 11895  9783 9784 9817  9622 11637 21070  9776 9777 9778  13734 15665 15666  8608 8609 8610  8918 8920 11892  13981 13982 13983  9083 9207 9577  9085 9086 9200  9254 9255 9256  10255 10257 10779  8176 8181 8182  8939 8940 8941  8880 8881 8883  10237 10239 11610  9777 9782 20818  13199 13201 20630  8555 8566 8567  10322 10323 10324  8640 11954 21083  16291 16292 16293  8840 8842 8843  8282 8283 8284  8705 8706 8707  7740 7741 7742  8914 8915 8916  8695 8696 11621  10447 10448 10449  8147 8149 11666  8935 8936 8937  8265 8267 9130  8100 8103 8104  10166 10167 10168  16363 16366 20488  9768 10000 10001  8212 8218 8219  10237 10238 10239  7777 7778 7779  8888 8889 8890  8899 8900 8901  9774 9775 11589  16383 16385 16394  10318 10320 10321  10606 11692 11693  10251 10253 11664  8835 8837 8838  10325 10327 10510  8225 8231 8232  8663 8665 11667  8668 8670 8671  8690 8692 8693  12076 12077 12078  8616 8617 8618  7783 7784 7785  8273 8274 8275  10942 11895 20794  16361 16364 21438  9790 9999 10075  11654 11656 12158  7746 7747 7748  7785 7787 8140  9044 9085 9087  15668 15670 21175  7778 7779 7780  8885 8888 8889  9260 9261 9262  20681 20684 20685  8943 8944 8945  9642 9737 9738  14172 15585 16584  7728 7729 7730  11998 13328 20982  14646 15462 15463  8243 8244 8245  14213 14679 14680  11997 11998 11999  7769 7771 8170  8148 8149 8161  9269 9270 9271  8181 8182 8194  8938 8939 8940  20795 20796 20797  15936 15937 20550  7788 7789 7790  14171 14172 15585  8678 8680 8681  8109 8112 8113  8664 8665 8666  9229 9230 9231  9797 9854 9855  7726 7727 7728  8690 8691 8692  10449 10450 10451  9198 9512 9708  10317 10318 10319  10444 10446 21079  14863 14880 14881  10305 10306 10307  8635 8636 8637  10245 10246 10247  16356 16357 16358  10176 11893 20937  8830 8831 8836  9824 9826 9957  11593 11594 12963  15469 15470 15471  8162 8176 9081  8684 8685 8686  8591 8592 8593  11684 11685 11686  9621 9622 11637  20290 20291 20292  8949 8950 8951  8920 8921 8922  9577 9604 9605  8703 8704 8705  8842 8843 8844  8657 8658 8659  11073 11075 11244  7775 8163 9670  8890 8891 8895  10456 10457 12420  14171 15585 16658  7744 7745 7746  8270 8271 8272  9672 9716 12576  12543 12544 13149  10451 10452 10453  10925 10927 12604  15968 15969 20631  14658 15926 20162  8832 8833 8834  9605 9659 9660  9738 9863 9864  12702 12704 12711  7757 7758 7759  9514 11618 13297  13323 13324 13596  12652 13626 20902  8694 8695 8696  9825 9826 9827  16341 16342 16343  10940 10942 12628  7782 7784 8086  9952 9953 10610  13180 13181 14704  9043 9085 9086  8923 8924 8925  8877 8878 8879  9770 9785 10685  10266 10267 10268  8210 8211 8212  8116 8129 8147  8678 8679 8680  9604 9605 9659  8592 8593 9037  8708 8709 8710  12010 12011 12012  7756 7757 7758  8834 8837 10676  10891 10892 10893  8680 8682 8683  13319 15985 20689  11654 11655 11656  7755 7756 7757  7766 7767 7768  20326 20328 21680  13320 15998 21296  14915 14916 14917  10334 10475 19660  9241 9243 11756  7753 7761 7762  8596 8597 8598  11706 11912 12455  10269 10270 10271  10264 10266 11572  20663 20664 20665  13996 20482 20483  16640 16641 16687  8446 9975 11775  12179 12180 12616  7729 7731 8568  8674 8676 8677  9752 9848 9849  9962 10624 10625  10436 10437 10438  12420 13299 13709  10196 10700 10701  8708 8710 8812  8914 8916 9017  8216 8227 8525  8240 8241 8451  10434 10436 10437  8266 8267 8268  8930 8931 8932  8940 8941 8942  9643 9674 9735  9199 9512 9513  12018 12019 12020  16381 16382 16383  7758 7760 9640  8904 8906 8907  9834 9836 9997  12400 13771 21125  14780 14782 14810  9644 9645 9646  8644 8646 8894  8664 8666 8667  12705 12707 13614  14788 14789 14790  13208 13209 13210  11753 12942 13969  7732 7734 11691  8618 8619 8620  8175 8176 8181  12998 13164 20602  13942 13943 14766  12082 12083 12084  16323 16324 16325  8148 8161 20754  10226 10227 10228  11895 13582 20794  11914 11916 11917  8686 8688 8689  9088 9089 9205  9249 9251 9252  10175 10176 10177  10172 10173 10174  8907 9014 13563  9200 9201 9594  10456 12420 13299  8917 8919 11903  10177 10179 11711  10006 10193 11744  12700 12702 12703  8288 8289 8290  11775 12853 12854  8874 8875 8876  10163 10164 10165  14671 20521 20522  8951 8952 8953  14918 16016 16017  7751 7752 7753  7759 8101 9625  7769 7770 7771  7786 7787 7788  10332 10333 10334  8620 11639 21008  10960 10961 11994  13966 15959 21081  14144 14148 15584  8296 8297 8298  10250 10251 10252  10657 10673 10947  8540 8555 11759  9863 9864 10655  10454 10489 11647  8923 8925 9144  9632 9696 9697  11078 11079 11080  13837 14235 14661  10312 10314 10315  8098 8099 8100  8651 8652 8653  8896 9046 9047  11649 11650 11651  8876 8877 8878  9835 9836 9837  14856 14857 15989  9237 9238 9239  8199 8588 20757  11564 12183 12184  8452 8533 8534  20801 20803 20804  10297 10298 10299  8294 8295 8296  8108 8112 14818  10672 10775 10776  11102 11104 11233  10438 10439 10440  8828 8829 8830  9262 9263 9264  9745 9746 9747  7774 7775 7776  11025 12493 12494  12083 12084 12085  15965 20514 20515  16313 16315 16832  12953 12954 14022  10328 10329 10330  12580 20501 20503  8640 8642 11954  8928 8929 8930  10458 10459 10460  13220 13222 13912  13220 13221 13222  8234 8236 8237  8566 8567 8571  9988 10620 11706  10776 11934 21041  8646 8647 8648  13928 14660 14705  9820 9822 9823  17242 20596 20600  8074 8075 8076  14789 14790 14791  9844 9845 9996  10236 10237 10238  7737 7739 8185  9752 9849 9850  10440 11695 13289  11099 11100 11101  11595 12747 15913  11598 12716 12717  11558 11560 14684  9821 9822 11683  8656 8657 8658  20396 20397 20398  9513 9515 9516  10936 10938 12630  11628 11745 14865  9259 9261 9606  10317 10319 14812  8630 8632 9484  8663 8664 8665  9747 9761 9762  9831 9833 9978  10316 10317 10318  9802 9803 9804  9123 9124 9125  14848 14860 14861  10444 10445 10446  9846 9847 9991  8539 8540 8554  16341 16343 16346  7782 7783 7784  8252 8253 8254  9969 9972 10004  14774 14775 15517  11674 20995 21191  8574 8575 8576  8197 8198 8221  20530 20531 20532  12628 20796 21137  10684 20739 21061  14637 14682 19990  8527 8562 11615  8672 8673 8674  13586 14199 15513  8098 8100 8103  10238 10240 12572  14245 14450 15762  14747 14748 14749  14844 14846 15982  11079 11081 11260  20292 20293 20294  10700 10701 10960  11759 20880 20947  11080 20505 21360  9697 9789 9790  11766 11767 11768  8823 8826 8827  10235 10236 10237  8846 11671 20978  7742 7744 9607  8875 8876 8877  9859 9860 10611  20275 20276 20277  8828 8830 8847  8591 8593 21182  10265 10266 10267  9120 9122 20749  10905 10906 10907  16379 16381 16392  10300 10302 10303  11688 12944 12945  9991 9992 10613  10616 10617 10618  8936 8938 11889  8676 8677 8678  11897 11898 11899  10969 11761 11762  10448 10449 10450  14759 20690 20691  15718 15719 15720  8951 8953 11854  10457 10458 10459  11651 11652 11654  8646 8894 21065  10926 10927 10928  12551 12552 13929  8208 8209 8210  8249 8250 8251  11685 11686 11687  7737 7738 7739  8904 8905 8906  10265 10267 11574  8917 8918 8919  8641 8642 8643  10238 10239 10240  11784 11786 12149  12213 12214 12642  10221 10223 12586  7771 8170 10678  13927 14660 20159  7741 7742 7743  7748 7749 7750  14881 14897 14908  7742 7743 7744  7765 7766 7767  9972 10004 10005  13931 13932 14672  14845 14846 14847  15716 15718 20969  9986 9987 9988  11130 11131 11132  13328 13770 14170  10164 10165 10166  8237 8238 8239  11803 11804 11805  8826 20537 21000  9740 9741 9807  12400 13770 13771  13951 14816 20899  16296 16298 20105  9654 9709 21013  7752 7754 7755  8841 8871 21144  7774 7776 7777  11643 11901 11902  8572 8573 8574  7784 7785 7786  12706 12707 12708  8633 8634 8635  9646 9648 9730  9854 10657 10673  11746 11748 14874  11936 11937 11938  12853 12854 13987  9826 9827 9828  11560 11561 11562  9708 12593 13313  10174 10175 10176  8590 8591 8592  8130 8159 8160  8676 8678 8679  9121 9122 9123  8657 8659 14855  7729 7730 7731  10272 10273 10274  11612 12653 13944  7758 7759 7760  12568 15994 20544  14647 15462 17204  13156 13157 14701  14916 14920 16583  8224 8225 8231  8948 8949 8950  20367 20368 20369  8613 8614 8615  8673 8674 8675  9948 9962 13933  11714 11716 11717  13209 13211 13735  8279 8280 8281  8231 8235 9951  8615 8616 8617  10261 10263 10710  11613 14772 21027  8651 8653 9093  10653 11964 11965  8162 8175 8176  8281 8282 8283  10433 10436 10506  12496 13824 13825  9831 9832 9833  14781 14782 14783  8527 8561 8562  8251 8253 8542  13300 13301 13302  11593 12963 14714  9961 9962 10624  8238 8239 8240  9808 9809 9810  9753 9770 9785  9830 9832 11699  11677 11958 12657  8224 8231 8235  8912 8913 8914  9239 9240 9241  11787 11788 11789  8119 8120 8121  8881 8883 8884  15957 20640 21246  8900 8901 8902  11913 11914 11915  8686 8687 8688  9812 9813 9814  10897 10898 10899  14823 14824 20686  8595 8597 9591  10271 10272 10273  11762 11763 11764  16293 16294 16295  14917 14918 14919  8654 8655 8656  8701 8703 15952  8839 8840 8841  8261 8262 8263  8680 8681 8682  12000 12001 12002  10177 10178 10179  10194 10195 10196  16348 16350 16351  9996 11704 11951  9820 9821 9822  8588 8589 8590  8179 8180 8192  8700 8701 8702  8172 8179 8180  8880 8885 20891  8932 8933 8934  8654 8656 8657  8160 8172 10684  8643 8644 8645  10201 10203 10208  10888 10889 10890  8936 8937 8938  10275 10277 11758  8236 9975 20889  20630 21038 21039  13771 14198 14234  9983 9985 13305  15289 15290 15291  8163 9670 9671  11648 11649 11650  8146 8164 8165  11771 11772 11773  13920 15121 15122  16007 21534 21563  13296 21082 21447  11902 11979 11980  9043 9044 9085  9867 9868 9869  9646 9647 9648  8147 8148 8149  10309 10311 20715  8697 8698 8699  8877 8879 14852  8890 8895 11676  15454 15455 17141  8940 8942 9020  12211 12212 12213  12642 12643 12644  8113 8116 8117  8206 8208 8209  10075 10076 10077  9764 11970 20887  9203 9204 9668  8634 8635 8636  7766 7768 13953  10925 10926 10927  8623 8624 8625  8822 8823 8826  11591 11592 11593  11693 11694 12562  20302 20304 20330  11096 11097 11098  10228 10229 10230  15719 15721 20551  14083 14084 15298  10936 10937 10938  10201 10202 10203  7788 7790 11478  11915 15516 21096  8078 8098 8099  8905 9667 14836  9812 9814 9973  9226 9497 21234  10681 10682 10945  13181 13961 13962  10167 10168 10169  8219 8224 8225  8647 8648 8649  9761 9762 9763  9984 9986 10877  10438 10440 11695  13766 14915 14916  8076 8078 8097  14035 14098 14099  9757 9979 9980  10943 14737 14744  8180 8192 8193  16375 16408 20625  10171 11672 20983  10184 10628 10917  10612 10954 10955  12001 21125 21126  8651 9093 21014  10928 10929 10930  11600 11602 11603  8289 8290 8291  12951 14747 14748  16304 16306 21141  15285 15286 15287  8160 8171 8172  8932 8934 9019  8879 8880 8881  11080 11081 11082  9087 9600 9601  10290 10291 10292  8647 8649 11638  9649 11680 12581  11630 11631 11632  9773 9775 9776  11604 11606 21036  12575 13193 13194  14705 20461 20462  20375 20376 20377  11770 11771 11772  16373 16374 16424  9669 9740 9741  12216 13617 13780  10458 10460 20815  9744 11641 21022  16307 16308 16309  12424 12664 12665  8202 8203 8204  8244 8246 11863  11764 11765 11766  12192 12193 13003  10624 10625 10777  9624 9651 9652  9864 9865 9866  10458 20815 20974  11632 11634 11677  8108 8109 8112  10218 10595 12570  8228 8544 9658  9855 9993 9994  10262 10263 10264  14787 14789 16488  8579 8580 8581  14916 14917 14920  11724 11725 11726  9231 9233 9733  11895 11896 11897  11653 11663 12574  12007 12008 12009  12661 13830 13831  10653 10654 11964  11667 11669 20511  12658 13852 13853  14638 14639 19961  14148 16647 16648  8228 9658 12852  12700 12701 12702  13949 15954 15975  10181 10183 10186  13302 14768 14825  13982 13983 13984  8271 8272 8273  8609 8610 8611  8165 8166 8167  8193 8200 8201  8576 8577 8578  11668 11669 11670  12660 12661 13830  16365 16367 20445  9746 9760 12836  14201 14716 14717  14879 14901 21230  7746 7748 11644  15731 15732 15733  9623 9624 9651  11732 11733 12541  8129 8147 8148  10955 10957 20768  10712 12186 13156  15740 16184 20449  16360 16361 16362  8208 8210 8213  8212 8219 13295  8533 9045 11710  14045 15244 15544  8611 8612 8613  8593 9037 9038  9046 9047 9088  14686 14687 15934  13197 13198 13199  8278 8279 8280  9767 10000 10218  14792 14807 21229  16308 20097 21215  16374 16375 16376  10629 11599 11600  8232 20888 21168  16038 16040 20223  14646 14647 15462  13213 13214 13215  9672 9715 9716  9802 9804 9842  16314 16315 16316  8889 10675 20964  9763 9802 9803  11613 12960 12961  11729 11731 11732  16312 16313 16314  9787 9788 9968  8173 8174 8183  11670 13950 21473  10315 10316 15946  8532 8588 8589  8881 8884 8899  9851 9852 9853  10291 10293 10982  10441 10444 21078  7780 7781 7782  9780 9781 9783  8706 8707 8708  13993 15926 15927  8206 8207 8208  8194 8195 8216  11899 11952 12658  13316 13317 13321  9816 21007 21411  10293 10294 10295  15279 15280 15281  16336 16338 20095  11778 11779 11780  10611 10953 11636  13709 14839 15446  8256 8257 8258  10252 10253 10254  13770 14170 21015  8628 8629 8630  8118 8146 8164  7735 7736 7737  12005 12006 12007  13835 13836 13837  8605 8606 8607  8193 8199 8200  8261 8263 20882  13187 13188 13311  8596 8598 11620  8181 8194 13304  8623 8625 9061  10618 10671 10672  9632 9697 13145  15282 15283 15284  12568 13185 13941  10330 10331 10332  9983 9984 9985  13319 14039 20689  10451 10453 20962  10913 11957 12187  13839 14686 14687  13328 14170 16009  9667 14836 17143  10883 10884 10885  11137 11138 11139  14634 15567 15939  9595 9644 9645  10309 10310 10311  8578 8579 8580  20533 20534 20535  9835 11703 21153  12197 12198 12199  10320 10321 10322  11637 20898 21228  12012 12014 12405  16313 16314 16315  10329 10330 11705  10282 10283 10284  12739 12740 14032  13310 14038 14040  14170 16009 16010  10171 10172 10173  12702 12711 20383  11779 11780 11781  13831 13832 13833  11914 11915 11916  9659 9660 9721  15943 20176 20177  13311 13946 20639  14792 14794 14807  10281 10282 10283  13940 14828 14910  14776 14777 14778  9089 9153 9154  8115 8119 8120  11570 12845 21321  8103 8104 8106  9746 9747 9760  9255 9257 9258  9865 9866 9867  8251 8252 8253  11932 11933 12634  14073 15626 15743  13153 13951 14814  10498 11579 11580  15668 15669 15670  11601 11607 11613  9834 9835 9836  19964 19965 19967  8276 8277 8278  11651 11654 11655  11663 12574 12575  8272 8274 11886  9778 9779 9780  9670 9671 9672  11989 12211 12212  8229 8230 11573  10289 10290 10291  11642 11643 11900  10628 10917 11010  10178 10180 10803  14068 15371 15524  9844 9996 11704  8106 8107 8110  9716 9764 9765  13734 14477 15665  15517 20659 20660  13138 13140 13142  13207 13208 13209  14224 14225 15659  9854 9855 10657  12457 12980 14081  8293 8294 8295  9710 9712 9744  8621 8622 8623  9969 9971 9972  10869 20545 21352  12652 13098 13626  20763 20764 20765  8534 8535 8536  11721 11722 11723  9259 9260 9261  13291 13292 14134  11024 12493 12495  13208 13210 14677  8210 8212 20989  15270 15271 15272  8673 8675 11696  11101 11103 11254  12423 13586 14199  14735 14736 17125  11127 11128 11129  13994 13995 14935  8595 8596 8597  14688 14689 14691  14812 20838 20914  8064 8074 8075  8167 8173 8174  14732 14733 14734  10893 10894 10895  11718 11719 11927  10931 10932 10933  10287 10288 10289  10162 10163 10164  12522 14738 14739  12496 12507 13824  12961 14773 14774  8183 8184 8197  10243 10244 10245  13198 13199 13200  20140 20141 20172  14477 15703 16430  10891 12612 21059  9617 9622 9623  9785 10685 10686  11763 12522 20873  11786 11787 11788  12422 12423 12424  20395 20396 20397  14742 14743 16421  20227 20229 20241  8222 8229 8230  8297 8298 8299  13947 13965 13966  9641 9642 9737  9046 9088 9129  11631 11633 20577  9980 9981 9982  15990 15991 21052  11121 11123 11242  9234 9235 9236  11600 11601 11602  9242 9243 9244  20276 20277 20278  13336 13337 14001  20316 20317 20319  12420 13709 14839  10938 10939 10940  9678 9710 9711  11612 12652 12653  14822 14823 14824  10298 10299 10300  9762 9801 20808  15475 15476 15477  14770 20627 20648  9810 9811 9812  13733 13734 14477  13937 14758 14764  14671 20520 20521  10926 10928 12635  16364 20584 20585  10673 10947 10948  8611 8613 9055  8534 8536 8537  11936 11938 20733  9668 9669 9740  12944 12945 14152  16362 16363 16365  20797 20798 20799  20754 20756 21248  9824 9825 9826  8661 11640 15385  10257 10258 10259  13333 20210 20518  16361 16362 16363  16241 16242 16497  11569 11570 11960  14035 14097 14098  13289 15938 15977  11785 11786 11787  13948 13949 15954  12007 12009 12626  13186 13300 13301  20670 21347 21510  9198 9199 9512  10290 10292 12846  14925 14930 15822  9972 10005 10006  13936 13937 14758  10922 10924 12636  10001 11625 20559  9951 15994 20888  8640 8641 8642  9765 9798 9952  16298 20105 20921  10702 10974 21165  12961 14772 14773  11946 11947 12205  13950 13951 20899  10922 10923 10924  13137 13138 13139  13832 13833 13834  15733 15734 15735  11570 11960 11961  9124 9125 9145  11086 11091 16000  9985 13305 20646  12704 12705 12706  11748 11749 11757  14120 14121 15688  21247 21397 21481  14043 14045 15244  9496 9631 9943  16306 16307 16308  8572 8574 8575  8238 8240 20470  10006 10007 10193  11665 15936 15937  12860 13640 14120  15268 15269 15270  10965 10966 10967  9999 10075 10076  10711 10712 12185  15281 15283 16163  15269 15270 15271  10007 10194 10195  8244 8245 8246  11120 11121 11122  8537 8538 8539  10181 10182 10183  8123 8124 8125  8285 8286 8287  12079 12080 12081  14784 14786 14809  12012 12013 12014  10883 10885 12610  10242 10243 10244  14860 14861 14862  11899 12658 13852  11915 13881 15516  15476 15477 15478  11665 13154 15936  13217 13219 13220  10162 10652 20938  12740 14032 14033  13217 13218 13219  8283 8284 8285  11912 12954 21105  12621 12700 12701  20397 20398 20399  10697 10698 11011  16367 16368 16369  11653 11662 11663  11726 11727 11776  10975 11997 11998  11081 11082 11083  14786 14787 14788  16376 16377 16378  13163 13916 13917  15362 16241 16242  20257 21206 21447  13315 13959 16008  8643 8645 9080  8625 8626 8627  10654 11591 11592  10938 12630 21137  14678 15971 20186  11583 11585 13960  8257 8258 8259  11091 11093 11094  8816 9756 9757  10251 10252 10253  10896 10898 12602  14866 14867 14868  14857 15989 20184  13205 13207 13761  9038 9083 9084  8292 8293 8294  20800 20801 20802  14741 14742 14743  14861 14863 20565  11731 11734 21051  9265 9266 9267  10164 10166 11617  11957 12187 12965  9038 9084 9203  9230 9232 11708  9991 10613 10943  14713 20556 20735  9821 11683 11684  13324 13596 14051  9850 9851 9852  8599 8600 8604  13202 13203 13204  13935 15932 20222  11701 13314 13315  12211 12213 14047  8248 8249 8250  9830 9831 9832  9975 11775 12853  9261 9262 9263  13292 14134 16689  8820 8823 11556  12081 12082 12083  10197 10198 10200  10946 11747 13637  14745 14835 15361  12642 12644 14128  10275 10276 10277  11938 11940 13005  11896 11897 11898  11608 11609 11913  10934 10935 10936  10320 10322 10323  10682 10946 11746  12575 13192 13193  20611 20612 20613  13838 13839 13840  10969 11762 11763  16352 16353 16354  15465 15469 19746  8289 8291 8565  13190 14200 14202  14787 14788 14789  9595 9643 9644  12015 12017 12640  10961 10962 10963  11631 11632 11633  11934 11936 12450  10455 10458 20974  9131 14728 14729  14224 15659 16732  10975 11996 11997  10254 10255 10256  9735 9736 9861  12653 13945 14092  15619 15968 15969  16347 16348 16349  9120 9121 9122  13961 13962 14875  11951 11963 21004  13192 14769 14771  13309 13319 15985  8254 8255 8256  12003 12004 12005  8115 8118 8119  12000 12002 20824  11794 11795 11796  12644 12645 12646  13970 13972 13973  11722 11723 11724  10432 10434 11555  14807 20027 20028  10436 10438 20986  8235 10608 20724  9199 9513 9514  9757 9980 9981  16325 16326 16327  9859 10192 21002  10294 10295 10296  12564 12565 12577  12565 12577 12578  14911 15966 16001  11599 11601 21027  14841 20639 21103  11781 11782 11783  15465 15468 15469  11010 11948 12496  9842 20900 21107  10232 10234 12557  13970 13971 13972  10285 10287 11953  9781 20676 21204  8844 20978 23035  16318 16319 16320  14709 15570 20394  20274 20275 20276  10306 10307 10308  11582 11583 11584  12521 14641 14642  11997 11999 12000  9767 9768 10000  12015 12016 12017  9601 9706 9707  10921 10922 10923  10617 10618 10671  10709 11616 12137  14576 15479 16454  11943 12225 12663  9840 9977 11754  14640 14648 19997  8263 8264 8265  9847 9991 9992  11599 20788 21027  10285 10286 10287  12562 12563 13180  9087 9601 21098  10895 10896 10897  11789 20759 20844  15981 20779 21044  9828 9829 9830  11125 11126 11127  9233 9234 9235  13939 14702 15945  8197 8221 8223  14830 20270 20334  7778 13184 20706  16608 16609 16827  13980 13982 14164  14718 14719 15940  10689 10691 14006  14728 20864 20894  15720 15722 15798  14830 20269 20270  8825 14248 15294  8259 8260 8261  15473 15474 15475  11090 11091 11093  11767 11768 12573  9861 9862 10630  14098 14099 14100  11084 11085 11086  12543 13149 14640  8198 11709 21160  16306 20097 21141  13137 13139 19810  10595 12571 14096  9255 9256 9257  8101 9625 21315  12968 12969 14195  13336 14001 14949  13984 13985 13986  12691 20653 20654  10433 10434 10436  9247 9248 9249  10970 21267 21340  8200 13294 20757  11580 11581 11582  8538 8557 20947  16357 16358 16359  8842 8846 20978  11094 11096 11097  9247 9249 9250  12423 12424 13586  16393 16396 20140  14780 14781 14782  12421 12422 12423  20118 20119 20120  10264 10265 10266  14904 15942 15943  13195 13196 13197  12980 12981 14242  16317 16318 16319  10885 10886 10887  13312 13947 13965  14152 15637 20195  20888 21168 21289  11964 11965 12649  12857 14886 14887  16500 16501 16502  9840 9976 9977  10958 12418 12419  8272 8273 8274  13927 13928 14660  10943 14744 14759  9624 9652 9653  13852 15454 15455  9945 9946 9947  7776 7778 20706  13993 14658 15926  14181 14182 15781  11716 11717 11718  15970 15971 20539  9601 9707 13303  11988 11989 12211  10302 10305 21114  13160 13161 13162  14844 14845 14846  10308 10309 10310  14630 14631 14632  15709 15710 15711  10970 11665 13154  11130 11132 11183  9848 10627 10869  10300 10301 10302  9091 21083 21084  9861 10630 10688  13695 13696 13697  12705 12706 12707  13324 14051 14052  13195 13197 13866  10954 10955 10956  13211 13212 13213  14029 16036 16037  11618 13934 14822  20798 20800 20801  16315 16832 21023  12584 12585 13325  16350 16352 16353  13825 14415 14883  14633 15566 20731  20282 20284 20285  13567 13568 14245  12190 12191 12192  11764 11766 11767  11937 11938 11939  9682 9751 9752  9835 9837 11703  14924 14930 16004  16307 16309 16409  15937 20516 21152  20273 20274 20275  20370 20371 20372  10894 12487 21263  14268 15199 16555  16247 16291 16292  11117 11118 11119  12400 13328 13770  14465 14466 17132  12960 13179 13733  9809 12560 21203  11024 11025 12493  9784 9817 9818  14099 14827 15981  9827 10650 20725  14824 20842 21228  11114 11115 11116  12003 12005 12503  9601 13303 21098  8106 8110 11646  14710 14940 14944  14707 14753 14754  9707 9753 9754  9869 9870 9871  14846 14848 20591  9266 9267 9268  9678 9709 9710  10967 10969 11761  10692 10694 10695  15738 15739 15740  13965 13966 14905  20398 20399 20400  11580 11582 11583  8268 8270 9142  12965 13624 14068  10615 10616 10914  12192 13003 14062  13701 13994 13995  13781 14131 15967  9270 9271 9272  9617 9621 9622  20232 20233 20234  9773 9774 9775  9948 9961 9962  12553 14878 14879  16310 16312 16403  14766 14767 14842  14783 14784 14785  10698 11011 11012  9860 10611 10612  11079 11080 11081  14148 15584 16647  15729 15730 15731  12860 14120 14121  9045 11710 13160  11710 13160 14703  14792 14793 14794  11679 12215 12216  20301 20302 20303  20389 20390 20391  10890 10891 10892  12942 13970 13971  13852 15455 21145  9784 9818 9819  10326 10329 20958  13909 16227 16228  12740 14033 14034  14068 15524 15574  10220 10222 10225  10273 10274 10275  9118 9490 13150  10475 19661 20181  12716 13776 14711  10301 12155 20201  10259 10260 10261  14783 14785 16433  20611 20613 20615  11685 11689 20826  14886 14887 14888  14777 14778 14779  13185 13186 13300  12394 20963 21154  13190 13191 14200  9262 9264 9650  15288 15289 15290  16107 16109 17249  13987 13988 16002  11117 11119 11962  12508 21525 21531  9865 9867 13152  11915 11916 21096  8146 8165 14752  10261 10262 10263  15626 15743 17600  11634 11677 11958  11729 11730 11731  13330 14940 14941  14234 15983 15984  11104 11105 11106  10306 10308 10511  13771 14234 15983  9660 9816 21007  11570 11961 12845  13934 14822 14823  9722 9787 9788  14723 14724 14725  20314 20315 20316  11011 12716 20567  12198 12199 12200  16320 16321 16322  16246 16247 16291  15597 15708 15709  10886 10887 10888  8276 8278 9194  10223 10224 10226  13166 13167 13168  10672 10776 11932  11794 11796 11797  14639 19961 19962  11980 12174 13952  10248 10249 10250  14065 14709 15547  15732 15733 15734  10712 12185 12186  14831 15240 21316  11774 21097 21295  12616 12617 12618  20291 20292 20293  11937 11939 12637  15286 15287 15288  8599 8604 20837  14733 14734 14735  12137 13189 13190  15728 15729 15730  10882 10884 12470  14631 14633 14634  15735 15737 15738  20805 20807 21210  11109 11110 11111  10232 10233 10234  10906 10907 10908  20528 20530 20531  13007 13008 14251  14027 14757 15449  15974 16641 21154  20368 20369 20370  11784 11785 11786  20959 21343 21393  10778 20997 20998  16500 16502 20361  20321 20322 20323  9230 9231 9232  11585 11587 11588  10220 10221 10222  12419 13765 13766  9586 9589 11553  9631 9943 9944  13627 14602 14603  7777 7779 21062  10327 10510 13137  10220 10225 21174  16323 16325 16677  11713 11714 11715  11934 11935 11936  11637 20842 21228  8268 8269 8270  13617 14760 14761  11670 12847 13153  8279 8281 8560  9778 9780 9974  11108 11109 11110  13925 14756 14829  8064 8073 8074  10691 10692 10693  16326 16328 20090  9843 9846 21169  10948 12998 13147  12618 12619 12620  11713 15526 21176  11121 11122 11123  20371 20372 20373  10963 10965 10966  10963 10964 10965  13932 14672 14673  11129 11130 11131  15765 16011 16012  13313 13569 13805  12197 12199 20973  9241 9242 9243  9768 10001 11625  13572 14012 15177  12013 12667 21192  13188 13311 13312  12213 12642 21063  20480 21456 21467  14749 16237 16238  11722 11724 11750  10967 10968 10969  14862 14863 14880  9945 9947 12543  11105 11106 11107  15244 15544 16202  20668 20669 20670  16344 16345 16347  10625 10913 11571  13976 13977 13978  11616 12137 12138  14733 14735 14736  11901 11902 11979  11110 11111 11112  20324 20325 20326  13205 13206 13207  13309 13310 13319  10960 11995 21349  14228 14657 16545  10161 10188 20253  16350 16351 20954  9785 10686 13187  11614 11679 12215  11940 11941 11942  10889 10891 21059  16331 16332 16333  16355 16357 16400  11772 11773 11774  14710 20250 20251  14760 14761 14762  21284 21528 21585  14762 16447 16448  15274 15275 15277  15385 21006 21408  14631 14632 14633  10279 10280 10281  9765 9952 10609  20390 20391 20392  16368 16369 16370  20306 21661 21662  16448 16580 16581  13939 13940 14702  20113 20114 20116  15974 16639 16640  8909 11891 20948  11713 11715 15526  10174 11893 21122  11082 11084 11133  15470 15471 15473  14845 14847 14849  8695 11621 11720  11608 12508 21172  16343 16344 16345  9838 9839 9840  9251 9252 9253  11980 12173 12174  11670 13153 13950  13980 13981 13982  16302 16303 16304  13961 14875 15980  8871 20821 21144  12084 12085 12086  14728 14729 14731  12593 13313 13569  13916 13917 14630  13148 13155 14637  10161 10162 10163  8259 8261 8543  14727 15990 15992  11719 11927 13007  14153 16168 21024  12706 12708 12710  8277 8279 20920  11686 11687 11688  14719 15941 16245  10620 11706 11912  9079 21252 21256  16382 16384 16410  14814 14815 20160  14012 15177 15806  14749 14750 16237  11788 11789 11790  10459 10462 20949  10294 10296 10649  11122 11124 11176  11667 11668 11669  8842 8844 20978  16378 16379 16380  13177 13290 13291  10673 10948 14636  12853 13987 13988  15272 15273 15274  20279 20280 20281  15671 16102 16103  20436 20438 20439  11567 11568 11569  11680 12581 12582  14742 16421 17026  11800 11802 12208  10680 10681 10682  12717 13777 21443  9814 9860 20866  13626 13627 15588  10869 10949 11612  13978 13979 13980  8285 8287 11931  14682 14683 15929  12665 14065 14066  10897 10899 12525  7757 13298 21019  14849 20968 21025  11567 11569 12181  15717 15718 15719  14248 15243 15841  15600 20265 20267  12195 12197 13737  9787 9968 9970  15470 15473 17221  15291 15752 15753  12689 12718 13752  12565 12578 14722  14836 17143 17144  20368 20370 20379  11932 12634 13320  14866 14868 14869  10226 10228 12569  16338 16339 16340  14714 14715 14853  9996 11951 13309  8526 14858 21011  13622 14048 15583  20301 20303 20306  9589 11553 11984  8062 8064 8073  12079 13332 21268  16334 16335 16336  12646 12675 14171  16299 16300 16301  14262 15919 17211  11749 11757 11946  9630 9632 9696  15462 15463 15464  11628 11629 11745  14704 20764 21516  12200 12392 20635  16370 16372 16373  20582 21301 21399  11691 21488 21551  15822 16003 17198  12699 14144 14148  13682 13683 14154  15721 15723 15921  11800 11801 11802  9119 9120 9121  14057 15520 16182  16183 16184 16185  14706 15556 15557  10451 20962 20963  9789 14840 21249  20436 20439 20440  20373 20376 21484  20293 20294 20295  9616 14850 15986  15666 15667 15668  11693 12562 12563  15995 21179 21451  13301 13306 13307  10700 10960 11995  13780 13781 14130  14098 14100 14181  13974 13975 13976  20526 20528 20529  13179 20647 21373  13921 15121 15167  11730 13935 14629  10315 15946 20167  8588 8590 20758  14745 15361 15362  11561 11562 11564  9751 12851 21352  10695 10697 10698  12551 13929 14832  12455 13567 13568  13035 13898 15114  15282 15284 17202  14771 15962 20822  11716 11718 11926  12072 12689 12718  8254 8256 11888  14706 15557 20264  20388 20389 20390  12717 14884 21443  14630 15917 20849  16376 16378 16503  14920 16583 16654  10886 10888 12608  20376 20377 20380  14063 14907 15571  14730 15995 21179  15711 15713 20094  11113 11114 11115  16395 16411 16412  14817 14837 14838  13167 13169 13171  13977 13978 13979  13331 14939 14943  15975 15976 20479  20521 20523 20524  11749 11946 12695  16382 16383 16384  12419 13766 14914  9236 9237 9238  16370 16371 16372  11668 20629 21473  20789 20790 20791  11775 12855 21095  20817 20862 21314  8907 13563 21030  10709 13189 20715  14657 16545 16546  9237 9239 9695  14039 15538 15539  15286 15288 17203  8130 8160 21076  12949 13675 13695  8838 20903 20913  11720 21150 21151  20349 20943 21228  9234 9236 9483  13943 14766 14767  10160 10162 10652  15671 16103 17054  20664 20666 20667  14640 19997 20082  12944 14152 14153  14856 15989 21222  8577 9197 21300  13307 13948 13949  10449 10451 20963  8297 8299 21242  11945 12072 12689  13866 21038 21040  13157 13602 13603  11718 11926 21110  13177 13291 15947  19969 20010 20011  9587 9641 20817  13191 14201 14716  12455 12953 13567  12621 12699 12700  9763 9803 21032  13945 14092 15531  11727 11728 11729  9783 11628 21136  11096 11098 11099  11984 12691 20653  10881 10883 20558  8668 8671 20939  11625 21111 21462  16326 16327 16328  20147 20148 20149  14024 14025 14688  13314 13315 13959  13921 15167 15549  8110 11646 21197  13805 14246 14462  11779 13329 21396  16322 16323 16324  13147 14073 14074  11100 11101 11102  9589 11984 13159  12616 12618 14149  10454 11647 20974  9811 12560 21368  13965 14905 15999  12189 12190 12191  13185 13941 20717  14667 14669 20139  14755 21397 21481  13035 15114 15115  13696 13698 16007  16399 20353 20354  14842 14843 14844  15710 15711 15712  13998 14713 14942  12946 12947 12948  13317 13321 13322  16320 16322 16401  11674 13925 13926  16294 16296 21184  15281 15282 15283  11788 11790 11969  10896 10897 10898  11782 11783 11784  9630 9631 20411  10698 11012 11777  20236 20238 20242  8705 9099 20946  13990 13992 14934  10172 10174 21122  15654 16799 17012  12584 13325 13327  8819 8822 12069  10199 20890 21255  11993 21057 21118  10329 15988 20958  8105 13922 13923  15666 15668 20420  11792 11793 11794  10628 10629 21279  10282 10284 12559  16184 16186 20084  12546 12588 13919  20270 20271 20272  11100 11102 20194  12639 14645 14671  13162 13954 13955  20666 20667 20668  14027 15449 16196  8820 8822 8823  11934 12450 21041  20107 20109 20110  10440 10441 21078  10908 10909 10910  15739 15740 16183  13929 14832 14833  13590 13823 14031  12719 20781 20987  16310 16311 16312  14822 14824 20842  7738 7740 21435  11601 11613 21027  13955 15965 20514  11086 11090 11091  13166 15956 20924  11988 12211 21104  13957 20861 21205  20238 20242 20244  13966 15958 15959  9710 9744 21022  15372 20819 20820  14860 14862 20458  13836 13838 13839  9145 21183 21218  14235 14661 16432  20283 20284 20286  14820 20975 21195  10901 10903 12613  10312 10315 21155  16040 20223 20224  14825 20454 21072  12497 13151 13848  9973 21180 21459  15953 20593 20919  14723 14725 14726  13733 15703 21236  11899 13852 21145  14024 14688 15944  11963 14732 14733  13172 13174 13176  15545 15546 16532  11076 11077 11078  20890 21254 21255  10891 10893 12612  9587 9588 9641  16330 16331 16332  11802 11803 11804  10237 11610 20917  13313 13805 15987  10904 10905 10906  14786 14809 20853  10169 11672 21099  14057 14058 15520  13580 13581 13822  14201 14717 16289  20581 20736 20753  13979 21620 21633  10882 10883 10884  14897 20565 21146  12194 12196 12545  20745 21259 21426  14778 14811 21001  15974 16640 16641  20279 20281 20333  15727 15728 15729  12077 12078 12079  8677 20839 21246  14900 14904 15942  12962 20471 20472  13967 13968 14909  13297 15970 21100  11792 11794 11795  8112 14818 20965  12639 14644 14645  11790 11791 11792  15725 21089 21090  9083 9577 20988  20350 21241 21419  14705 15930 20461  10436 10506 20986  8649 8651 21014  13893 14721 15342  16384 16386 20626  13626 15588 20778  14738 14739 14740  20112 20113 20114  14022 14023 15528  11588 12549 13990  11124 11125 11126  13941 20638 20717  9709 9710 21022  8162 9081 20933  11988 13679 21104  10920 10921 10922  11076 11078 11134  11564 11565 12183  13835 14235 21344  9767 10218 21206  16389 16390 16391  11105 11107 20385  14925 15822 17134  14902 21335 21533  8649 11638 21014  11586 20999 21535  10919 12639 14644  16300 16302 16405  11589 11701 21508  8544 9767 21206  13949 15975 15976  9669 9741 21203  16355 16356 16357  13777 15649 15650  13177 15947 20926  14887 14932 14933  8063 8153 11558  10235 10237 20917  20111 20112 20113  20521 20522 20523  14243 14663 14664  14170 16759 21015  15670 20406 21175  13830 14765 15609  20299 20300 20301  15958 15997 20739  16327 16329 16397  14745 15362 21325  20526 20527 20528  15980 21163 21180  7772 20858 20897  13698 13699 13700  12856 12857 20721  20117 20119 20122  8561 14858 21208  11094 11095 11096  10911 10912 11021  14084 15298 16996  11583 13960 21343  12213 14047 21063  8902 8904 21030  11611 21257 21258  9815 20970 21294  13727 13728 14053  13326 13939 13940  11751 11752 11753  13147 14074 14638  14181 15781 16855  8904 8907 21030  16304 16305 16306  14827 15981 20900  8076 8097 21485  14879 14900 14901  11568 13924 21321  15713 15714 15715  14876 21238 21371  13622 15583 16231  20159 21262 21363  20975 21195 22932  14945 20556 20557  15735 15738 15920  13916 14630 15917  16227 16230 16869  14940 14941 16013  20236 20237 20238  10909 12526 21207  16187 16485 16645  11957 12965 13624  11677 12657 20640  14845 14849 21265  9860 10612 21140  15983 15984 21212  10192 21002 21064  13331 14943 15979  13559 14248 15243  11891 20948 21148  12946 12948 14911  13953 20671 20672  13994 14935 14936  9706 9753 21217  13837 14872 21196  14902 20497 20498  16393 20140 20141  10629 20916 21279  11565 11566 11567  16362 16365 16407  9707 9754 21135  20613 20615 20616  11744 21072 21115  21305 21500 21517  14714 14853 20457  15973 15974 21154  16351 20932 20954  16364 20583 20584  8597 8599 21318  8905 8906 20948  11798 11799 11800  14824 20943 21228  13771 15983 21125  20252 20677 20678  11719 13007 13956  9845 9996 21280  13971 16172 16173  10901 10902 10903  12949 13695 13696  10911 11021 12614  8554 9079 21256  13626 20778 20902  13167 13168 13169  12194 12195 12196  20304 20305 20307  10974 12860 21165  10303 14659 20165  7764 10199 21200  9778 9974 21190  14655 14656 15297  20308 20309 20310  11586 15928 21535  8179 8192 21301  9796 9797 9854  13825 14883 21209  12521 14642 14655  13322 13323 13324  14717 14718 14719  8592 9037 21369  12949 13696 21214  20808 21044 21045  9709 21013 21241  15726 15727 15728  12940 12941 13787  16352 16354 20100  15362 21118 21325  20296 20297 20298  15923 15924 20104  15708 15709 15710  11762 11764 21213  8238 20470 21168  14640 20082 21357  9789 9998 21249  11693 12563 21164  15115 16180 16204  16002 21424 21586  14673 14674 14675  12214 12643 20700  10186 20790 20936  14665 14666 14667  9808 10606 21163  9847 21280 21326  8113 20748 21257  14051 14052 16267  9703 13177 13290  14678 15970 15971  12583 21162 21513  13317 13322 13811  20136 21590 21635  13682 14154 14156  11125 11127 11981  12951 14882 21225  11897 11899 21145  20231 20232 20233  13171 13172 13173  12573 20609 21356  14734 20428 20605  13987 16002 21336  16344 16347 16404  8224 8235 21232  11732 21359 21395  9862 12580 20893  8129 8130 21248  10457 12420 20949  20322 20323 20324  11675 15397 15536  14874 21088 21304  11608 11913 21172  15538 15539 15540  13289 15978 21078  12747 15913 15914  16389 16391 16393  10955 20768 21140  13174 13175 13748  8532 20582 21301  14811 20790 21009  14920 16654 16851  12948 12949 21214  8877 14852 21054  16020 16427 16428  10879 15267 17115  10172 10802 21122  14768 14825 15972  9823 9825 20945  8279 8560 20920  14730 14926 14927  13327 14898 14903  13298 21253 21254  13937 14764 14826  14878 14879 21230  13985 16023 16025  9507 13331 14939  15740 16183 16184  8217 8544 21082  8839 8841 21144  13148 14637 19983  14602 18552 18553  20285 21636 21637  15990 15992 21194  12015 12640 21192  14196 15576 16623  20680 20682 21470  7782 8086 21130  10432 10433 10434  12940 13787 21237  13727 14053 15582  9658 12852 21111  10454 10455 20974  12198 12200 12546  15650 15651 15754  15567 15664 16274  13996 20481 20482  20109 20111 20112  8906 8909 20948  9647 11678 20684  11675 15536 21408  15978 20540 21400  10970 13154 21340  16172 16173 16696  8149 11666 20933  16186 16187 16188  10486 21079 21400  15295 15594 17576  11916 11919 21096  16342 20098 21216  20149 20153 20154  16384 16410 20626  11753 12940 12942  13567 14245 14450  9616 15986 21223  16486 20737 20738  9812 9973 21180  10906 10908 12600  8667 8668 20939  14001 14949 16026  13185 13300 20717  11897 13582 21145  7757 7759 21019  8229 11573 11760  20287 20288 20289  15724 15725 15726  15585 16584 16830  20890 21253 21254  10498 20959 21343  9636 21445 21497  14863 14897 20565  13620 20653 21240  14669 15295 15296  8653 11674 20995  20221 20704 21447  12615 13894 13895  11574 20827 20828  9577 20988 21211  15963 15964 20740  11750 21043 21622  14727 15992 15993  13330 14710 14940  11679 12216 21092  8658 8661 21006  13997 20485 20844  14897 14908 21398  14730 14927 15995  14868 14870 14873  14022 15528 15550  7732 11691 21029  15723 15724 15725  14893 14896 16005  10450 10452 21366  15944 20687 20688  12077 12079 13332  15710 15712 16505  11932 13320 21296  9819 20861 21204  13003 14062 14063  11803 11805 13998  8670 8673 21238  9741 9809 21203  12948 15966 21214  20308 20310 20311  10654 11592 20845  20296 20298 20332  14751 15600 16551  14713 14942 14945  10456 13299 20962  14630 14632 20849  14753 20574 21260  13696 16007 21214  13985 13986 16023  12421 13694 21101  8682 8685 21239  8608 8610 21510  10444 21078 21079  10301 10302 21114  13153 14814 21262  14673 14675 15656  15999 21494 21498  14924 14925 14930  8199 8200 20757  9200 20780 21437  13925 13926 21542  15715 15717 15922  10612 10955 21140  10440 13289 21078  11760 12217 12457  11588 13990 13991  12398 14893 21560  8148 20754 21248  9801 9802 21107  14148 16648 21102  14666 14667 14668  15442 15579 20102  10310 20994 21155  14196 16623 16781  20313 20314 20315  10453 10456 20962  20322 20324 20327  14029 16035 16036  8194 13304 21060  20619 20620 20621  12581 12583 21474  12398 14892 14893  8555 11759 20864  12969 14195 14197  16448 16579 16580  14235 16432 16453  14713 14945 20556  10805 20772 21376  8695 11720 21150  10684 20739 20985  11665 15937 21152  13332 20556 20735  21209 21279 21472  20990 20991 20992  14655 15297 20106  13927 20159 21262  20214 20215 21559  10671 11993 21057  20970 21283 21294  12546 14921 21514  10696 11850 14212  15972 21018 21478  14899 14904 21432  15747 16550 16798  7777 20897 21062  10879 17115 17117  12559 21284 21528  20709 21369 21491  11609 11929 21186  20210 20518 20519  9807 11692 21138  20232 20234 20243  11902 20722 21419  13968 20587 20588  10889 12611 21059  10672 11932 21296  11745 14866 21424  14841 20553 20554  9759 13167 21469  8672 11630 20886  13307 21010 21309  8240 8451 20761  10457 10459 20949  8172 10684 20985  14818 20966 20967  14712 21289 21362  14633 14635 20731  7759 9625 21019  12860 14121 21165  13973 13974 13975  11913 13881 21172  15539 20689 21463  13328 16009 20982  14877 20704 21409  15265 15266 15268  9721 21108 21109  13922 13923 15923  8597 9591 21318  15964 20740 21374  10654 11964 20845  14761 16449 20993  8219 13295 20979  15545 16724 21270  9808 9810 21163  10328 10331 21403  15996 20643 20644  8879 14852 21071  12580 20503 20893  13312 13965 21494  11080 11082 21360  13920 13921 15121  8588 20757 20758  10616 10914 21303  12615 13893 13894  11752 12941 21293  15715 15716 15717  11978 12152 21639  10311 10709 20715  11744 21072 21328  12211 14047 21104  14680 16050 16051  20376 20380 20382  9761 9763 21032  14788 14808 20853  11578 20829 20830  9037 9083 20988  14235 16453 21344  12546 13919 14921  9224 9226 21234  15545 16532 16724  8204 21086 21087  12158 20698 21201  11672 21099 21407  11744 20469 21115  10004 11679 21093  13149 20032 21199  14166 16919 21171  15297 20106 20107  9669 15948 21203  20252 20678 21308  20124 20126 20127  12554 20611 21295  9496 9630 9631  15947 20926 20927  8836 20955 21317  20429 20430 20431  15960 20834 21117  13307 13949 21309  11615 21103 21147  11590 20878 20956  11615 20850 21147  20934 21265 21409  13164 20602 21129  15973 20963 21154  9123 9580 21156  14726 15991 21492  9762 20808 21157  14213 14680 14681  16419 20570 20571  20235 20236 20237  20377 20381 21449  8249 8251 21282  10894 10896 21263  20229 20230 20231  9591 21318 21320  9118 9119 9490  16259 16853 16854  8537 8539 21222  10175 10187 21133  13211 13213 21193  12497 13848 14922  7769 8170 20972  14893 14895 14896  20615 21097 21295  14908 21398 21556  14813 20777 21423  20441 20442 20444  7756 15953 21066  8609 12850 21219  15964 20545 21416  14818 20965 20966  10657 10947 21177  9668 9815 20970  20149 20151 20153  20665 21319 21495  8881 8899 21071  9246 9759 20846  9072 9119 9120  16373 16634 21388  8216 8525 21060  9961 10624 21306  11688 12946 21455  15989 21222 21256  10628 11010 21279  9086 14763 21208  13003 14063 14907  14062 16215 21220  13839 14687 21196  10282 12559 21284  11634 13572 21231  12961 14774 21236  11590 20877 20878  20714 21001 21009  11556 20133 21602  8692 8695 21150  13968 14909 21555  15924 20156 21170  11714 11717 21345  14663 14665 20173  12953 14022 21384  8691 8692 21150  12398 14891 14892  12419 14914 21327  13895 14465 14466  8210 8213 20989  14914 20701 21529  12620 14144 20723  14825 21072 21478  14880 14881 21255  20282 20283 20284  9761 11707 21032  12573 21337 21356  8104 11590 20956  8525 8527 21056  15651 16259 16481  12158 21201 22682  20272 20273 20274  12853 13988 21074  20970 21181 21283  8111 20876 21198  14933 20181 21588  15994 20888 21289  14262 15918 15919  10235 20917 20980  13917 15949 20996  13836 13837 21196  9495 9630 9632  9961 20694 21306  14870 14873 21305  8527 11615 21056  13203 13634 21185  20860 21092 21093  8875 9705 21054  16361 16363 21438  15950 20770 21351  12960 12961 21236  13156 21077 21249  16581 16582 21518  20883 21178 21601  9121 20344 21156  20310 20312 20313  15594 15595 15596  10301 20201 21114  13314 13959 21383  14807 20190 21229  8609 8611 21219  13777 15648 15649  14897 21146 21398  10682 11746 21088  14931 21034 21629  12663 20394 20766  15345 20542 20543  11679 21092 21093  14899 21213 21432  12960 13733 21236  11618 14822 20865  8611 9055 21219  8109 11611 21257  16376 16503 21187  20120 20123 20142  10606 21163 21164  11591 20741 21310  11632 11677 21367  20666 20668 20669  8249 11755 21282  9243 11756 20846  20666 20669 21313  10486 20822 21400  10160 10161 10162  13949 15976 21309  10159 10161 10188  9867 13152 21244  12646 14171 21275  14707 14754 21017  9510 9587 9588  8086 21130 21131  11712 11714 21345  13974 13976 14151  20117 20118 20119  8606 9620 21457  8240 20470 20761  14934 21616 21626  13211 13735 21193  8149 8162 20933  12503 21126 21212  10967 11761 21267  20124 20125 20126  15989 20184 21252  8678 8681 20839  20613 20614 21593  9847 9992 21326  20989 20990 21353  15703 21236 21378  10001 20559 20560  8581 21167 21251  20549 20945 21599  12940 12942 21237  9121 9123 21156  8656 8658 21006  13290 15960 20834  10606 11693 21164  8061 8063 8153  12543 14640 21357  9971 9972 21328  13329 21396 21565  13836 13839 21196  11786 11788 21224  9586 9587 9589  10006 11744 21328  8544 21082 21206  8656 11675 21006  14786 14788 20853  10000 10595 21278  10613 10614 20881  12637 20425 21351  15998 21296 21303  14883 21209 21472  8825 13559 14248  9707 13303 21135  8592 10674 21369  9081 21016 21409  9089 9154 21112  9089 9205 21112  12575 13194 21225  9623 11712 21223  10327 13137 21403  13969 20407 21475  7767 7769 20972  9649 12583 21162  20201 21114 21381  8175 9755 20940  12704 12711 21005  11709 21160 21161  14840 21077 21249  10223 12586 21331  8875 8877 21054  14873 21427 21511  20437 20441 20442  10657 20741 21177  20615 20616 21404  11663 12951 21225  16394 20811 21482  8826 8828 21000  10177 11711 21133  13314 14770 21383  14822 20842 20865  14831 20578 21316  9846 9991 21149  14883 21472 21531  11774 11989 21097  12000 20824 21166  15980 21180 21459  8062 8063 8064  20966 20967 21025  9242 9244 21286  8194 8216 21060  10498 11580 21343  9496 9943 21358  8819 8820 8822  8179 13183 21301  11931 21322 21574  8242 21160 21334  15648 20191 20193  9782 20818 21581  13781 15967 21092  10943 14759 21149  20479 20480 21087  14829 20563 21542  11012 12489 20567  15463 15465 21290  7724 9636 21445  14732 20428 20840  16296 20105 21184  9825 10650 20945  10310 10312 21155  14889 20362 21523  20858 20859 20897  9753 9785 21217  21153 21607 21610  10327 10328 21403  8674 8677 20886  14737 14745 21325  15978 21078 21079  8673 11696 21238  10618 10672 21296  13833 13835 21344  15953 20918 20919  10280 10282 21284  9782 20676 21547  20498 20499 21516  8273 8275 21094  12496 13825 21209  20416 21603 21609  12740 14034 21046  8879 8881 21071  8251 8542 21282  9631 9944 21047  17661 17664 20073  20611 20615 21295  10615 21326 21339  20724 21010 21085  14890 20705 21386  14144 16587 20723  8538 8540 20947  12699 14148 21102  20837 21318 21319  21010 21085 21309  8109 8113 21257  10958 12419 21327  9810 9812 21180  16008 21614 21631  20676 21204 21205  8297 12163 21242  20846 21469 21559  10881 10882 10883  21085 21309 21456  14855 20995 21191  9641 9737 20862  13996 20483 21396  15719 20551 21132  11580 11583 21343  14906 20214 20883  20433 20434 20435  12942 13971 21237  20615 21097 21404  15998 21303 21493  8291 8293 20430  9673 20852 21329  8225 8233 20979  10880 12521 14641  10196 20875 21134  10695 20705 21385  12193 12195 21299  8828 8847 21000  10262 12849 21312  9776 9778 21190  15992 21399 21426  14717 16289 21394  14930 16004 21584  20726 20727 21609  20944 21427 21496  13205 13761 21185  12562 13180 21335  15967 20860 21429  12555 20663 21404  8186 20764 21435  9203 20970 21181  16405 21390 21480  10684 21061 21076  11996 11997 21166  10448 10486 21091  14068 15574 21454  8181 13304 20940  9248 9249 20924  12586 20566 21573  12583 21503 21513  8540 11759 20947  15957 20839 21246  15949 20996 20997  11663 12575 21225  8599 20837 21318  8533 11710 21139  20861 21204 21205  9745 9747 21157  12216 13781 21092  9738 9865 21266  9972 10006 21328  9747 9762 21157  9945 12543 21357  16364 20585 21438  10175 10177 21133  14856 21139 21222  9975 12853 21074  20487 21031 21364  8539 8554 21256  9085 9200 21437  9971 21328 21478  10264 11572 21312  9996 13309 21280  11696 14876 21238  9848 10869 21352  14575 14576 14577  20270 20334 21433  8539 21222 21256  10963 10966 21226  12739 14854 21277  12843 14651 14653  9751 9848 21352  15976 20480 21456  10960 11994 21349  12852 21011 21431  20691 20900 21169  11767 12573 21432  11591 11593 21310  11111 21271 21272  13187 21217 21338  14725 14889 21311  8576 8578 21451  9975 20889 21074  14841 20554 21103  8064 8075 20732  8614 8616 21549  8209 21086 21467  11767 21213 21432  11677 20640 21367  20559 20560 21483  8831 8833 20955  10609 21146 21307  14880 21254 21255  13572 15177 21231  20779 21044 21045  13922 15923 15924  14702 14828 21380  13987 13989 21336  10448 10450 21091  15954 15955 21491  8213 20989 21353  10919 10920 12639  14828 14913 21297  8211 11626 21467  11776 14886 21359  15465 19746 21290  16302 16405 21390  14878 21230 21340  13822 21566 21567  20727 21372 21618  8831 8836 20955  13180 21335 21533  15989 21252 21256  10624 10778 21306  9952 10610 21468  14876 20699 21371  10876 10920 10921  11010 12496 21209  10262 10264 21312  15988 20958 21393  7728 9039 21444  16387 21461 21482  16374 16424 21187  8593 9038 21181  9785 13187 21217  15983 21125 21126  12559 21433 21528  9802 9842 21107  14818 20967 21315  13936 14902 21335  14910 21341 21370  8593 21181 21182  14760 14762 21490  14935 14938 21073  7738 8186 21435  9974 21298 21575  13203 13205 21185  10595 14096 21278  14650 14651 14652  10870 20566 21577  14783 16433 21354  9810 21163 21180  9970 20860 21429  20433 20435 20436  14714 20457 21310  16037 20854 21375  8160 10684 21076  14115 21220 21221  11630 11632 21367  8687 8688 21540  14821 21003 21434  12562 12564 21335  9203 9668 20970  7720 7722 21652  9038 9203 21181  20378 21372 21618  14752 21197 21606  12845 20252 20677  11573 12217 20642  21072 21328 21478  21360 21627 21630  11588 13991 21391  13159 13621 21314  15983 21126 21212  20366 21520 21577  8120 13308 21198  14868 14873 21511  13960 21391 21392  8574 9131 21179  14855 21191 21481  20958 20959 21393  11901 11979 21277  9943 9945 21357  10961 11994 21226  8635 8637 21522  14774 21236 21378  11010 21209 21279  14867 14912 21298  11997 12000 21166  8641 12566 21245  15666 20420 21373  7755 13298 21253  14811 21001 21009  7730 9039 21029  9991 10943 21149  20859 20897 21062  16363 20488 21438  13179 13734 21373  8531 20541 20809  11626 21085 21456  11598 14884 21026  14917 14920 21387  13159 20817 21314  15948 21203 21405  20408 21370 21507  9837 9839 21595  12700 12703 21102  10613 14737 20881  20409 21444 21445  8672 8674 20886  10280 12567 21284  11084 11133 21037  8572 8575 21116  13952 20350 21419  11926 21110 21355  12197 13737 20973  8679 20695 21080  20762 20763 21551  12564 13936 21335  13928 14755 21397  13171 20215 21469  8235 20724 21232  9616 9617 21223  9239 9695 21178  10958 12584 21327  9780 9974 21136  15997 20739 21423  12645 12647 20854  11963 21004 21158  13147 14638 21417  21052 21182 21283  12195 13737 21299  12851 20685 21416  13957 21455 21512  20462 21247 21402  9659 9721 21108  13958 21088 21304  11796 12398 21560  20916 21279 21472  15441 15443 16104  20639 21103 21147  14682 19990 21464  12508 21172 21525  10275 11758 21288  8102 11611 21446  7724 7726 21445  7730 7732 21029  14702 20258 21380  10965 10970 21267  13332 20580 21268  13154 15936 21450  11787 11789 20844  12421 12423 21101  20177 20178 21502  14781 14783 21354  20462 21247 21397  11133 21037 21596  20777 20985 21423  8675 8676 21053  9124 9145 21183  8566 9079 21068  9087 21098 21437  14920 16851 21387  14766 14821 21434  10298 10300 21379  15725 15727 21089  20632 21452 21498  9794 9796 9797  15541 21493 21543  10965 10967 21267  14862 14880 21412  14781 16257 21354  12645 12648 20854  10431 10432 10433  13960 21392 21393  8219 8225 20979  15976 21309 21456  14917 14919 21387  15264 15265 15266  14828 21297 21380  20405 21099 21407  13137 19810 21403  14774 15517 21378  20724 21085 21232  10300 10303 21379  15992 21194 21399  8204 8206 21086  16395 16412 21250  14905 15997 21503  14898 20409 21497  13326 20408 21370  16037 16039 21375  13931 15935 21293  13148 19983 21428  13309 15985 21280  9716 12576 21307  15539 15541 21463  8676 8679 21053  15965 20515 21410  14727 15993 21311  14923 14925 21332  10242 21670 21671  11764 11767 21213  13162 20550 21541  20223 20224 21406  14875 15980 21459  10948 13147 21417  10896 12602 21263  14885 21452 21498  20722 21022 21241  20683 21374 21462  20456 20715 21465  11944 11945 12072  10450 21091 21366  9771 9773 21189  8209 8211 21467  10303 20165 21379  10680 10682 21088  9780 9783 21136  9670 20697 21042  13734 15666 21373  20221 20257 21447  12569 20831 21331  9765 10609 21307  16374 16376 21187  12644 12646 21275  14731 20365 20894  9641 20817 20862  16581 21349 21518  14686 15934 21342  10208 20687 20688  14682 15929 21464  14928 21525 21531  20703 20916 21472  10330 10332 21173  8273 8545 21094  11585 11588 21391  14926 20831 21550  15999 21474 21498  16412 21250 21276  8213 20944 21427  12487 21263 21570  12423 14199 21101  11585 13960 21391  14855 21365 21481  9617 9623 21223  9081 20934 21409  16368 16398 21388  15985 21280 21326  12648 20854 21375  14725 14727 21311  14836 20948 21148  8643 9080 21245  20859 21062 21330  13698 16007 21600  9243 9246 20846  13950 20699 21473  14760 20451 21490  14768 20707 21411  12584 13327 21327  11787 13997 20844  11786 12149 21224  15978 21079 21400  14858 21431 21470  8614 21406 21549  14733 14736 21158  16402 20336 21524  15541 15542 21543  13183 21301 21399  7775 9670 21042  14763 21208 21470  13959 21382 21383  14937 21539 21613  20966 20968 21025  11792 11795 21421  11989 12555 21097  11901 12739 21277  12644 14128 21275  12699 12700 21102  9039 21029 21341  10948 14636 21417  20313 21668 21669  13187 13311 21338  8660 8663 21274  14903 21529 21544  9626 21347 21510  10223 10226 21331  14737 20881 21325  20262 20447 21436  14874 20657 21304  11710 14856 21139  8571 8572 21116  20763 20765 21527  14763 20680 21470  14862 20458 21412  12708 13148 21428  10914 21303 21493  9248 13166 20924  13777 15650 21443  11593 14714 21310  14858 21208 21470  21181 21182 21283  10961 10963 21226  12555 21097 21404  16304 21141 21390  9709 21022 21241  10870 21520 21577  20745 20748 21259  9952 10609 21468  14768 15972 21411  9631 20411 21047  14813 21423 21513  21191 21247 21481  10609 21430 21468  14717 14719 21394  8606 8608 21457  8175 8181 20940  13928 14705 21397  20703 21472 21531  10680 13958 21088  21200 21292 21537  14904 15943 21337  15718 15720 21448  15541 21463 21493  9865 13152 21266  10694 10697 21026  13967 14909 21452  9776 21189 21190  14728 14731 20894  13183 20745 21426  8691 21519 21540  20476 21064 21260  12196 12545 21514  14883 14928 21531  11086 16000 21037  20748 21257 21259  20374 21607 21610  14705 20462 21397  7758 9640 21066  8574 8576 21179  16385 16394 21482  10888 12608 20823  10199 21200 21292  16302 16304 21390  21353 21427 21511  14908 21292 21537  10778 20935 20998  20663 21404 21495  9659 9661 21108  8679 8680 21080  16380 21413 21415  21341 21370 21507  7756 7758 21066  8101 8108 21315  20739 20985 21423  13311 20639 21338  12225 12663 20766  15720 15798 21448  15955 20709 21491  16173 21237 21422  9124 9150 21183  14922 14924 21501  8206 8209 21086  16387 16389 21461  16004 21532 21578  10700 11995 21291  14880 21254 21412  10195 20452 21291  12941 13931 21293  15442 15553 15579  20657 21329 21330  9971 21018 21478  9740 9815 21138  8595 9591 21167  11113 11235 21271  15988 21392 21393  8581 8595 21167  10226 12569 21331  15718 20969 21448  20320 21672 21674  10195 10700 21291  15972 21007 21411  14766 14842 21434  14836 17144 21148  8641 8643 21245  14826 20593 20925  8680 8683 21080  14911 16001 21512  14904 21337 21432  11111 11113 21271  11784 12149 21418  20346 20758 21269  15733 20085 21420  9773 9776 21189  20722 21241 21419  13954 15961 21362  12708 12709 21428  20270 20272 21433  10273 10805 21288  13154 21389 21450  13989 20417 21336  7726 7728 21444  11082 11133 21360  20366 20368 21520  14844 15982 21281  20178 21235 21502  14881 14908 21292  13326 13940 21370  20224 21406 21549  9146 21048 21100  13675 15693 20196  11011 11012 20567  8566 8571 21068  15966 21214 21534  13940 14910 21370  8063 8064 20732  12573 21337 21432  14762 21489 21490  20629 21371 21473  20503 20893 21382  13329 21386 21565  20727 21372 21609  14755 21365 21481  9768 11625 21111  10330 11705 21173  9853 10012 21302  11790 11969 21421  16370 16373 21388  10229 10231 21589  16385 16387 21482  16368 16370 21388  12747 12748 21453  14770 21383 21458  9125 9580 21048  11963 14733 21158  14866 14869 21424  20672 21537 21556  20325 20328 21608  16002 21336 21568  8578 9040 21451  9085 9087 21437  16393 20141 21461  14722 14723 21492  12582 21305 21500  20619 20623 21557  20363 21550 21573  16000 21037 21475  9673 21062 21330  14723 14726 21492  20665 20666 21313  14574 14575 14576  21230 21340 21389  13953 21200 21537  14858 21011 21431  14686 14707 21342  9716 9765 21307  8691 21150 21519  14722 20952 21492  15965 20341 21410  9125 9146 21048  20379 21583 21595  14065 14066 21264  9247 9250 21285  14870 14912 21517  9943 21357 21358  20462 20463 21402  12149 21224 21515  8259 8543 21324  14771 20977 21499  8108 14818 21315  12953 13567 21384  11691 20762 21551  12582 21305 21496  10199 21255 21292  11234 21293 21460  20141 21461 21587  10888 10890 20823  14052 16269 21113  14881 21255 21292  14868 14869 21511  10309 20715 21465  12576 20697 21556  11616 20838 20914  14902 20498 21533  13188 13312 21494  11105 20385 21477  20614 21167 21593  8176 9081 21016  15988 21392 21539  20501 20503 21458  8176 8182 21016  12497 14922 21485  9740 9807 21138  8662 8664 21028  14719 16245 21394  12703 12705 21261  8213 21353 21427  13590 14031 21442  14898 14903 21497  15922 21132 21227  16017 20701 21544  20699 21371 21473  10870 21520 21583  13154 21340 21389  13957 21205 21512  11750 21151 21619  8103 8106 21532  11091 16000 21323  11760 20555 21476  10693 11850 20418  9072 9118 9119  8664 8667 21028  13183 21399 21426  10273 10275 21288  12581 14885 21474  14065 15547 21264  9658 9768 21111  10307 10309 21465  9851 20342 21302  10313 11616 20914  20240 21439 21440  11790 11792 21421  12487 20433 21570  16389 16393 21461  14707 21017 21342  9198 9708 21218  9495 9496 9630  13682 14156 21454  8832 8834 21590  14813 21162 21513  7726 21444 21445  14771 20822 21499  20238 20244 21439  12705 13614 21261  16109 21172 21525  14721 21207 21638  11691 21029 21488  21073 21628 21634  20164 20999 21535  12965 14068 21454  10697 11598 21026  11940 13005 21361  11094 11097 21323  8098 8103 21578  11625 20740 21462  9145 9198 21218  11994 20729 21518  12217 12981 20642  9842 20900 21169  20082 21357 21358  20378 20460 21372  14842 14844 21281  14057 16182 21442  13954 14712 21362  8663 11667 21274  15997 21423 21513  11667 20511 21274  20483 21682 21683  20990 20992 21538  13848 14923 21505  20368 20379 21520  14914 21327 21529  20811 21482 21587  20502 21098 21471  13567 14450 21384  20505 21360 21630  13160 13162 21541  20763 21527 21551  12508 20703 21531  13953 20672 21537  12576 21398 21556  14893 16005 21560  14885 21474 21498  20644 20645 21530  14909 21452 21500  13180 14704 21533  8688 8691 21540  14573 14575 15109  20503 21382 21383  13926 21402 21542  9851 9853 21302  8257 12067 21324  12965 13682 21454  14842 21281 21434  11850 14679 20418  11589 20818 21508  11756 20883 21178  11940 11942 21361  8106 11646 21532  14886 14888 21395  11611 21258 21523  20990 21353 21538  15735 15920 21420  21150 21151 21519  20566 21573 21577  8579 9197 21251  13968 20588 21555  20725 21603 21609  10159 10160 10161  20619 20621 21557  16168 21024 21436  20272 20274 21528  14762 16448 21489  14262 17211 21505  15582 21453 21552  15998 21493 21543  13188 20632 21494  11084 11086 21037  12567 21284 21585  13590 14057 21442  12747 15914 21453  13848 14262 21505  8635 9075 21522  14816 14837 21348  10616 10618 21303  13167 13171 21469  14909 21517 21555  21336 21568 21592  14925 17134 21332  16004 21532 21584  13294 20757 21269  9510 9586 9587  16007 21214 21534  9842 9843 21169  15727 20086 21089  20298 20332 21548  9591 21167 21593  16380 16382 21413  8610 9626 21510  20352 21043 21619  8616 9635 21549  8283 8285 21574  20370 20379 21598  8579 8581 21251  8221 8229 21476  8074 8076 21485  15928 20744 21535  16403 20493 21506  14913 21297 21527  11717 21345 21346  11680 12582 21496  14910 21341 21488  15985 20689 21339  14924 16004 21501  16489 21101 21509  10698 11777 21385  9839 9976 21583  9219 9221 21681  8257 8259 21324  8061 8062 8063  15733 15735 21420  11994 21349 21518  8060 8062 20202  16448 16581 21489  15997 21503 21513  15717 15922 21132  10618 21296 21303  8625 8627 21571  15713 20094 21504  20503 21383 21458  14704 21516 21533  8074 12497 21485  15914 21552 21553  15995 15996 21580  16382 16410 21413  16109 21525 21569  11800 12208 21597  20416 20460 21372  20363 20364 21573  20672 20697 21556  10695 10698 21385  14926 20363 21550  20498 21516 21533  20740 21374 21462  8814 8825 13559  11561 11563 21479  13160 14703 21541  15717 15719 21132  20483 21396 21565  8815 8819 8820  20757 20758 21269  11756 20846 21559  9673 21329 21330  20238 20240 21439  20371 20373 21484  16422 20423 21546  9244 21285 21286  13315 16008 21563  13694 21101 21509  15986 21345 21346  9244 9247 21285  10781 10881 10882  14909 21500 21517  9497 21682 21683  9040 21451 21580  11629 21568 21592  13327 14903 21529  9039 21341 21507  11686 11688 21455  10880 10881 12521  15995 21451 21580  17661 17663 17664  14932 20721 21615  14886 21359 21395  11796 11798 21560  10631 20893 21617  11705 15988 21539  20632 21494 21498  20676 21205 21547  8097 8098 21578  20371 20510 21484  21029 21341 21488  20141 20172 21576  8242 8244 21334  11680 20944 21496  11686 13957 21455  11611 21446 21523  20274 21528 21585  8111 8115 21198  20415 20416 21603  20362 21446 21523  14837 20716 21348  16403 21215 21506  8823 11556 21602  14044 15998 21543  20272 21433 21528  11705 21173 21561  13315 13964 21563  9241 11756 21178  21353 21511 21538  13327 21327 21529  14930 16003 21584  20663 20665 21495  11753 13969 21441  11091 11094 21323  13303 20648 21471  11750 21043 21619  8077 8078 21067  8115 8120 21198  8244 11863 21334  14936 21614 21631  15985 21326 21339  20416 21372 21609  8078 8099 21067  10914 21463 21493  13787 21237 21422  8097 21501 21578  16001 21512 21547  20433 20436 21570  13303 21098 21471  16109 17249 21569  10876 10919 10920  12843 14650 14651  14711 20192 21564  16007 21563 21600  20506 21620 21633  11629 11745 21568  13959 16008 21631  21205 21512 21547  10650 20725 21603  14935 14936 21628  20118 20120 21579  20721 21616 21626  10231 10588 21589  14913 21527 21551  11564 12184 21479  11629 20513 21592  20133 20136 21602  16360 16362 21572  21263 21570 21604  15715 15922 21504  15651 16481 21466  16017 21544 21545  21034 21632 21644  9636 21497 21521  14869 21511 21538  20364 20366 21577  20992 21538 21586  14912 21517 21555  9978 21153 21610  20171 21596 21627  15935 21293 21460  15649 15651 21466  20374 20375 21618  9239 9241 21178  8229 11760 21476  9782 21547 21581  20215 21469 21559  20374 21610 21618  14907 21299 21486  11724 11726 21622  14906 20570 21601  11467 11944 11945  9793 9795 10073  14903 21497 21521  13698 13700 21600  8625 9061 21571  15713 15715 21504  11751 11753 21441  20372 20374 21607  11466 11944 12404  9727 9794 9796  16324 16326 21526  16004 21501 21578  13580 20637 21566  20304 20307 21591  14887 14933 21588  20364 21573 21577  16362 16407 21572  8834 10676 21590  12495 21073 21634  15440 15442 15553  10430 10431 10432  21037 21475 21596  14869 21538 21586  14887 14888 21588  16326 20090 21526  14903 21521 21544  10429 10431 11557  16001 20188 21581  20274 20276 21585  15263 15264 15265  11561 11564 21479  20436 20440 21570  15914 21453 21552  20379 21595 21598  9591 21320 21593  14912 21298 21575  20463 21402 21582  13994 14936 21614  15261 15264 17195  20370 20372 21598  15441 15442 15443  20304 20330 21591  11705 21539 21561  21521 21544 21545  13580 13822 21566  20120 20142 21579  20513 20549 21599  16005 21560 21597  20379 21520 21583  11798 21560 21597  11798 11800 21597  20588 21555 21575  21034 21629 21632  14912 21555 21575  20278 21612 21623  20325 20329 21608  8823 8827 21602  10630 10631 21634  8829 8832 21635  9837 11703 21595  14936 21617 21628  11024 12495 21634  13737 21299 21486  10650 20945 21594  20417 21336 21592  20767 21612 21623  21402 21542 21582  13979 13981 21620  10623 20833 21558  20440 21570 21604  20415 21594 21603  21391 21392 21613  8283 20813 21574  11134 20506 21629  10270 10272 21636  10272 10274 21637  20141 21576 21587  12567 21585 21612  13990 14934 21616  11646 21532 21584  10623 20769 21558  10703 20982 21643  16006 20388 21624  11646 21197 21606  14869 21424 21586  11072 11074 21644  9978 20727 21610  20392 20393 21655  12567 20767 21612  11133 21360 21627  20276 20278 21612  11703 21153 21607  20721 21615 21616  12208 21597 21624  16001 21547 21581  7721 7723 21621  16008 21563 21600  20563 21542 21582  20282 20285 21625  16003 21584 21606  14937 21613 21615  20513 21592 21599  10631 21617 21628  20417 21592 21599  20388 21624 21642  8827 21602 21635  13174 13176 21562  15574 21454 21611  13700 21600 21614  11646 21584 21606  16008 21600 21614  12152 13336 21639  20725 20726 21609  14906 20883 21601  13991 21613 21615  12602 21263 21604  20276 21585 21612  11074 11076 21632  11576 20767 21623  9222 9593 21658  13174 13748 21562  13981 14931 21620  20280 21623 21625  20136 21602 21635  14932 14937 21615  13990 13991 21616  13700 13994 21614  20163 20352 21619  14156 21454 21611  20171 20407 21596  20284 20285 21645  11576 21623 21625  20375 20378 21618  13991 21391 21613  14929 21627 21630  14934 21043 21626  21033 21034 21648  11076 11134 21632  20727 21610 21618  13977 14929 21633  20893 21382 21617  20278 20280 21623  20372 21598 21607  12076 12962 21653  11703 21598 21607  11703 21595 21598  14573 14574 14575  13977 13979 21633  7723 9608 21621  12208 21624 21642  10650 21594 21603  9035 9072 9118  9149 9495 9496  14949 21639 21640  20280 20282 21625  11726 12856 21622  20505 20506 21630  20506 21620 21629  14935 21073 21628  20407 21475 21596  14929 20171 21627  7722 9636 21652  14921 20128 21641  21043 21622 21626  12856 20721 21626  21382 21617 21631  13959 21382 21631  16005 16006 21624  10158 11890 20083  10158 10159 10160  12856 21622 21626  16005 21597 21624  14936 21617 21631  8827 8829 21635  14921 21536 21641  20388 20390 21642  13991 21615 21616  9508 9509 20081  9508 9510 9586  20390 21642 21646  9216 9510 20099  21034 21644 21648  12208 20836 21642  10630 11024 21634  14721 15343 21638  10270 12558 21636  20287 21645 21647  10274 11576 21637  8060 8061 8062  20836 21642 21646  14931 21620 21629  11134 21629 21632  20760 21686 21687  20017 20018 20019  8814 8815 8825  8808 8815 8819  13336 14949 21639  17661 17662 17663  10780 20018 20079  14929 21630 21633  20284 20287 21645  10781 10880 10881  15925 21536 21641  12558 21645 21647  9222 9224 21658  11072 11136 21644  20285 21625 21637  16009 20982 21643  20285 21636 21645  12075 20836 21646  20506 21630 21633  15675 15676 16122  10875 12843 14650  10875 10876 20088  20301 20306 21660  10860 10876 10919  20303 20306 21663  20287 20289 21647  16009 21643 21649  21521 21545 21652  12401 21643 21649  10252 10254 21661  10254 10256 21662  11576 21625 21637  12558 20851 21647  16009 16010 21649  20390 20392 21646  16025 21033 21648  12547 21664 21665  20289 21647 21651  15218 15225 15262  20289 20291 21651  10246 10248 21666  20851 21647 21651  11572 20851 21651  10250 12547 21665  20310 20311 21668  11466 11467 11944  9726 9793 9795  9727 9793 9794  20291 21651 21654  20392 21646 21653  11465 11467 13918  11572 21651 21654  20308 20311 21664  12075 21646 21653  11136 21644 21648  20311 21665 21666  10428 10430 10435  9636 21521 21652  10429 10430 10431  11572 21312 21654  20291 20293 21654  12558 21636 21645  15440 15441 15442  20148 20151 21667  20311 21664 21665  15260 15263 16162  15261 15263 15264  12075 12076 21653  12962 20472 21655  21312 21654 21656  20293 21654 21656  20293 20295 21656  9593 14890 21658  20063 20065 20066  12849 21656 21657  12849 21312 21656  20313 20315 21669  10666 12680 21673  20295 21656 21657  11690 21668 21669  10240 10242 21670  20317 20318 21672  20318 21670 21671  10244 11690 21671  12849 20507 21657  20295 20297 21657  12548 20507 21659  20297 21657 21659  20507 21657 21659  9224 21234 21658  20297 20299 21659  16011 21165 21673  12572 21672 21674  10666 10702 21673  10234 12557 21675  12548 21659 21660  20320 20322 21674  20299 21659 21660  20299 20301 21660  10238 12572 21677  20306 21660 21662  20324 20327 21678  10252 12547 21661  20306 21661 21663  20644 21530 21679  10256 12548 21662  20305 21663 21664  20327 21675 21678  21386 21565 21676  20303 20305 21663  12547 21663 21664  15120 20044 20045  20305 20308 21664  12557 21675 21678  14572 14573 14574  9148 14649 20103  9034 9071 15758  9057 9149 14654  9148 9149 9495  9035 9071 9072  10246 11690 21666  10248 10250 21665  20483 21565 21682  14006 20419 21681  20311 21666 21668  20328 21580 21680  10157 10158 10159  10156 10158 11890  15996 21580 21680  20310 20313 21668  20148 20152 21667  11690 21669 21671  20519 21700 21703  9216 9508 9510  9215 9508 9509  9221 10689 21681  12548 21660 21662  20315 20318 21669  9253 21698 21699  8059 8060 8061  10240 12572 21670  14890 21658 21676  21234 21658 21676  8808 8814 8815  17657 17661 17662  10780 20017 20018  10242 10244 21671  20318 21670 21672  10770 10781 10880  12547 21661 21663  12572 21674 21677  20317 20320 21672  10702 21165 21673  20322 20327 21674  10234 10236 21675  20327 21675 21677  14890 21386 21676  10236 21675 21677  10236 10238 21677  15674 15675 15676  10860 10875 10876  10859 10875 12843  11801 21691 21697  20324 20326 21678  11690 21666 21668  20318 21669 21671  14944 21692 21694  12587 21696 21697  9497 21127 21683  20326 21678 21679  15217 15218 15225  12557 21678 21679  21565 21676 21682  12557 21530 21679  15996 20644 21680  9726 9727 9793  11465 11466 11467  12572 21670 21672  10428 10429 10430  20327 21674 21677  9236 9483 21688  15439 15440 15441  16014 21696 21697  15260 15261 15263  10689 14006 21681  14944 20250 21694  21127 21683 21684  20063 20064 20065  9497 21234 21682  21234 21676 21682  14941 20760 21686  11708 21127 21684  9483 21686 21687  11708 21684 21685  9251 9507 21698  20482 20483 21683  11708 20867 21685  14570 14572 16527  9240 9245 21689  14571 14572 14573  14571 15120 20044  20482 21683 21684  9034 9035 9071  9057 9148 9149  9056 9148 14649  20482 20484 21684  20867 21685 21687  14940 14944 21690  11801 11803 21691  10155 10157 11552  10156 10157 10158  20484 21684 21685  9483 20867 21687  9245 21286 21692  9215 9216 9508  9152 9216 11554  20557 21702 21703  20484 20485 21685  8058 8059 8060  8058 12599 20078  9606 21702 21703  14941 16013 21686  17657 17660 17661  8806 8808 8814  14943 16014 21696  9483 21686 21688  10770 10780 10781  10769 10780 20017  20485 21685 21687  20485 20760 21687  11799 12587 21697  16014 21691 21697  9236 9238 21688  14107 15674 15675  15673 15674 16744  9253 9255 21699  10859 10860 10875  20210 20519 21700  9245 21689 21690  9259 9606 21702  9238 9240 21689  15216 15217 15218  15216 15846 20031  16013 21688 21689  9238 21688 21689  9606 21700 21703  16015 21698 21699  20557 20580 21703  11464 11465 11466  9657 9726 9727  14940 16013 21690  9261 9606 21704  11803 13998 21691  12587 20250 21696  10427 10428 10429  9265 9504 21705  15438 15439 15440  13998 21691 21693  15259 15260 15261  20209 20212 21706  15979 21286 21692  16013 21686 21688  13998 14942 21693  14945 16015 21701  15979 21692 21694  14942 21693 21695  20061 20063 20064  9507 21695 21698  14943 15979 21694  14942 16015 21695  11976 11977 21707  9251 9253 21698  16013 21689 21690  11799 11801 21697  14945 20557 21701  20557 21701 21702  11976 12151 21707  9255 9258 21699  20210 20211 21700  20250 21694 21696  10604 21708 21711  9258 21701 21702  20211 21704 21705  14569 14571 15120  14570 14571 14572  9258 9259 21702  9606 21700 21704  9027 9034 9035  9056 9057 9148  9027 20008 20072  9504 21705 21706  20519 20580 21703  21545 21709 21711  14943 21694 21696  16015 21699 21701  9261 9263 21704  9263 21704 21705  10155 10156 10157  9263 9265 21705  16015 21695 21698  20209 20211 21706  9152 9215 9216  8056 8058 12599  8057 8058 8059  9258 21699 21701  20211 21700 21704  17656 17658 17659  8805 8807 20000  8806 8807 8808  17655 17657 17660  10768 10770 20096  10769 10770 10780  12151 12672 21707  20211 21705 21706  14107 15673 15674  14106 15673 16622  10858 10859 10860  10858 11909 20052  16016 16018 21708  15207 15216 15846  15215 15216 15217  15891 16769 18098  9656 9657 9726  9639 9657 19995  9739 11464 11465  10426 10427 10428  10425 10427 10500  15437 15438 15439  15258 15259 15260  15257 15259 17194  20061 20062 20063  11977 21707 23042  9218 13334 21712  9185 9188 21721  7718 10604 21709  14569 14570 14571  14578 19060 19061  9026 9027 20008  9026 9056 9057  9016 9027 9034  21545 21652 21709  7718 7720 21709  10154 10801 20007  10154 10155 10156  10591 19991 19992  14646 15463 21710  15604 18433 19846  9151 19929 20006  9151 9152 9215  12745 16232 16233  16016 16017 21711  10604 21709 21711  8056 8057 8058  18093 18095 18096  8055 8057 11537  8805 8806 8807  8804 8806 20080  17654 17656 17658  17655 17656 17657  10768 10769 10770  10767 10769 12459  16021 21712 21715  9218 9220 21712  14326 14327 14328  14106 14107 15673  10856 10858 11909  10857 10858 10859  10857 12511 20040  15206 15215 16117  15207 15215 15216  7720 21652 21709  9638 9739 11464  15890 15891 16769  9639 9656 9657  10424 10426 11551  10425 10426 10427  15434 15437 16105  15435 15437 15438  15463 21290 21710  15257 15258 15259  13334 16021 21712  16017 21545 21711  20060 20061 20062  9220 9223 21712  11978 21639 21714  9223 9225 21715  13047 13048 13049  12160 21768 21777  13380 13381 13382  14568 14569 14570  14578 19059 19060  9015 9026 9056  9016 9026 9027  10153 10154 10155  10153 10591 19991  10152 10154 10801  9076 9151 19929  9100 9151 9152  9077 12745 16232  18092 18093 18094  8055 8056 8057  8141 18093 18095  8803 8805 8851  8804 8805 8806  17654 17655 17656  9646 9730 21716  10027 10028 10029  10766 10768 11550  10767 10768 10769  9796 20034 21717  21639 21640 21714  9225 9675 21715  13390 13391 13392  9796 9854 21717  10673 14636 21717  14080 14106 14107  14080 15227 19986  10601 10807 11445  10856 10857 10858  10855 10857 12511  12689 13752 21719  15206 15207 15215  16086 16210 16211  8351 8352 8353  15889 15890 16624  9638 9639 9739  15888 15890 15891  9599 9639 9656  10424 10425 10426  15433 15435 15436  15434 15435 15437  15256 15257 15258  13384 13385 13386  20058 20060 20061  7880 7881 7882  9644 9646 21716  14471 19222 19223  9854 10673 21717  20001 20033 21718  14409 14410 14411  12689 12690 21719  12244 12245 12246  11202 11203 11204  12230 12231 12232  15395 15839 21753  14567 14568 14569  14567 14578 19984  14565 14578 19059  9015 9016 9026  13241 13242 13243  13359 13817 14960  14560 14561 14562  15561 15603 17327  10151 10153 10591  10152 10153 10154  14508 19737 21734  20419 21681 21721  9188 9219 21721  8602 9077 12745  9076 9100 9151  9500 22308 22334  8054 8055 8056  8141 18092 18093  18722 18724 18725  15305 15306 15307  16028 22277 22305  17653 17654 17655  8803 8804 8805  10766 10767 10768  12842 19248 19796  20048 20049 20050  18472 18478 18791  10121 10122 10123  13793 14080 15227  14079 14080 14106  10855 10856 10857  10854 10856 20015  12246 12247 12248  12303 12304 19847  9452 9453 9454  15205 15206 15207  12609 19923 19927  17548 17549 17550  11341 11342 11343  15888 15889 15890  9599 9638 9639  11339 11340 11341  12164 12210 21891  7882 7883 7884  10029 10030 10031  10423 10424 10425  18929 18930 18931  15433 15434 15435  18971 18974 18975  15249 15256 15257  9219 21681 21721  20057 20058 20060  20056 20058 20059  8468 8470 21736  19439 19442 19443  10733 10734 10735  15681 15682 15683  15683 15684 16110  14967 16651 16660  14968 16651 16652  15307 15308 15309  9719 9749 23128  13436 15012 19670  13386 13387 13388  14621 14622 19015  13102 15174 15900  9186 22250 22292  9452 9454 21824  14237 15701 18131  15121 15122 21728  13308 21106 21728  14292 14294 15796  14089 16444 16445  10393 10394 10395  7824 7826 11541  18119 18120 18121  9300 9302 11548  9321 9322 9323  11227 12738 21740  9448 9449 9450  8432 8433 8434  11337 11338 11339  8979 8980 8981  19064 19066 19067  14328 14329 14330  13076 13079 15239  19590 19593 19694  10031 10032 10033  14565 14567 14578  14566 14567 14568  9013 9015 9016  9013 11539 19996  15309 15310 15311  19078 19080 19083  9336 19855 21769  19117 19119 19122  11174 11178 11231  10367 10369 10496  7884 7885 7886  8152 19501 19504  8483 8485 9161  9187 9492 21738  8777 8778 8779  12254 12255 12256  15251 15253 18643  13103 15183 15902  13270 14266 19817  10151 10152 10153  14162 18149 18150  12250 12251 12252  14266 19813 19814  8602 9076 9077  8601 9076 9100  9446 9447 9448  19921 19923 19924  19412 19414 19415  13610 16423 21738  13392 13393 13394  14510 14512 14513  11343 11344 11345  17287 17288 17289  12248 12249 12250  11204 11205 11206  8053 8054 8055  8053 8141 19909  8051 8141 18092  8052 8054 8081  9187 9217 21738  8436 8437 8438  14616 15624 19124  17767 17768 17769  12252 12253 12254  15311 15312 15313  13364 13366 16047  8802 8803 8804  8802 9666 19988  11468 17653 17654  11468 19370 19837  9735 20179 21741  9643 9735 21741  19817 19818 19819  10765 10766 10767  7886 7887 7888  14330 14331 14332  9644 21716 21741  11321 12676 21739  15122 21106 21728  18931 18932 18933  19730 20048 20049  20047 20048 20051  8434 8435 8436  20092 20093 21730  9364 19953 21781  16110 16111 16112  19125 19127 19128  18518 18520 18521  10033 10034 10035  18472 18477 18478  8438 8440 8441  14332 14333 14334  13793 14079 14080  18889 18891 18892  15313 15314 15315  10854 10855 10856  11351 12844 19770  14503 17557 19860  16020 16428 21731  14549 17382 17385  16680 16682 16683  15106 16265 16266  7888 7889 7890  16112 16113 16219  14627 19745 21946  19600 19601 19602  10716 10719 22106  8353 8354 8355  14334 14335 14336  15203 15205 17271  15204 15205 15206  8140 19863 21748  9454 9455 9456  10820 10821 10822  17547 17548 17549  13502 15075 19708  9347 19525 21766  12240 12241 12242  15887 15888 19936  9597 9599 9638  12433 15888 15889  12124 12127 21928  12256 12257 12258  10035 10036 10037  12260 12261 12262  9456 9457 9458  7890 7891 7892  11206 11207 11208  11151 11153 11499  10422 10423 10424  10421 10423 18531  13368 13371 13374  10037 10038 10039  16219 16220 16221  18933 18934 18935  7783 20852 21748  7785 8140 21748  15432 15433 15434  15247 15249 18516  15248 15249 15256  13406 16048 21828  19913 19917 19922  13123 13126 13127  13394 13395 13396  15315 15316 15317  12133 12134 12135  13436 13437 19670  18825 18833 18834  20852 21329 21750  14336 14337 14338  8779 8780 8781  14265 18915 18916  12262 12263 12264  13340 16030 16031  9217 13610 21738  20056 20057 20058  8441 8442 8443  13119 13121 13911  9323 9324 9325  10039 10040 10041  7892 7893 7894  18571 18574 18575  15317 15318 15319  16221 16222 16275  15871 15874 18543  13412 13446 13447  13408 13409 13410  12264 12265 12266  12258 12259 12260  18781 18782 22139  10510 13138 21754  15253 15560 19933  13410 13411 13412  8549 19328 21846  12135 12136 12492  11208 11209 11210  9458 9459 9460  7894 7895 7896  11025 12494 20091  9643 9644 21741  14967 14968 16651  8355 8356 8357  15319 15320 15321  13447 13448 13449  10041 10042 10043  10833 10834 10835  18935 18936 18937  15186 15187 15188  13608 14621 14622  13607 14621 14627  8327 8329 8603  13442 13509 21749  10395 10396 10397  14338 14339 14340  13884 14583 22182  18880 18901 18902  13136 13566 21723  7461 19647 19648  15321 15322 15323  13258 13259 13260  7896 7897 7898  13377 13379 13380  14340 14341 14342  13348 13800 14985  11345 11346 11347  18637 18638 18639  13406 14601 16048  16275 16276 16277  11210 11211 11212  12274 12275 12276  18937 18939 18940  10741 10742 10743  13274 14085 14955  8357 8358 8359  13449 13450 13451  10043 10044 10045  15323 15324 15325  7898 7899 7900  14342 14343 14344  14244 16451 17446  11364 11366 11930  13373 13407 13408  19102 19105 19106  18626 18628 18629  12270 12271 12272  12272 12273 12274  12276 12277 12278  18991 18993 18996  11349 11350 11351  10319 19612 21761  10320 10323 21761  10510 21754 21822  18613 18614 18616  13451 13536 13537  14344 14345 14346  14437 14438 14439  9304 9306 9701  7714 12160 21768  7900 7901 7902  10716 10718 10719  16279 16280 16491  10045 10046 10047  9583 22099 22155  9913 9915 11543  16277 16278 16279  10047 10048 10049  9325 9326 9327  12641 14078 21770  19296 19297 19299  15325 15326 15327  13396 13397 13398  10397 10398 10399  8359 8360 8361  13398 13399 13400  14346 14347 14348  21640 21714 21765  12284 12285 12286  11212 11213 11214  7902 7903 7904  8479 8481 21825  12286 12287 12288  14565 14566 14567  12282 12283 12284  9012 9013 9015  9012 11549 19959  9011 9013 11539  10049 10050 10051  15327 15328 15329  19918 19919 19920  8443 8444 8445  12278 12279 12280  13363 13436 13437  18940 18941 18942  12506 20002 21998  18811 18812 18813  11485 11488 19748  12288 12289 12290  7904 7905 7906  13361 13362 13363  14282 14283 17251  15499 15501 17354  12280 12281 12282  15329 15330 15331  9852 10677 20047  19272 19274 19275  19443 19444 19445  10604 21708 21768  11347 11348 11349  10051 10052 10053  15006 15031 19972  20048 20050 21821  13502 13503 19708  9413 9581 21759  13794 15563 19722  14348 14349 14350  7620 18868 18870  13695 13697 20870  9464 9465 9466  13122 13125 21760  16491 16492 16493  7906 7907 7908  7714 7716 21768  13443 13444 13445  15331 15332 15333  13445 13479 13480  19465 19467 19470  13689 13691 21762  13441 13442 13443  19288 19290 19291  17806 17807 17808  12298 12299 12300  11214 11215 11216  13480 13481 13482  14350 14351 14352  16445 16524 18587  7908 7909 7910  18199 18200 18201  12300 12301 12302  12294 12295 12296  10053 10054 10055  18942 18943 18944  11061 11066 21765  19047 19049 19051  13482 13483 13484  18919 18922 21839  12296 12297 12298  8361 8362 8363  11360 11362 11371  13484 13488 13489  15333 15334 15335  12268 12269 12270  18188 18455 21820  10399 10400 10401  12227 12228 19854  10150 10151 10152  7783 7785 21748  12302 12303 12304  13814 16128 21757  14352 14353 14354  14162 18148 18149  9466 9467 9468  12310 12311 12312  12312 12313 12314  18197 18198 18199  13489 13490 13491  7910 7911 7912  7973 13114 19719  16493 16494 16541  15902 15903 18517  16060 16061 17280  11522 14600 19772  18944 18949 18950  15560 18496 19933  12314 12315 12316  10055 10056 10057  10811 10813 12510  12316 12317 12318  14354 14355 14356  13493 13495 13496  19415 19416 19417  13491 13492 13493  12308 12309 12310  12863 12865 13579  11216 11217 11218  7912 7913 7914  19445 19446 19447  8482 8552 21816  11351 11352 11353  12322 12323 12324  12320 12321 12322  12318 12319 12320  8601 8602 9076  12324 12325 12326  20656 21329 21750  13496 13497 13498  12326 12327 12328  13689 14126 21762  9917 9919 9963  10057 10058 10059  15335 15336 15337  14237 18131 18134  13051 13053 13055  12982 19912 19913  7914 7915 7916  14356 14357 14358  12334 12335 12336  13358 13360 13361  16541 16542 16543  11218 11219 11220  16018 21708 21777  19069 19070 19071  12338 12339 12340  12336 12337 12338  12340 12341 12342  12332 12333 12334  11061 11063 21765  8448 8449 8450  12342 12343 12344  11520 13910 21837  15337 15338 15339  14501 14503 19860  15339 15340 15341  17664 20074 20075  7916 7917 7918  12344 12345 12346  19089 19091 19093  16543 16544 16614  9327 9328 9329  14358 14359 14360  7918 7919 7920  13439 13440 13441  11220 11221 11222  13498 13499 13500  8051 8053 8141  8052 8053 8054  12350 12351 12352  19067 19068 19069  12352 12353 12354  10059 10060 10061  14296 14300 17267  8445 8447 8448  13901 15852 15853  12356 12357 12358  19241 19243 19245  7920 7921 7922  12354 12355 12356  13281 14157 21764  19437 19440 19452  14303 14305 21778  13260 13261 13262  12292 12293 12294  13500 13502 13503  9462 9463 9464  10061 10062 10063  14360 14361 14362  12358 12359 12360  13138 13142 21754  19251 19252 19254  8363 8364 8365  8450 8453 8454  16614 16615 16616  13277 13279 14173  11222 11223 11224  8799 11468 17653  8800 8802 9666  8801 11468 19370  8801 8802 8803  10063 10064 10065  12016 12018 21119  10827 10828 10829  14362 14363 14364  14499 14501 17563  12306 12307 12308  8476 8478 11812  12360 12361 12362  7926 7927 7928  7928 7929 7930  10764 10765 10766  10764 10774 19354  18195 18196 18197  12362 12363 12364  8474 8476 21758  19473 19475 19476  11224 11225 11226  8556 11519 19835  7930 7931 7932  10065 10071 10072  15346 15347 15348  8785 8786 8787  12364 12365 12366  11734 12540 21051  7932 7933 7934  8365 8366 8367  16618 16619 16710  14364 14365 14366  7814 7817 19956  16020 21731 21777  12160 21731 21777  9460 9461 9462  12330 12331 12332  15393 15395 21753  7934 7935 7936  7973 7974 19719  10102 10103 10104  10072 10528 10529  7936 7937 7938  13116 13118 15590  11226 11227 11228  16616 16617 16618  19528 19530 19531  11512 17667 22701  7938 7939 7940  13344 13899 13901  16567 16568 16569  8367 8368 8369  7940 7941 7942  9329 9330 9331  13574 15572 15573  10529 10530 10531  7942 7943 7944  12348 12349 12350  14126 16631 21762  11228 11229 11230  17771 17772 17773  11518 19488 21837  10729 10730 10731  7944 7945 7946  16710 16711 16713  19730 20047 20048  7946 7947 7948  11230 11240 11241  11363 11365 12722  8456 8457 8458  10401 10402 10403  14366 14367 14368  19745 21754 21822  10323 10325 21822  7948 7949 7950  9346 9348 9349  7950 7951 7952  10115 10117 22152  12370 12371 12372  10531 10532 10533  13243 13244 13245  11157 11159 19801  7952 7953 7954  11241 11245 11246  7954 7955 7956  16713 16714 16776  11157 11237 19801  12458 13565 21756  7956 7957 7958  11353 11354 11355  9468 9469 9470  7958 7959 7960  14368 14369 14370  8369 8370 8371  7960 7961 7962  19532 19534 19535  7924 7925 7926  7962 7963 7964  11246 11247 11248  19539 19541 19544  13566 15251 21723  19134 19137 19750  14370 14371 14372  9919 9963 19975  7964 7965 7966  12372 12373 12374  7966 7967 7968  16776 16777 16778  7968 7969 7970  7970 7971 7972  15488 16121 18537  16778 16779 16865  7972 7973 7974  16728 16730 16731  7980 7981 7982  7982 7983 7984  7984 7985 7986  7986 7987 7988  7988 7989 7990  7978 7979 7980  14372 14373 14374  7990 7991 7992  11355 11356 11357  16155 16156 16157  7992 7993 7994  7994 7995 7996  11248 11249 11250  12448 13760 13820  19254 19255 19256  7996 7997 7998  7998 7999 8000  16151 16152 16153  8000 8001 8002  8002 8003 8004  8004 8005 8006  11250 11252 11253  11253 11266 11267  9331 9332 9333  8006 8007 8008  8008 8009 8010  8010 8011 8012  8012 8013 8014  8014 8015 8016  8016 8017 8018  18472 18476 18477  16141 16142 16143  8018 8019 8020  8020 8021 8022  8022 8023 8024  8024 8025 8026  8026 8027 8028  8028 8029 8030  16149 16150 16151  8038 8039 8040  8040 8041 8042  8036 8037 8038  16137 16138 16139  18221 18222 18225  10533 10534 10535  16131 16132 16133  16139 16140 16141  16143 16144 16145  13127 13128 13129  16153 16154 16155  16135 16136 16137  16145 16146 16147  13792 13793 14079  8034 8035 8036  14374 14375 14376  13013 13015 22145  16133 16134 16135  16157 16160 16161  8371 8372 8373  16129 16130 16131  19256 19257 19258  14470 14583 15829  14207 14208 14209  16147 16148 16149  16865 16866 16867  10852 10854 10865  10853 10854 10855  11275 11276 11277  12374 12375 12376  11277 11278 11279  8508 9206 14946  19258 19259 19260  10537 10538 10539  10319 10320 21761  13401 13403 16044  11273 11274 11275  11279 11280 11281  15872 15873 16770  19260 19261 19262  10535 10536 10537  14449 16052 16053  14376 14377 14378  10403 10404 10405  11271 11272 11273  12368 12369 12370  8787 8788 8789  11283 11284 11285  13691 14231 21762  14305 15043 21778  11281 11282 11283  8373 8374 8375  15395 15398 15839  13262 13263 13264  19262 19264 19265  10539 10540 10541  11285 11286 11287  11291 11292 11293  13342 19833 21945  12376 12377 12378  15255 16042 16043  19149 19151 19152  13129 13130 13131  11289 11290 11291  11066 21714 21765  11293 11294 11295  15457 17619 17620  19265 19266 19267  9368 9370 9371  13100 15897 21859  16871 16873 17561  11299 11309 11310  11287 11288 11289  12044 12045 12046  10541 10542 10543  10405 10406 10407  14378 14379 14380  13131 13132 13133  13463 13464 13465  10765 10767 22460  11316 11317 11318  11318 11319 11320  11322 11323 11324  7976 7977 7978  9333 9334 9335  11297 11298 11299  8375 8376 8377  14316 14318 21925  14380 14381 14382  9521 9564 19226  11324 11325 11326  14586 19364 19365  11295 11296 11297  13056 13061 22129  16127 16128 16129  12378 12379 12380  8032 8033 8034  8377 8378 8379  10815 10817 12519  14955 15589 16745  13283 13285 21747  17169 17171 17172  11269 11270 11271  13794 14232 19722  13882 13884 14470  8789 8790 8791  13429 13430 13431  8476 11812 21758  13133 13134 13135  11139 11141 12203  11326 11327 11328  19299 19300 19301  11320 11321 11322  15203 15204 15205  12720 14969 22018  9566 9568 18966  11314 11315 11316  14209 15577 15578  11342 11343 11344  8379 8380 8381  12097 12098 21910  14382 14383 14384  11334 11335 11336  11065 11069 21835  9387 9389 9390  10119 10120 10121  11330 11331 11332  11373 19685 19731  17546 17547 17548  11332 11333 11334  11340 11341 11342  7716 10604 21768  9335 9336 9337  11357 11358 11359  11350 11351 11352  8381 8382 8383  16615 17813 21773  15251 18643 21723  10543 10544 10545  15061 15067 15068  13135 13794 14232  11185 11187 11814  11344 11345 11346  12289 12290 21725  14991 15014 15015  14989 14990 14991  15040 15046 15047  15023 15035 15036  14987 14988 14989  19269 19270 19271  14384 14385 14386  15015 15016 15017  9597 9598 9599  12433 15887 15888  9596 15887 19001  15051 15056 15057  10407 10408 10409  18121 18122 18123  11328 11329 11330  14318 14545 15123  15036 15037 15038  15021 15022 15023  15017 15020 15021  12772 12773 12774  15348 15349 15350  11882 18484 22256  11138 11140 19394  8477 8479 9147  15057 15058 15059  9308 9309 19740  15047 15048 15049  7812 11503 19956  15038 15039 15040  11348 11349 11350  11354 11356 11372  9337 9338 9339  10548 10549 10550  8383 8384 8385  12380 12381 12382  12903 13642 21943  19579 19580 22148  8385 8386 8387  15070 15081 15082  8387 8388 8389  14217 16263 16264  15059 15060 15061  15605 15607 16248  11356 11357 11358  15049 15050 15051  10545 10547 10548  8735 8737 13904  8791 8792 8793  11312 11313 11314  8389 8390 8391  14272 14273 14274  19470 19471 19472  11352 11353 11354  18617 18619 18620  10978 17958 22165  11338 11339 11340  18201 18205 18206  12327 12328 21732  18996 18997 18998  10550 10551 10552  7838 7840 8084  14386 14387 14388  18295 18299 18300  8391 8392 8393  10420 10422 10474  10421 10422 10423  10824 10825 10826  9339 9340 9341  10409 10410 10411  11354 11355 11356  17405 17406 17407  8458 8459 8460  17886 17887 17891  12382 12383 12384  16569 16570 16571  12345 12346 21735  18506 18507 18510  11336 11337 11338  13813 14986 14987  15776 15897 17339  12844 19764 19770  13420 13422 16056  15148 15448 15907  19051 19052 19054  17980 17982 17983  8397 8398 8399  15431 15552 19607  15431 15432 15433  8395 8396 8397  12243 12678 21818  8393 8394 8395  15068 15069 15070  10552 10553 10554  14591 15910 18278  15247 15248 15249  13264 13265 13266  8399 8400 8401  14946 14947 14948  9452 9576 21824  10727 10728 10729  14388 14389 14390  11358 11359 11360  8401 8402 8403  15350 15351 15352  15505 15506 15507  19093 19094 19096  18059 20005 22241  9341 9342 9343  7834 7836 11808  13235 13237 13774  11193 11195 11196  9470 9471 9472  11346 11347 11348  9472 9473 9474  8793 8794 8795  18622 18623 18625  14390 14391 14392  8407 8408 8409  11362 11363 11364  10819 10821 11397  9411 9413 9414  10824 10826 10861  8409 8410 8411  8405 8406 8407  10735 10736 10737  15445 17493 17494  13905 14178 16258  9343 9344 9345  10579 22121 22195  8481 19955 21825  11367 11369 13657  8403 8404 8405  19913 19915 19917  8411 8412 8413  11370 11375 11376  16018 16020 21777  8460 8461 8462  13081 13574 15572  19687 19689 19690  19560 21982 22030  9349 9350 9351  19921 19924 19925  13245 13246 13247  19745 21754 21946  8417 8418 8419  13283 14157 21747  8480 8482 21816  8462 8463 8464  20055 20056 20057  15573 16106 17113  14392 14393 14394  9317 9664 13338  13347 13798 13799  18652 18654 18655  8415 8416 8417  8482 8484 8552  9521 9522 9523  12494 13012 13013  11359 11360 11361  8413 8414 8415  17867 17868 17869  20049 20050 21782  8419 8420 8421  19915 19917 19918  18620 18621 18622  11360 11361 11362  14112 14189 14190  9351 9352 9353  7547 22758 24129  9474 9475 9476  12384 12385 12386  13274 14955 21852  13820 13821 14263  9317 9318 19774  9353 9354 9355  10554 10555 10556  8421 8422 8423  14274 14275 14276  15352 15353 15354  11364 11365 11366  21640 21765 21835  18885 18886 18887  9202 14958 14963  13431 13432 13547  13142 13143 13144  9355 9356 9357  8423 8424 8425  14394 14395 14396  8331 8333 12443  8427 8428 8429  11807 21767 21850  14950 14952 21743  13067 13891 19973  9357 9358 9359  13565 14237 21756  8425 8426 8427  14311 14313 21936  18798 18801 18819  9359 9360 9361  12033 19341 21933  13092 13096 21907  7455 18880 18901  9361 9362 9363  12018 12389 21119  14313 14316 15113  8429 8430 8431  13799 15092 15111  10559 10560 10561  11807 13347 21767  14132 14133 15749  9009 9011 22168  15354 15355 15356  15238 15245 17120  8464 8465 8466  15004 15005 15006  9363 9364 9365  9371 9372 9373  15111 17145 17146  10733 21727 22029  14966 14967 14968  14302 14304 17268  11361 11362 11363  11368 11369 11370  9923 9925 11811  10556 10558 10559  8431 8432 8433  14963 16415 16474  15853 16058 16059  13910 15910 21837  14309 14311 15104  9365 9366 9367  11376 11377 11378  9373 9374 9375  8739 8741 8849  14305 14307 15043  15400 15402 17049  15510 15511 15512  9425 9428 9429  12426 19807 21814  13607 13608 14621  14396 14397 14398  16075 22570 22577  10561 10562 10563  11136 21648 21890  7451 18883 18885  8437 8438 8440  17620 17621 17622  18892 18893 18895  9375 9376 9377  19383 19384 19385  14295 14297 21823  9377 9378 9379  12210 13716 21891  10015 10016 10017  9379 9380 9381  8440 8441 8442  13376 16070 19760  13461 13462 13463  8442 8443 8444  9381 9382 9383  8435 8436 8437  18314 18315 18438  12386 12387 12447  9383 9384 9386  17624 17625 17626  18922 18925 21839  17622 17623 17624  8471 8473 9095  10743 10744 10745  19560 22030 22118  14949 16026 21905  9390 9391 9392  10563 10564 10565  14501 17563 19860  8433 8434 8435  15006 15007 15031  8466 8467 8468  17626 17628 17629  10325 10510 21822  15681 15683 16426  14276 14277 14278  14398 14399 14400  11363 11364 11365  13268 13269 13270  14263 14264 15741  19188 19191 19192  17631 17632 17693  20048 20051 21821  9392 9393 9394  14085 15589 16515  17629 17630 17631  15913 21058 22040  12039 12040 12041  9394 9395 9396  8454 8456 8457  10388 10391 21978  15356 15357 15358  13478 14474 16066  13274 13275 14085  13266 13267 13268  8449 8450 8453  14004 14321 14322  13278 13849 22009  9396 9397 9398  9701 22273 22395  14961 16085 16086  16817 16819 16829  14400 14401 14402  13405 13860 13861  13424 13426 13429  9398 9399 9400  11348 11350 12074  8337 8339 9036  13251 13252 13253  11382 11383 11384  11964 12649 21058  11178 11231 21810  17174 17176 17177  13877 14547 15004  8457 8458 8459  9400 9401 9402  12982 19913 19922  11546 19840 21809  15175 19555 21860  12046 12047 12048  8447 8448 8449  14600 18715 19772  19010 19011 19012  11366 11367 11368  14307 14309 21937  8444 8445 8447  15894 18103 18544  13347 13799 21767  9402 9403 9404  13353 14976 16083  13346 21724 21844  13253 13254 13255  8467 8469 11971  13817 14960 14961  13899 13901 15852  18162 18166 18167  16210 16211 16655  8724 8726 21882  9404 9405 9406  13249 13250 13251  13402 13404 13405  17423 17424 17425  9406 9407 9408  14402 14403 14404  11358 11360 21886  14237 18134 21756  12461 22097 22157  16765 16845 18158  13247 13248 13249  11063 21765 21835  9927 9929 9965  7848 7850 8072  14085 14955 15589  13345 13900 13902  13040 13534 14482  15741 15742 17168  15043 21778 21779  14297 14301 15003  9408 9409 9410  11069 21835 21905  17395 17396 17397  15092 17145 17147  8463 8464 8465  13743 14229 15663  7870 7871 7872  12840 12841 13882  8461 8462 8463  12127 12518 21928  14278 14279 14280  8465 8466 8467  8478 8480 21840  11378 11379 11380  15198 16514 18180  19918 19920 19921  10565 10566 10567  11519 11523 19835  13255 13256 13257  13348 13798 13800  11375 11377 13736  18968 22167 22197  14950 14951 14952  8463 8465 9094  8459 8460 8461  13388 13390 13391  7844 7846 11813  13065 13067 19973  15183 19672 21935  11384 11385 11386  17172 17173 17174  17177 17179 17180  9414 9415 9416  14404 14405 14406  11518 11520 21837  15572 15573 16106  9523 9524 9525  11344 11346 12150  15358 15359 15363  14974 14975 15299  12599 19951 21959  15031 15032 15033  8467 8468 8469  14609 15346 15347  14280 14281 14284  18790 21950 22086  11191 11193 11195  14297 15003 21823  14564 14565 14566  17280 17281 17282  17494 17495 17496  9480 9518 9519  9307 9310 21859  9010 9012 11549  9011 9012 9013  18686 18688 18689  13338 13339 13340  13902 13903 14168  12599 20078 21959  2156 2751 21786  2870 2898 21789  1981 2968 21803  1624 1631 7481  1533 1540 7483  1554 1561 7355  1519 1526 7647  1638 1645 7650  1512 1519 21783  1750 1757 7351  980 987 7659  2051 2310 7486  2954 2961 21788  1799 1806 7350  2856 2898 7492  1722 1729 7499  1911 1918 7664  1680 1687 7496  2912 2975 7341  1701 1708 7352  2555 2716 7340  1869 1876 7500  2114 2233 7663  2828 2849 7502  2751 2863 7666  1372 1379 7649  1386 1393 7501  1407 1414 7358  1442 1449 7652  1456 1463 7357  1477 1484 7498  1295 1302 7654  1281 1288 7491  1428 1435 7493  1491 1498 7662  1337 1344 7494  1260 1267 7361  2030 2478 7346  1946 1953 7347  1981 2961 7342  2639 2681 7339  1652 1659 7353  1778 1785 7485  2121 2968 7653  2758 2772 7490  1666 1673 7667  2604 2947 7495  1897 1904 7348  2247 2471 7489  1827 1834 7488  1736 1743 7657  1925 1932 7484  1603 1610 7354  1848 1855 7349  1764 1771 7658  2667 2954 7646  1988 2345 7487  2870 2933 7660  2765 2842 7648  2779 2800 7655  2324 2597 7497  1309 1316 7360  1323 1330 7665  1435 1442 21784  1505 1512 7356  1358 1365 7359  1813 1820 7661  1883 1890 7656  1288 1295 21785  2450 2709 7345  2562 2793 7343  2156 2212 7344  1743 1750 21792  1568 1575 7651  1575 1582 21800  1582 1589 7482  2310 2667 21801  1449 1456 21805  1771 1778 21796  1645 1652 21798  1526 1533 21802  1316 1323 21790  2716 2779 21807  1302 1309 21804  1659 1666 21795  1904 1911 21787  2345 2863 21799  1918 1925 21797  9416 9417 9418  10570 10571 10572  15918 15919 21959  14972 14973 14974  19597 19600 21869  11063 11065 21835  13275 14085 21771  11340 11342 11394  9418 9419 9420  9757 9981 21963  9933 9935 12751  17802 17804 17805  19924 19925 19926  13273 13274 13275  11209 11211 22112  13341 13343 14064  10117 10118 10119  11497 18592 21889  18517 18518 21855  10567 10569 10570  13065 13892 19973  9476 9479 9480  10572 10573 10574  8095 14971 14972  13856 14272 14273  12541 22028 22274  16128 16130 22102  13420 16056 21883  9938 9940 22086  15887 19936 22060  14085 16515 21771  18681 18683 18685  17498 17499 17500  18918 18919 21839  13375 13376 13377  13269 13270 13271  19124 19125 21868  12035 12037 12939  11070 11136 21969  14406 14407 14408  13278 13280 13849  19721 21950 22086  17496 17497 17498  15073 15370 15904  13371 13374 13375  13798 13799 15092  13429 19351 21864  13277 14173 21771  13910 14591 15910  16682 16683 21780  15363 15364 15365  12494 13013 20091  9420 9421 9422  13257 13258 13259  8468 8469 8470  13271 13273 13274  13270 13271 13272  13454 13877 21957  14284 14285 14286  13114 13116 21763  8473 8474 8475  6846 7570 22218  17804 17805 17806  13797 18297 18301  9529 9530 9531  18901 18902 19130  8453 8454 21833  11365 11366 11367  13273 13275 13276  13270 13272 19817  9429 9430 9431  18837 18841 18843  15092 15111 17145  7872 7874 21772  13598 14111 14112  9422 9423 9424  18646 19806 22254  17500 17502 17503  8457 8459 12428  9314 9317 9664  11369 11370 11375  14203 14204 16727  13259 13260 13261  9582 21860 22038  13263 13264 13265  14408 14409 14410  18821 18825 18836  13087 13089 13091  13403 16044 17583  12041 12042 12043  9937 9939 9942  13261 13262 13263  10574 10575 10576  13267 13268 13269  13265 13266 13267  13706 14077 14119  19955 21825 21826  13381 13382 13383  17399 17400 17401  19818 19819 19820  10411 10412 10413  10149 10150 10151  14964 21944 21999  10373 10375 10504  13874 15076 16260  13874 14162 18148  19447 19448 19451  13267 13269 13674  13376 13377 19760  14116 14969 15601  13383 13384 13385  8472 8473 8474  8480 21816 21840  9450 9452 9453  17505 17506 17674  11195 11196 11807  19472 19473 21887  13900 13903 15044  9525 9526 9527  8471 8472 8473  8475 8476 8477  17503 17504 17505  13379 13380 13381  12412 13680 13681  10602 10809 19393  16277 16279 16557  13116 15590 21763  7835 11493 19663  11178 11185 21810  13275 13277 21771  13114 19719 21763  10578 10586 10587  11198 11200 11257  14168 15254 16751  14287 14289 14625  7858 7860 8066  15365 15366 15367  16042 21997 22098  13347 13348 13798  9431 9432 9433  15304 15306 22127  12048 12049 12050  11334 11336 12204  15033 15034 15062  11185 11814 21810  14291 14293 15066  14601 16048 16049  16026 21905 21969  7854 7856 11815  13385 13386 13387  9960 10015 10016  15170 16283 16284  19685 19687 21811  10576 10577 10578  12123 13030 14950  15404 15406 15548  13279 14173 21764  13346 13347 13348  15152 15169 15171  8523 8601 18851  8524 8601 8602  10809 13047 19393  13279 13280 13281  14273 14274 14275  17411 17413 17414  8469 8470 8471  11367 11368 11369  13548 14095 15140  13271 13272 13273  14958 14963 16415  9433 9434 9435  8470 8471 8472  14286 14287 14288  13344 13345 13899  14562 14563 14564  9435 9436 9437  14410 14411 14412  19600 19602 19771  15367 15368 15373  12996 19597 21869  11195 11807 13346  11310 11311 11312  8449 8453 9202  9888 9890 19518  13277 13278 13279  8981 8982 8983  15767 17230 17445  8343 8345 11816  11202 11204 11820  9202 14963 21880  13121 13911 21912  11375 11376 11377  18922 18924 18925  8477 8478 8479  13861 14004 14321  8474 8475 8476  15854 19833 22154  10387 11845 14956  13437 13438 13439  9437 9438 9439  13391 13392 13393  13123 13127 21912  14558 14559 14560  13427 13428 13548  11330 11332 12223  13279 13281 21764  11155 11237 19842  12203 13083 13703  13275 13276 13277  14275 14276 14277  9386 9387 21776  16711 16714 22105  9309 9312 19740  10188 20043 22000  10188 20253 22000  20027 20028 22000  13503 13504 13505  13370 13372 13373  14493 14495 15851  13900 13902 13903  10739 10740 10741  14324 14326 15785  7922 7923 7924  10021 10023 10598  11326 11328 11985  11386 11387 11388  8541 11818 12840  14308 14310 15804  9723 19364 22285  8051 8052 8053  8050 8052 18748  14252 16610 16612  11267 11268 11269  12328 12329 12330  12346 12347 12348  13401 16044 21857  15347 15348 15349  8347 8349 9041  9439 9440 9441  8454 8457 21833  13356 13357 13358  13342 13343 13344  14546 15809 17569  13746 14118 15533  15001 16642 16792  8479 8480 8481  13393 13394 13395  13505 13818 13819  8444 8447 12202  18823 18826 18827  14957 14958 14959  13378 14011 15000  19685 19731 21811  13354 13355 13356  8488 8490 9134  15127 19569 21938  15068 15070 16752  19267 19268 19269  12304 12305 12306  8440 8442 9190  8481 8482 8483  9441 9442 9443  7868 7870 7871  13345 13899 13900  13373 13408 21812  13704 15872 18718  13665 15628 15641  8033 22225 22414  13455 13875 13876  13589 14250 14258  19543 19606 22420  7974 7975 7976  10587 10715 10716  13423 13425 13427  7812 7814 19956  13367 13369 13370  19525 19528 21766  8453 9202 14957  12448 13820 21944  10011 10706 21960  8030 8031 8032  13339 13341 13342  12366 12367 12368  13814 14187 16127  15373 15374 15375  7864 7866 11837  13607 14627 21946  12290 12291 12292  9443 9444 9445  14233 16479 16480  13414 13812 13814  14279 14281 15024  14607 19721 21950  14277 14278 14279  13340 16031 21775  8799 8801 11468  8800 8801 8802  15904 21824 22076  13350 13352 13354  19285 19287 19292  11807 13346 13347  10025 10027 11817  9690 14007 14008  15408 15410 15411  9318 9321 19774  15349 15350 15351  14232 14233 16478  21640 21835 21905  11842 13365 14984  10029 10031 10068  14288 14289 14290  12873 12874 12875  8485 8486 8487  18929 18931 18955  12175 12641 13706  14330 14332 15786  8094 14979 14981  12469 17800 17801  15301 15303 17036  19687 19690 21811  14981 14982 15255  11320 11322 12413  9664 13338 13339  12492 13032 13828  9410 9411 21819  11208 11210 11303  13272 19817 19818  17507 19343 22381  10762 10764 10774  10763 10764 10765  16616 16618 16743  15059 15061 16699  16682 16871 21780  13457 13459 13461  11380 11382 11383  10835 10836 10837  11268 11972 13413  8329 8603 21832  14187 16858 16859  8351 8353 12201  14334 14336 17273  11153 11155 19842  13415 13812 13813  15904 15905 18767  13413 13414 13415  10123 10124 10125  8476 8477 8478  15175 15457 21860  18123 18124 18125  13343 13344 13345  12474 17638 17639  7880 7882 8090  13395 13396 13397  17501 19368 22258  19445 19447 19448  14281 14284 14285  19600 19771 21869  11316 11318 12427  15351 15352 15353  8758 8760 22187  18933 18935 18954  8990 8991 8992  16478 16479 16559  13828 14257 15768  14321 14322 17337  13903 14168 15254  13404 13405 13860  14279 14280 14281  10016 10017 10069  18924 18927 21843  16025 21648 21890  14321 17337 17338  14275 14277 15002  9202 14957 14958  7876 7878 11819  11490 11491 12499  15307 15309 15808  8433 8435 9191  13716 16281 21891  11488 11489 11490  8355 8357 9051  8483 8484 8485  10035 10037 10635  13850 13851 14267  12476 17588 17589  16559 16560 17841  9386 13349 21776  9724 13421 14994  12266 12267 12268  15311 15313 17035  15051 15057 16659  9323 9325 9689  11214 11216 11301  16157 16161 16537  11299 11310 11311  14340 14342 15788  13827 14249 14449  9445 9446 9447  13397 13398 13399  11312 11314 12467  13121 13123 21912  15353 15354 15355  21737 21809 22348  11315 12506 21921  8487 8488 8489  19531 19532 21976  18937 18940 18953  13514 13597 13598  13399 13400 13551  14344 14346 17308  13453 13454 13455  19661 21588 22032  13100 15776 15897  15355 15356 15357  18281 18284 18285  7890 7892 8083  11360 11371 21886  13504 13818 14977  14267 14320 15800  11445 14588 14589  8425 8427 9160  8429 8431 11823  7886 7888 11821  10041 10043 10067  14949 21640 21905  19736 21772 21888  8359 8361 12435  14290 14291 14292  15317 15319 15805  9884 9886 19665  13283 13284 13285  11377 11378 11379  15047 15049 16613  14285 14286 14287  10677 19730 20047  15589 16515 16715  7923 8094 14978  18942 18944 18952  11346 11348 21836  11293 11295 11302  15042 18787 22249  16151 16153 16273  8421 8423 12478  13404 13860 13862  9424 9425 21828  16147 16149 16633  12123 12124 21928  11342 11344 21834  14982 15784 17047  15321 15323 17034  8363 8365 9054  11289 11291 11827  14326 14328 21848  11220 11222 11239  11524 19403 22621  10377 10379 11822  10047 10049 11825  18689 18692 18693  14350 14352 15789  8417 8419 9096  11388 11389 11390  12460 13826 13827  15375 15376 15379  13339 13340 13341  11251 22087 22149  16143 16145 16673  11285 11287 11391  9447 9448 9449  14354 14356 17323  14977 16169 16170  13263 13265 13726  12043 12044 12045  7900 7902 8071  7896 7898 11824  14077 14119 21755  7871 7872 8095  11228 11230 11255  10051 10053 10066  14292 14293 14294  15327 15329 15802  11224 11226 11829  12050 12051 12052  14978 14979 14980  8413 8415 12218  10016 10069 13401  13127 13129 14962  11279 11281 11392  13341 13342 13343  11275 11277 11882  16133 16135 16766  16137 16139 16490  19251 19254 19277  13862 14413 17598  14956 15801 17457  12347 12466 13416  8762 8764 18550  15914 21553 22040  16129 16131 16802  11271 11273 11949  15331 15333 17033  13131 13133 13452  11246 11248 11251  8409 8411 9135  15021 15023 16516  11253 11267 11268  8754 8756 12512  8478 8479 8480  9329 9331 9700  15009 15807 15835  7910 7912 8068  8369 8371 12603  8489 8490 8491  14360 14362 17325  15036 15038 15041  10055 10057 11828  7906 7908 11826  19260 19262 19276  13860 13861 21897  13142 13144 21946  19265 19267 19268  18518 18521 21855  8373 8375 9066  15015 15017 16477  10059 10061 10070  11055 11057 22699  8403 8405 9090  14364 14366 17324  13341 14064 21775  13496 13498 13501  19125 19128 21868  9533 9534 9535  16871 17561 21780  14975 15299 15810  12483 17555 17556  12329 12469 13417  15337 15339 15794  13272 13273 21866  7920 7922 7923  13500 13503 13504  15062 15063 15064  15507 15508 15509  13489 13491 13494  9393 9395 22122  13438 13589 14049  14987 14989 14992  9386 11839 13349  13480 13482 13485  13443 13445 13779  8397 8399 11833  13806 21944 21999  7916 7918 11830  8377 8379 12073  14973 14974 14975  8383 8385 9074  7932 7934 8091  8393 8395 9082  14287 14288 14289  15357 15358 15359  14413 17598 17599  14368 14370 15793  8387 8389 12399  10063 10065 11831  13363 13437 13438  7924 7926 21830  13135 14232 14233  8453 14957 21833  14489 14491 17584  15127 15445 21938  9535 9536 9537  7942 7944 8085  13401 13402 13403  11348 12074 21836  18482 20009 22271  17869 17872 17873  7952 7954 8079  13796 15645 15849  10072 10529 10597  16086 16087 16210  17644 17646 17647  7871 8095 14970  13355 13357 13359  14374 14376 15795  7962 7964 8067  13358 13361 14983  13449 13451 13588  7972 7974 7975  18471 18472 18476  10796 10915 12623  14049 14250 15791  10737 10738 10739  12338 12340 12536  7986 7988 8089  12334 12336 12468  12344 12346 12347  12352 12354 12465  9335 9337 9717  15379 15380 15381  7996 7998 8082  8006 8008 8070  8018 8020 8065  8012 8014 9136  8028 8030 8031  7928 7930 11883  13410 13412 13661  13276 13277 13278  11911 18590 22286  12358 12360 12464  7976 7978 8093  10381 10383 10503  14973 14975 16922  12326 12328 12329  13553 13792 13793  13111 13792 16119  15773 17514 17515  12541 21395 22062  8032 8034 8092  14971 14972 14973  12320 12322 12532  13349 13350 13351  1400 1407 21793  12316 12318 12472  13598 18705 22057  12364 12366 12367  17966 17968 17969  17824 17827 17828  9453 9454 9455  14380 14382 15797  10533 10535 10596  16025 21890 21962  8491 8492 8493  14303 21778 21923  15418 15421 16101  13359 13665 13817  14294 14295 14296  13351 13352 13353  10852 10853 10854  19473 19476 21887  12310 12312 12473  19528 19531 21766  9410 13364 21819  11189 11191 21844  9531 9532 9533  12305 12474 13418  14526 14529 22211  14318 15123 21925  7938 7940 11881  9341 9343 9729  8095 14972 21772  13739 14207 14208  15359 15363 15364  13860 13862 14413  10537 10539 11838  12368 12370 12463  12745 16234 18316  11860 22005 22107  19069 19071 19074  13826 14249 14416  12447 12460 13806  8480 8481 8482  11137 11300 22065  10069 19706 21982  11346 12150 21836  9455 9456 9457  9539 9540 9541  12302 12304 12305  8457 12428 21833  10751 10752 10753  15396 15399 16084  13402 13403 13404  11526 22191 22235  11196 11198 21850  14289 14290 14291  10104 10105 10106  12296 12298 12475  13272 19818 21866  11523 13856 21845  9351 9353 9655  14386 14388 17309  10541 10543 10546  15380 15382 18647  15351 15353 18566  16750 19680 22027  10621 11968 14626  9357 9359 9699  11344 12150 21834  14312 14315 17274  15364 15366 18458  15347 15349 18790  10720 10721 10722  15457 17620 21860  14677 20038 22070  14662 20029 22073  14662 20037 22071  10506 20255 22070  14677 21159 22070  11557 20038 22072  13210 14677 22071  13212 14662 22071  10431 11557 22072  10433 10506 22072  13214 14662 22073  9410 11842 13364  13806 13826 21895  15355 15357 16041  12374 12376 12462  19093 19096 19800  10717 10868 13453  10069 13401 13402  12238 12239 12240  11342 11394 21834  7948 7950 11879  18470 18791 22024  13278 13279 13280  15384 15387 16075  15368 15374 16065  9363 9365 9718  14390 14392 15799  15293 15772 15773  11196 11807 21850  10718 10719 10720  10545 10548 11840  9758 18545 22242  14293 14294 14295  11268 11269 11972  8497 8498 8499  13842 13845 14282  9387 9390 21776  8971 8973 11856  9583 21938 22099  13899 15852 21838  15403 15405 16090  10391 11848 21978  9457 9458 9459  14336 14338 21862  9373 9375 9614  12241 21818 21995  14554 14555 14556  15364 15365 15366  7872 8095 21772  13388 13391 21952  12288 12290 12291  15381 15382 15383  13812 13814 14187  13345 13902 21865  14187 16127 16858  12291 12476 13434  13456 13458 16068  17299 17302 22079  14291 14292 14293  13364 13365 13366  12331 21732 21892  13504 13505 13818  9379 9381 9758  11332 11334 21858  14970 14971 15685  13372 13746 13747  17805 17806 17809  12052 12053 12054  19051 19054 19798  11485 11487 11488  11972 13413 13414  13127 14962 21912  12293 21725 21893  13414 13415 13812  14233 16478 16479  19818 19820 19821  12282 12284 12528  7923 7924 8094  9383 9386 11839  16029 21729 22189  14961 16086 16087  10817 10819 21827  9112 19498 22296  12278 12280 12479  17622 17624 17627  12123 14950 21928  15897 17339 18967  14011 15001 16244  9634 22001 22142  13340 13341 21775  10722 10723 10724  12380 12382 12461  13438 13439 13589  9392 9394 9691  14077 14244 21755  14396 14398 17279  16479 16559 16560  19820 19821 19822  11949 21894 22102  13366 13367 13368  17629 17631 17633  8329 8331 21832  10552 10554 10557  17282 17283 17284  15383 15384 15386  14250 14258 16089  9935 9937 21854  14313 15113 21936  12347 12348 12466  9537 9538 9539  14607 14609 21950  13747 14118 15672  15904 18767 22076  15628 15641 16496  13355 13356 13357  7958 7960 11876  11383 11384 11385  13368 13369 13371  12135 12492 13032  15366 15367 15368  8482 8483 8484  9398 9400 9704  18558 18982 18983  11069 21905 21969  12436 19089 21956  16258 16531 17027  13343 14064 21865  13377 13378 13379  13470 13472 13638  12329 12330 12469  11328 11330 21861  14979 14981 14982  14296 14297 14300  14982 15255 15784  12493 12495 19911  12272 12274 12482  13654 16620 16621  14309 15104 21937  13142 21754 21946  9570 9615 18776  1666 7667 21795  2310 7486 21801  2156 7344 21786  2961 7342 21788  1981 7342 21803  1533 7483 21802  2870 7660 21789  2751 7666 21786  1519 7647 21783  1456 7357 21805  1750 7351 21792  1435 7493 21784  1295 7654 21785  2898 7492 21789  1288 7491 21785  1442 7652 21784  1904 7348 21787  1575 7651 21800  1316 7360 21790  1512 7356 21783  1743 7657 21792  1309 7360 21804  1652 7353 21798  2968 7653 21803  2716 7340 21807  1771 7658 21796  1582 7482 21800  1645 7650 21798  1778 7485 21796  1918 7664 21797  2954 7646 21788  2863 7666 21799  1323 7665 21790  1449 7652 21805  2345 7487 21799  1925 7484 21797  2779 7655 21807  1526 7647 21802  1911 7664 21787  1302 7654 21804  2667 7646 21801  1659 7353 21795  15202 15203 15204  13818 14977 16169  15368 15373 15374  15918 20078 21959  16030 16031 21924  9424 9690 13406  9424 13406 21828  13352 13354 13355  14295 14296 14297  8095 14970 14971  14400 14402 15803  9541 9542 9543  12939 21933 22150  15013 19330 22173  12045 12046 12047  11485 11486 19748  13426 13429 13430  15854 16058 22228  14953 17379 17380  8499 8500 8502  9404 9406 9723  13510 13512 16076  18996 18998 19773  10556 10559 11844  16023 16025 21962  11205 11265 21977  10336 19660 21722  18593 21889 22183  13063 13892 21746  9411 9414 21819  13372 13373 13746  8816 9757 21963  17545 17546 17547  12131 12133 13859  8094 14978 14979  11972 21757 21894  10333 10505 19811  13900 15044 21838  15064 15065 15083  8751 8753 8850  10745 10746 10747  11383 11385 12654  9408 9410 11842  9691 21971 22133  11191 11195 21844  14346 14348 21877  13899 13900 21838  12438 19047 21961  13093 13094 13095  19443 20002 21998  12127 12129 12518  12305 12306 12474  13430 13431 13432  14011 15000 15001  8495 8496 8497  14443 14444 14445  9941 9960 21857  12054 12055 12056  18167 18168 18169  12447 12448 21944  13369 13370 13372  10211 11446 21867  14301 15003 21923  13032 14257 14993  13273 13276 21866  13615 13616 13905  9449 9450 21883  13876 16115 16116  14986 14988 22149  13269 13271 21852  12228 12229 12230  15445 17494 21938  13406 14007 14601  18307 18308 18309  14244 17446 21755  13589 14049 14250  9459 9460 9461  11069 11070 21969  13861 14321 21897  8331 12443 21832  13091 13092 13093  8484 8485 8486  13375 13377 13378  10125 10126 10127  18125 18126 18128  12469 13417 17800  9574 9597 9598  9596 12433 15887  11313 21921 21991  15083 15084 15085  15190 15235 15236  12386 12447 12460  13357 13359 13665  14249 14449 15770  9416 9418 9680  13282 13284 13850  13060 13063 21746  16087 16210 16650  10385 10387 11845  12499 12500 13841  11839 13349 13350  14556 14557 14558  14295 21823 21932  9312 9314 21856  13387 14252 14965  7968 7970 11874  13665 13817 15628  12291 12292 12476  15863 17460 17462  13856 14273 21845  14007 14008 16046  13381 13383 14087  12821 12822 12823  12819 12820 12821  12817 12818 12819  12815 12816 12817  12813 12814 12815  12811 12812 12813  9564 14579 19226  12809 12810 12811  13350 13351 13352  12807 12808 12809  12264 12266 12267  10831 10832 10833  14963 16474 21942  11523 19835 21845  12799 12800 12801  18927 18929 21874  14297 14300 14301  12231 19854 21948  12797 12798 12799  12805 12806 12807  8745 8747 9133  13387 13388 21952  12795 12796 12797  14581 15172 18328  8493 8494 8495  13820 14964 21944  10017 10019 21982  12258 12260 12484  15374 15375 15376  11198 11257 21850  12440 18991 21974  15386 15387 15388  11830 21919 22094  12793 12794 12795  18533 19979 22067  16155 16157 21885  13269 13674 21852  13887 14467 18586  14406 14408 17278  9425 9429 21828  14693 14695 17642  14300 14301 14302  13474 13476 13633  18924 18925 21843  13487 13511 16069  9463 9464 9465  16611 17316 17317  12791 12792 12793  13826 13827 14249  9422 9424 9690  14965 16610 16611  10563 10565 10568  8486 8487 8488  15501 15503 22074  13094 13095 21851  12474 13418 17638  10743 21829 22160  14412 17275 17276  9465 9466 9467  12121 12123 13030  19818 19821 21866  8502 8503 8504  14601 16049 18174  8512 8513 8514  9543 9544 9545  13281 13282 13283  8442 8444 21876  9461 9462 9463  12789 12790 12791  11390 12412 13680  12770 12771 12772  13032 13828 14257  12746 15292 15293  17983 17984 17987  13385 13387 14252  13746 15533 21812  13373 13746 21812  12047 12048 12049  11842 13364 13365  8514 8515 8516  11334 12204 21858  13820 14263 14964  8447 8449 21880  13271 13274 21852  10331 10333 19811  10420 10421 10422  10419 10421 10499  9935 12751 21854  13703 13704 18718  13432 13547 15151  14301 14302 14303  10850 11911 22286  14609 15347 21950  18114 18117 18129  13851 14320 15242  13746 13747 14118  13257 13259 13613  14326 15785 21848  14547 15004 15005  17496 17498 17501  12787 12788 12789  11195 13346 21844  12267 12483 13435  15376 15379 15380  13365 13366 13367  15415 15417 15420  14410 14412 17275  14190 15106 16265  10017 10069 21982  14118 15672 16536  12460 13806 13826  16023 21962 21996  12340 12342 21908  13253 13255 13791  10387 10388 21978  11332 12223 21858  15001 16244 16642  13478 16066 22058  14302 14303 14304  13391 13393 13731  11385 11386 11387  13877 15004 21957  9314 9664 21856  18665 18667 18668  10677 19728 19729  13911 19506 22161  13343 13345 21865  3101 3311 7331  4109 4116 7504  4088 4102 7671  3829 3850 7674  3871 3878 7334  3927 3948 7676  3808 3815 7505  3675 3682 7338  3955 3976 7333  3262 3528 7506  3766 3780 7336  4053 4060 7332  3598 3605 7337  3542 3549 7503  3640 3801 7670  3892 3920 7508  3696 3703 7668  4025 4046 7672  3612 3619 7675  3724 3731 7510  3997 4011 7509  3626 3633 7507  3689 3962 7330  3514 3535 7673  3486 3507 7335  4102 4109 21899  3703 3724 21898  3682 3696 21900  4046 4053 21903  3619 3626 21901  3815 3829 21904  4060 4088 21902  13367 13368 13369  11269 11271 21894  14303 14304 14305  13378 13379 14011  15430 15431 15432  15429 15431 15552  13860 14413 21897  11213 11215 22172  9937 9942 21854  13428 13548 14095  10567 10570 11847  15224 15247 15811  15246 15247 15248  17520 17522 22243  12430 12431 13615  12476 13434 17588  7874 7876 21888  11250 11253 21906  7866 7868 21875  12252 12254 12527  11153 11499 19842  4130 7535 22193  17868 17872 22460  14370 14372 21914  12056 12057 12058  12785 12786 12787  11330 12223 21861  9432 9434 22155  19262 19265 21913  10843 10844 10845  11493 18711 19663  8094 14981 21830  9431 9433 9634  8492 8494 11851  11328 11985 21861  10621 14626 22037  15023 15036 21911  14983 21920 22101  7924 8094 21830  15861 15862 15863  9321 9323 21896  13010 15077 22005  9690 13406 14007  8375 8377 21917  19532 19535 21976  9467 9468 9469  8371 8373 21916  17503 17505 17507  17521 17524 17532  11149 11256 21808  12248 12250 12486  10724 10725 10726  13144 13607 21946  14317 14319 17310  13826 14416 21895  13133 13135 21915  13425 13427 13428  8423 8425 21909  15380 15381 15382  8449 9202 21880  14293 15066 21932  12041 12043 12979  13241 13243 14075  18800 18803 18804  14200 14201 18489  12035 12939 21933  9435 9437 11846  13397 13399 14205  11949 18968 22167  16283 16284 16702  17414 17415 17416  9960 10016 21857  18685 18686 19949  12267 12268 12483  12803 12804 12805  9871 9873 22007  13498 13500 21918  18827 18828 18830  19443 19445 21998  14967 16660 18718  15002 22131 22188  16610 16611 17316  13249 13251 13810  13863 14549 19861  16750 16765 22027  14252 14965 16610  8385 8387 21922  7918 7920 21919  13403 17583 21873  13454 13455 13875  14978 21919 22094  11552 19991 19993  15005 15006 15007  18620 18622 18630  18743 18745 22409  9312 19740 21856  12490 14473 17192  14372 14374 21927  12783 12784 12785  9439 9441 9728  11845 14956 15801  13905 16258 16531  14291 15066 21939  18616 18617 21988  13516 13517 13518  14289 14625 21939  17289 17290 17291  15388 15389 15391  13361 13363 21920  14321 17338 21897  14260 15767 17230  15152 15171 22034  11845 15801 17257  8496 8498 8501  8444 12202 21876  12061 12176 12430  17345 17347 17348  8447 12202 21880  12342 12344 21929  12336 12338 21930  19067 19802 22085  11447 15861 22125  12206 13913 22170  18351 18353 18358  8488 8489 8490  8442 9190 21876  13030 14950 14951  12049 12050 12051  11526 18790 22191  12746 15293 21989  14336 17273 21862  11387 11389 12720  21757 21894 22102  17416 17417 17418  9890 9956 19518  9519 9521 9522  16166 20055 20056  15085 15086 15098  15382 15383 15384  14257 14993 15771  11187 11814 22063  17515 17517 17531  13245 13247 14026  12490 17192 22026  12720 12721 14116  12318 12320 21934  16023 16024 21996  13447 13449 21931  10826 10827 10828  4760 7582 22514  14304 14305 14306  14252 16612 21981  16777 16779 22171  12057 12059 12068  18301 18302 18303  7874 21772 21888  8761 8763 8854  15384 15386 15387  13817 14961 21940  12242 12244 12488  17471 17474 22344  9549 9550 9551  20028 20253 22000  11149 11151 21808  11387 11388 11389  11324 11326 21990  13428 14095 14998  13464 13465 13732  12781 12782 12783  15007 15031 15032  9449 9724 13420  13013 20091 22145  14305 14306 14307  8508 14946 21881  8762 8811 18550  16042 21830 21997  11269 11972 21894  13404 13862 21873  8043 8044 8045  18929 18955 21874  8301 8303 18548  8506 8507 8508  13403 13404 21873  11839 19856 21951  14445 14446 14447  14966 14968 21993  7926 7928 21997  18927 21843 21874  9469 9470 9471  9443 9445 11849  15300 19736 22020  10340 10342 21713  14388 14390 21941  12114 12116 13031  15391 15392 15393  10574 10576 10579  10387 14956 21978  14346 17308 21877  16157 16537 21885  11326 11985 21990  13391 13731 21952  18552 18553 22136  10012 21302 22136  8757 8759 11843  14233 16480 21915  7868 7871 21875  10817 12519 21827  13875 13876 22003  13420 13421 13422  1407 7358 21793  13454 13875 13877  10395 10397 10485  16052 22097 22157  13280 13281 13282  14049 21920 22101  11842 14984 21966  19089 19093 21956  13913 14997 22170  10391 10393 11848  8490 8491 8492  14447 14448 17207  10868 13453 13454  9870 9872 18606  12483 13435 17555  7866 11837 21875  12102 12104 13024  11268 13413 21906  11417 11418 11419  17427 17436 17437  10408 10410 22103  13146 19761 22188  15874 17666 18543  10190 11968 22136  9447 9449 9724  13535 14093 14541  14474 16066 16067  15478 17590 17993  13371 13375 21955  12047 12049 12999  14998 15613 15777  16265 16266 16700  18333 18334 18335  19954 21971 22133  10829 10830 10831  8504 8505 8506  7876 11819 21888  9321 19774 21896  9758 21951 22148  13426 13430 13433  12236 12238 12239  13851 14267 14320  8726 8728 22213  15077 15078 15079  10016 13401 21857  11860 13010 22005  13903 15044 22031  14320 15800 17484  12447 13806 21944  8425 9160 21909  16048 22001 22142  13703 14966 14967  12051 12052 12053  13665 15641 21965  8975 8977 9064  13812 13813 21953  12280 12282 21947  18263 22393 22408  13339 13342 21945  19681 22121 22195  9471 9472 9473  14549 17385 19861  14187 16859 21953  13358 14983 21965  18483 22339 22356  8423 12478 21909  9450 9453 21883  9323 9689 21896  15387 15388 15389  18354 18356 18357  13378 15000 21955  12051 12053 12393  13367 13370 21964  17172 17174 17175  8131 18665 18667  19047 19051 21961  11271 11949 21894  14095 14998 15613  13365 14984 21964  13357 13358 21965  9381 9383 21951  14697 14699 15842  10819 11397 21827  13422 13423 13424  7982 7984 11868  15032 15033 15034  12779 12780 12781  15347 18790 21950  12033 12035 21933  15236 15237 15238  13284 13850 13851  20444 21020 22143  13379 13381 21926  13280 13849 21987  15098 15099 15100  9724 13420 13421  15023 16516 21911  13605 13607 13608  7560 18381 18383  11253 11268 21906  7561 18386 18388  15036 15041 21911  13133 13452 21915  14293 14295 21932  10019 10021 22030  14491 14493 21879  13462 13463 13464  18804 18805 18807  15393 15394 15395  19262 19276 21913  19265 19268 21913  9449 13420 21883  14307 14308 14309  8371 12603 21916  10749 10750 10751  9547 9548 9549  10587 10716 10717  8375 9066 21917  12053 12054 12055  8373 9066 21916  17284 17285 17286  13504 14977 21918  9473 9474 9475  11814 22063 22138  10021 10598 22030  10621 10622 22037  13421 13422 13423  15801 17257 17455  13680 13681 14253  16032 22276 22306  14309 14310 14311  7923 14978 21919  15503 17356 22074  9664 13339 21945  10010 10677 19728  10716 10717 10718  8377 12073 21917  9690 14008 21972  16132 16134 22197  13135 14233 21915  13817 15628 21940  9551 9552 9553  14370 15793 21914  10399 10401 11852  12515 13863 13867  13513 13515 13516  13424 13425 13426  17401 17402 17404  8385 9074 21922  14289 14291 21939  12340 12536 21908  8387 12399 21922  13498 13501 21918  8992 8993 8994  15577 15578 16585  13423 13424 13425  7920 7923 21919  14306 14307 14308  14301 14303 21923  15389 15391 15392  13500 13504 21918  12133 12135 21954  9420 9422 21972  12058 12059 12060  7918 11830 21919  16055 22453 22466  15395 15396 15398  15897 21859 22113  14398 14400 21958  13432 15151 15152  11132 11138 20035  11528 21881 22091  11300 21993 22065  11486 14628 19748  9455 9457 9685  13877 14546 14547  8983 8984 8985  14960 21968 22089  18252 18253 18254  12206 12988 13913  14374 15795 21927  14888 21588 22032  12384 12386 21970  7871 14970 21875  12347 13416 21929  15024 22272 22312  9724 14994 22021  16576 16577 17434  21724 21844 22063  13361 14983 21920  9734 18789 22135  12117 12119 22302  14208 14209 15577  16058 22228 22273  13363 13438 21920  13423 13427 21983  9545 9546 9547  13438 14049 21920  15635 16078 16171  18991 18996 21974  12344 12347 21929  16052 21970 22097  12336 12468 21930  12338 12536 21930  13680 14253 14996  13875 13877 14546  15398 15399 15400  16100 18565 22852  19954 21776 21971  7926 21830 21997  13010 14254 15077  11389 12720 12721  9527 9529 9530  10647 18463 18464  9390 9392 21971  9406 9408 21966  12232 12234 12524  8042 8043 8044  19858 21906 22087  12055 12056 12057  8773 8775 8856  20092 21782 22145  12431 13616 13653  11147 11256 21744  15151 15152 15168  13449 13588 21931  13421 14994 21983  12318 12472 21934  10405 10407 10488  12320 12532 21934  12431 13615 13616  14311 14312 14313  14546 14547 15809  15503 15505 17356  7928 11883 21997  8490 9134 21992  16765 18158 22027  15748 16283 16692  11151 11499 21808  13387 14965 21952  15152 15168 15169  14308 14309 14310  14283 17251 17564  15025 19311 22261  12176 12431 21994  18814 18815 18816  15392 15393 15394  8767 8769 9137  19445 19448 21998  14961 16087 21940  12460 13827 21970  15310 15312 22224  10726 10727 10728  15913 15914 22040  15168 15169 15170  13352 13353 21968  14011 16244 21926  15169 15170 15748  11738 22159 22350  14888 22032 22062  14388 17309 21941  12057 12058 12059  12108 12110 13033  15772 15773 17514  9886 11495 19665  11322 12413 22059  15170 15748 16283  19067 19069 22085  14390 15799 21941  11189 21844 22063  13355 13359 21968  13812 14187 21953  11239 19583 22440  9664 21856 21945  15079 15080 15116  12777 12778 12779  11350 11352 22130  14546 17569 22003  10644 22309 22331  13379 14011 21926  9942 22096 22162  15863 17463 22090  12721 14116 14117  14996 16708 16709  12239 12240 12746  13459 13461 13462  10019 21982 22030  10131 10132 10133  10411 10413 10490  19858 22087 22149  11809 13039 22291  8492 8493 8494  15422 15424 15425  8779 8781 9140  10717 10718 10868  9475 9476 9479  13284 13285 22014  14467 14468 15844  18931 18955 22066  9461 9463 9698  14372 21914 21927  10076 17681 17879  19931 20029 22073  9381 9758 21951  18532 18533 22067  12342 21908 21929  18786 18787 22217  18686 18689 19949  18933 18954 22066  11947 12206 22170  15394 15395 15396  14493 15851 21879  14313 14315 14316  9874 9876 19610  9383 11839 21951  19681 22023 22121  13806 21895 21999  19093 19800 21956  10730 10731 10732  14119 16627 16628  12154 12228 12229  15396 15398 15399  15897 18967 22113  9939 9942 22096  14888 21395 22062  13030 14951 14953  15034 15062 15063  10106 10107 10108  12891 19853 22234  10089 10091 12504  14310 14311 14312  13216 19979 22177  11829 18263 22393  17286 17287 17288  10342 11810 21713  16084 22269 22668  13375 13378 21955  15887 19001 22060  11255 18483 22339  13804 18558 18982  15292 15293 15772  12176 12430 12431  17620 17622 22038  13220 13912 22177  13216 13217 22177  11439 11441 12491  10753 10754 10755  13369 13371 21975  13844 15200 15201  13876 16116 22003  10732 10733 10734  12282 12528 21947  12280 12479 21947  11251 19562 22231  14624 18059 22241  12537 18330 18331  11322 11324 22059  11137 11139 22065  11946 12205 22064  12239 12746 15011  13357 13665 21965  11447 15860 15861  14398 17279 21958  8496 8497 8498  12800 12801 21853  10408 10479 22103  13282 13283 13284  9414 9416 21985  19051 19798 21961  13383 13385 21981  13381 14087 21926  10720 10722 11858  14111 14112 14189  13276 13278 22009  9392 9691 21971  19805 21845 22131  18331 18332 18333  8793 8795 8848  13372 13747 21975  8494 8495 8496  14400 15803 21958  14253 14996 16708  11145 11147 21744  14485 14487 17634  10383 10385 21979  18931 18933 22066  14316 14317 14318  18199 18201 18202  11187 11189 22063  12060 12061 12175  13352 13355 21968  15400 15401 15402  14951 14953 15780  13365 13367 21964  10728 10729 10730  10336 10338 21722  11301 19611 22478  20255 21159 22070  13210 13212 22071  10431 10433 22072  12871 12872 12873  13214 13216 22073  13653 13654 15687  9406 9723 21966  13903 15254 22031  9479 9480 9518  15100 15101 15102  10755 10756 10757  9390 21776 21971  9408 11842 21966  12203 14966 22065  15007 15032 17255  8498 8499 8500  17595 22559 22748  14408 14410 21984  8760 8811 22187  15399 15400 15401  16047 21819 21985  19500 19503 22208  7992 7994 11834  10837 10838 10839  15501 17354 22074  9522 9523 9524  9465 9467 11853  16057 22489 22505  10790 10792 12434  12433 15889 22432  8507 8509 8510  11217 11219 22239  1274 1281 22109  15106 16266 22068  13472 13474 21973  9422 9690 21972  10340 10473 21713  14413 21897 22077  11248 11251 22087  12386 12460 21970  10644 18566 22309  8042 8044 8087  17404 17405 17406  12135 13032 21954  17622 17627 22038  7880 8090 22108  8500 8503 11855  8787 8789 9139  15105 15106 22587  7878 11819 22108  13863 13867 19861  14312 14313 14315  15509 15510 15511  18617 18620 21988  12118 12121 22078  15687 16620 16800  17620 21860 22038  13369 13372 21975  13519 13521 13522  14948 16223 16224  16044 21857 22096  10383 10503 21979  8492 11851 21992  10346 10349 22144  13522 13523 13524  11324 21990 22059  12133 13859 21954  14491 17584 21879  14318 14319 14545  13371 21955 21975  12775 12776 12777  15672 22186 22253  17408 17409 17410  13887 13889 14467  19856 21951 22148  12229 12230 12490  12205 13809 22064  18996 19773 21974  10719 12442 22106  9518 9519 22035  9454 21824 22076  14319 17310 17448  8069 18784 18785  13616 13653 13654  11435 11437 12749  18195 18197 18209  8509 8511 8512  13851 15242 22014  12059 12060 12061  9941 21857 22096  13524 13525 13526  9934 9936 22235  13032 14993 21954  14563 14564 14565  10205 11450 17992  17425 17426 17427  9138 11481 13486  9429 9431 22001  14253 22095 22158  13681 13739 22095  15011 15292 17512  13383 14087 21981  13456 16068 22035  17338 21897 22077  17948 17950 17951  9010 9011 9012  9416 9680 21985  9469 9471 9679  10784 10786 11966  13706 14119 16627  13875 14546 22003  10755 12454 22176  13654 15687 16620  13597 13598 14111  14953 15780 17379  11248 11250 22087  15034 15063 17256  14473 17192 17193  13282 13850 21987  13385 14252 21981  17379 17380 17381  9414 21819 21985  15402 15403 15404  10717 13453 22023  9553 9554 9555  9940 19721 22086  9272 9684 18459  9524 9525 9526  8510 8511 8541  11483 11485 11487  17571 18586 22349  11389 11390 22033  14408 17278 21984  12240 12242 21989  12061 12175 12176  11250 21906 22087  13053 13056 22129  12229 12490 13478  18188 18190 21820  14315 14316 14317  19559 19560 22118  12095 12097 13878  15055 18660 22323  10761 10762 10763  8500 8502 8503  15401 15402 15403  9939 9941 22096  16711 16712 22105  11489 11490 11491  9898 11023 22269  11456 22640 22676  14410 17275 21984  10385 11845 21979  13845 14282 14283  12348 12466 22126  12504 22803 22835  13353 16083 22089  8985 8986 8987  16048 21828 22001  12746 15011 15292  18625 18626 22192  12382 12461 22097  11209 12397 22112  12897 12899 12900  17406 17407 17408  11390 13680 22033  7802 7804 22015  10113 10115 10116  15849 15850 17643  19729 19730 22190  12382 12384 22097  15063 15064 15065  10401 10403 22016  11554 20099 22212  14275 15002 22131  13680 14996 22033  15293 15773 22061  13421 13423 21983  18464 18465 18466  13276 21866 22009  13905 16531 22041  9305 21859 22113  13526 13527 13528  14470 15829 17565  12113 12207 22128  19805 22131 22188  13399 13551 22004  7878 7880 22108  11385 12654 22018  10578 10587 22023  10724 10726 10804  19534 19535 22420  10771 22542 22571  7790 7792 22075  12667 17905 23620  15404 15405 15406  11487 11488 11489  14317 14318 14319  17291 17292 17293  10023 10598 22141  10344 11810 22144  13353 21968 22089  13654 16621 22041  15403 15404 15405  9431 9634 22001  19821 21866 22009  10393 10395 22012  14413 17599 22077  13053 13055 22129  17371 23044 23050  10734 10735 10736  15854 22154 22228  13739 14208 22095  17418 17421 22437  10110 10111 10112  10108 10109 10110  9429 21828 22001  15102 15103 15131  17828 17829 17831  18466 18467 18468  12800 15198 21853  10025 11817 22141  11139 12203 22065  9183 9186 22250  17108 17109 24152  17696 17701 22324  11845 17257 21979  12234 12236 22006  15004 15006 22238  10397 10399 22022  13616 13905 22041  10747 10748 10749  10852 10865 22286  15065 15083 15084  8023 8025 11512  8769 8771 22010  8781 8782 19659  13472 13638 21973  13478 14473 14474  10202 10204 20039  10845 10846 10847  17494 17496 22099  13061 16522 22129  21724 22063 22138  13094 13743 21851  16042 16043 22098  8987 8988 8989  10111 10114 22137  8029 8158 13104  11303 19664 22520  13399 14205 22004  14208 15577 16508  18743 19338 22409  12431 13653 21994  16234 17927 18316  10148 10149 10150  17494 21938 22099  11320 12413 22147  17594 17612 22685  9473 9475 11857  13474 13633 21973  17466 17468 17482  13645 13874 14162  13644 13874 15076  14953 17380 22078  19069 19074 22085  11318 12427 22147  17496 17501 22099  9445 9447 22021  8551 19974 22442  4102 7671 21899  3696 7668 21900  4053 7332 21903  3815 7505 21904  4109 7504 21899  3703 7668 21898  3626 7507 21901  4060 7332 21902  3724 7510 21898  3619 7675 21901  3682 7338 21900  4046 7672 21903  4088 7671 21902  3829 7674 21904  11861 22459 22483  17525 17527 22311  10417 11870 22518  10129 10130 10131  18935 18954 22146  14487 14489 21949  14273 21845 22131  9526 9527 22100  17384 17387 22214  8733 8735 21871  10338 10473 21722  14978 14980 22094  11431 11433 11459  13681 14253 22095  9101 18763 18764  14474 16067 17509  12240 12746 21989  18937 18953 22146  12500 13841 13842  15314 15316 22289  13425 13428 22008  12764 12766 13625  15866 17834 18434  18620 18630 21988  15405 15406 15407  10677 19729 19730  1281 7491 22109  13519 13522 21841  13528 13529 13530  13800 17606 22558  13280 13282 21987  12121 13030 22078  15131 15132 15133  12384 21970 22097  10417 10419 22518  11387 12720 22018  11497 13087 21889  13426 13433 22008  12490 13478 14473  11425 11427 12501  15406 15407 15408  13425 13426 22008  9734 13456 13457  8759 8761 22013  13915 21782 22145  8490 8492 21992  14966 21993 22065  10808 10811 21726  12773 12774 12775  12768 12769 12770  9479 9518 9734  16136 16138 22282  8496 8501 22092  9518 9734 13456  8523 8524 8601  13433 22008 22164  9393 9582 22122  13428 14998 22008  15116 15117 15118  15198 18180 21853  14596 14597 15866  14049 15791 22101  10648 19403 22647  12230 12232 22026  10713 17861 22458  19625 19627 19628  16574 16576 16577  13457 13458 13459  10478 15008 15009  9680 21985 22189  8511 8541 22184  15084 15085 15086  13462 13464 13466  14256 17199 17686  13747 15672 22186  15507 15509 17359  12649 14104 21058  17769 17770 17771  14489 17584 21949  2009 2079 7544  1974 2002 7549  2296 2359 7539  2394 2688 7545  2317 2408 7540  2023 2044 7543  2331 2625 7548  2198 2219 7541  2436 2485 7538  2569 2835 7546  2205 2268 7547  2499 2520 7537  2590 2632 7536  2128 2170 7542  11385 11387 22018  9519 9522 22035  15842 17537 17597  19351 21864 22287  15304 18492 22127  16128 21757 22102  18362 18363 18364  8551 21758 22472  15408 15409 15410  9445 11849 22021  16044 22096 22162  8494 11851 22092  8503 8504 8505  13518 16072 21841  9530 9531 9532  8735 13904 21871  16063 22532 22539  18904 18906 18907  15065 15084 15814  10127 10128 10129  14479 14483 17676  10868 21957 22019  14789 14791 17640  9566 13871 18966  10718 10720 22019  12503 21212 23732  20419 21721 22250  8509 8512 21881  12242 12488 21989  19991 19992 19993  11524 22605 22621  13456 13457 13458  10587 10717 22023  15407 15408 15409  11275 11882 22167  11273 11949 22167  9447 9724 22021  14622 14624 22241  13284 13851 22014  14998 22008 22164  17293 17294 17295  10115 11809 22152  12840 13882 13883  13530 13554 13555  16062 22389 22431  10728 10730 11861  13841 14260 21986  7882 8090 22178  10395 10485 22012  8508 8509 21881  18190 18193 21820  15409 15410 15412  12348 12350 22126  17295 17296 17297  12176 21994 22080  10576 10578 22121  18251 18253 18256  8513 8515 11859  13430 13432 22034  8050 8051 8052  17384 18766 22214  13546 14459 17492  10397 10485 22022  13229 13804 21774  14541 14542 15026  14946 14948 22091  10344 10346 22144  11733 11735 22028  10393 11848 22012  8507 8508 8509  13515 13516 13517  13644 15076 22303  13430 13433 22034  8498 8501 22082  9183 9185 22250  8080 18447 18448  10804 22326 22384  13152 21266 22265  12141 12154 22058  13880 15764 16060  11389 12721 22033  10133 10134 10135  13015 13915 22145  10093 10095 11026  9532 9533 9534  12061 12430 22069  9399 9401 22297  11491 12499 12500  10718 10868 22019  18394 18395 18396  8505 8506 8507  12175 13706 22080  7796 7798 22119  13841 13842 21986  11421 11423 12752  20848 22667 22791  18622 18630 22134  15133 15159 22011  8761 8854 22013  13511 16069 22110  12230 12490 22026  15086 15098 15099  10576 10579 22121  12059 12068 22069  14625 22397 22421  19314 19315 22336  18553 21302 22136  10399 11852 22022  18622 18625 22134  9534 9535 9536  16061 17281 22419  17858 17859 22150  13458 13459 13460  10791 11990 22905  9680 18965 22283  21737 22348 22397  8731 12515 22213  10401 11852 22016  18267 22430 22445  12049 12999 22056  8511 8512 8513  8813 19237 22275  13487 16069 22100  9099 20009 22271  8707 9099 22271  15410 15412 15413  12236 12239 22006  11350 12074 22130  16211 22529 22567  8799 8800 8801  8798 8800 18079  19362 19367 22327  13432 15152 22034  12051 12393 22056  13419 15616 16080  8513 8514 8515  18412 18413 18414  9453 9455 22120  18388 18389 18390  9876 10594 19610  7804 8069 22015  17343 17345 17347  12838 21882 22210  14976 19954 22133  12049 12051 22056  17476 17478 22404  10190 10621 11968  12743 13847 13880  8759 11843 22013  7554 18402 18405  18480 18482 22267  18577 18579 22349  8002 8004 11835  10023 10025 22141  17288 17289 17290  8303 11469 18548  10762 10763 10764  14273 14275 22131  15412 15413 15414  13131 13452 22196  9524 9526 9714  15133 15134 15159  13095 13507 13508  13129 14962 22196  13318 21720 22170  14997 21720 22170  8796 8798 22783  16041 19344 22378  8771 8773 22039  13517 13518 13519  13616 13654 22041  12352 12465 22194  13911 21912 22161  9455 9685 22120  7886 11821 22201  16577 17434 21980  16047 21985 22189  13913 13914 14596  14985 21724 22138  15014 15016 22306  10655 22769 22893  15351 18566 22191  10830 10832 11865  12470 21020 22143  10732 10734 10771  13510 13511 13512  15349 18790 22191  14529 17649 22211  10601 11445 22204  12234 12524 22006  9536 9537 9538  14260 17230 21986  9526 9714 13487  9714 13487 13510  11489 11491 11866  13487 13510 13511  15223 16123 22512  20091 20092 22145  9453 21883 22120  13531 13543 15088  16508 22095 22158  13743 15663 21851  11407 11409 13029  11316 12427 22216  8981 8983 9141  8994 8995 8996  10736 10737 10738  11314 12467 22216  10720 11858 22019  9527 9530 22100  12741 22270 22419  8782 8785 19659  13514 13515 13597  18935 18937 22146  10828 10829 10830  12175 12176 22080  9559 9561 9562  18940 18953 22215  18942 18952 22215  9538 9539 9540  10029 10068 22222  13512 13513 13514  11401 11403 13034  10027 11817 22222  20180 20419 22292  8027 8158 22255  8550 19840 22312  11318 11320 22147  14208 16508 22095  10811 12510 21726  10349 10478 15008  11738 11740 22159  9518 13456 22035  11736 12540 22350  9570 9572 18776  13597 14111 15019  16046 18267 22430  11411 11413 12523  13513 13516 22110  12244 12488 22163  9432 9583 22155  15026 15027 15028  8509 8510 8511  12232 12524 22026  13087 13091 21889  9306 9701 22273  10578 22023 22121  17624 17627 22200  19258 19260 22248  18470 18471 18472  12771 12772 12773  13508 13531 13532  16056 21883 22120  13030 14953 22078  14986 19858 22149  13105 15030 22468  9872 11471 18606  10740 10741 10742  11820 17959 22554  11138 19394 20035  7957 7959 22321  9540 9541 9542  12239 15011 22006  11415 11417 11418  10841 10842 10843  14568 14570 17962  18590 20203 22286  15413 15414 15415  12059 12061 22069  13517 13519 13520  17886 17891 22402  10215 12839 22204  15105 18705 22547  8709 8711 22267  13511 13512 13513  12244 12246 22163  19833 21945 22154  8769 9137 22010  11481 11483 22083  15414 15415 15416  13227 13229 21774  8500 11855 22082  15099 15101 17258  15099 15100 15101  17932 22508 22555  1267 1274 21791  9532 9534 9693  18405 18406 18407  15159 15160 15161  15818 15819 17377  8989 8990 8991  21758 22472 22481  19580 19856 22148  15118 15119 15153  15002 19848 22272  17959 22554 22564  19153 22449 22454  11246 11251 22231  10763 12456 22175  10759 10760 10761  15862 15863 17460  13878 14587 15826  8494 8496 22092  16048 16049 22142  13706 16627 22080  13545 14459 15128  13520 13521 14161  10742 10743 10744  13532 13543 13544  16104 22887 22892  1337 7494 22229  1330 7665 22229  12493 13011 19911  15001 16792 22253  14589 15018 15818  10738 10739 10740  15028 15029 15094  8773 8856 22039  11213 11308 22172  15013 19558 22173  11273 11275 22167  15416 15417 15418  14283 17564 17568  13513 13514 13515  9566 9567 9568  9011 11539 22168  12154 12229 22058  13093 13095 13507  16777 17723 22171  13884 15165 22182  16052 16053 22157  12530 13887 13889  14650 14652 20054  17771 17773 17778  8996 8997 8998  12900 12901 12902  8030 8033 22225  13544 13545 13546  12248 12486 22202  9542 9543 9544  11947 13318 22170  14487 17634 21949  13804 18982 21774  13555 13556 13557  18689 18693 22156  12801 12802 12803  13523 13525 14146  14946 21881 22091  13111 13553 13792  10097 10099 12742  9379 9758 22242  10349 15008 22144  10832 10833 10834  12928 12929 12931  12926 12927 12928  12924 12925 12926  12922 12923 12924  12920 12921 12922  12918 12919 12920  12916 12917 12918  12914 12915 12916  12912 12913 12914  12910 12911 12912  12908 12909 12910  13075 22556 22618  13521 13522 13523  15415 15416 15417  12906 12907 12908  12902 12903 12904  11277 11882 22256  11279 11392 22256  12904 12905 12906  8516 8517 8518  15418 15419 15421  11525 22412 22434  18193 18195 22093  10851 10852 10853  14948 16224 22091  21856 21945 22154  9930 9932 22331  16044 17583 22162  12491 22252 22337  18012 18014 18015  15000 22186 22253  8498 8500 22082  8069 18785 22015  13217 13220 22177  12082 12084 22563  12894 12895 12896  15320 15322 22343  15094 15095 15096  7882 7884 22178  8998 8999 9000  14962 21912 22161  12890 12891 12894  8025 8027 22255  13043 13045 14551  9438 9440 22334  15032 15034 22111  19475 19476 22524  8522 8523 8524  15032 17255 22111  7890 8083 22268  9555 9556 9557  14279 15024 22272  7888 11821 22268  15034 17256 22111  15860 15861 15862  8511 8513 22184  8518 8519 8520  12888 12889 12890  13518 13519 21841  13042 13046 22114  15153 15154 15155  19740 21856 22154  14108 15599 15618  13844 15201 22180  8764 8766 22288  13523 13524 13525  15417 15418 15419  14277 15002 22272  18689 19949 22156  10135 10136 10137  13061 14101 16522  9538 9540 9713  16567 16569 16572  19148 19153 22416  13842 13844 13845  13144 13605 13607  13557 13628 14132  8520 8521 8522  15429 15430 15431  8781 9140 13419  14995 19681 22195  16047 21729 22189  11338 19711 22380  15505 15507 22132  13146 19805 22188  13459 13462 22104  13867 15864 17573  14996 22033 22185  8029 8030 22225  12886 12887 12888  15505 17356 22132  13684 14203 14204  12229 13478 22058  1267 7361 21791  17629 17633 22263  17886 22176 22402  14983 21965 22174  12350 22126 22194  10757 10758 10759  15833 15834 22199  15421 15422 15423  18944 18952 22281  11418 11419 11447  8855 18479 18480  12500 13842 13844  12721 22033 22185  19730 20049 22190  12884 12885 12886  11862 22616 22646  11230 11255 22276  18823 18827 22218  12203 13703 14966  13525 13526 13527  10830 10831 10832  12802 14108 14109  15419 15421 15422  11858 22019 22238  14483 14485 22088  13519 13520 13521  17465 17894 22220  16142 16144 22346  14109 15599 15635  17767 17769 17770  17498 17501 22258  12087 20208 22169  10785 12146 22227  15101 15102 15103  14996 16709 22185  14998 15777 22164  13104 16077 22225  16132 18968 22197  10834 10835 10836  18626 18629 22192  9526 13487 22100  17612 22659 22685  9375 9614 22277  12350 12352 22194  19848 22272 22312  10839 10840 10841  17307 17312 17313  17290 17291 17292  15165 18858 22713  8771 22010 22039  14474 17509 22115  10112 10113 22107  14624 17820 18059  14473 14474 22115  9544 9545 9546  12882 12883 12884  15096 15097 15141  15053 22705 22739  16071 16072 22506  8728 8731 22213  15181 15202 15203  1330 1337 22229  15423 15424 15426  11470 22007 22340  10031 10068 22301  13129 13131 22196  10141 10142 10143  14253 16708 22158  10102 10104 11398  21957 22019 22238  10736 10738 11862  8764 18550 22288  9404 9723 22285  13844 13845 15200  15641 21965 22174  12246 12248 22202  11445 14589 15018  17544 17545 17546  11481 13486 22083  14473 17193 22115  5733 5740 7456  8766 8768 12517  15422 15423 15424  15161 15162 15163  19500 19502 22208  7884 7886 22201  8991 8992 8993  13507 13508 13531  15349 15351 22191  9418 9680 22283  22598 23075 23102  18195 18209 22093  15819 17486 17487  17410 17411 17413  12931 12932 18087  13527 13528 13529  16105 22895 22897  11423 11425 22117  19760 22385 22427  15103 15132 15823  9568 9569 9570  8781 13419 19659  12769 12770 12771  7792 8080 22075  11483 11487 22083  14794 14796 20027  15020 15022 22356  9598 18778 18779  10215 10601 22204  12116 13031 22232  13459 13460 22104  13049 13870 14999  15103 15131 15132  9471 9679 22206  9548 9549 9550  13889 14467 14468  13529 13554 14188  10116 10117 10118  19758 22270 22419  9718 22449 22454  17624 17626 22200  18825 18834 18836  9574 9596 9597  9573 9596 12433  10211 10213 21867  15819 17377 17486  14871 20099 22212  10744 10745 10746  12118 22078 22232  13529 13530 13554  12880 12881 12882  14984 19366 22207  18167 18169 18702  9546 9547 9548  14254 15077 15078  7884 22178 22201  13380 13382 22385  15063 17256 22140  12817 12819 12990  12811 12813 13022  12799 12801 12802  12805 12807 13592  12793 12795 12938  13511 13513 22110  12515 13867 15864  12787 12789 12989  19403 22621 22647  16571 16574 22226  18468 18469 18470  17387 17392 22214  9420 21972 22283  13462 13466 22104  13531 13532 13543  14983 22101 22174  15324 15326 22373  9550 9551 9552  9475 9479 22135  18827 18830 19716  12766 12767 12768  18940 18942 22215  15507 17359 22132  9400 9704 22304  7798 9101 22119  10847 10848 10849  9473 11857 22206  18199 18202 22230  9475 11857 22135  13486 22083 22084  12252 12527 22294  11314 11316 22216  19318 19319 22406  15426 15427 15428  12781 12783 13028  11281 11392 22313  12250 12486 22294  10120 10121 10122  8855 18480 22267  5103 5110 7460  7570 18823 22218  7892 8083 22316  15353 18566 22309  15355 16041 22309  15476 15478 17993  14525 14526 22211  9471 9473 22206  15000 21955 22186  14459 15128 17595  12721 14117 22185  10035 10635 22320  9009 9025 22168  12862 18258 22644  12246 22163 22202  8985 8987 11905  15018 15818 15819  15424 15426 15427  14485 17634 22088  11445 15018 22204  15310 15912 22224  10418 10420 17897  10419 10420 10421  17292 17293 17294  17297 17298 17299  10648 22647 22657  19740 22154 22228  12878 12879 12880  14691 20688 22002  12760 12762 13745  13595 18162 22221  10027 10029 22222  18786 18788 22217  9479 9734 22135  17296 17297 17298  13556 13628 15836  9685 22120 22287  18197 18209 22230  13545 13546 14459  12515 15864 22213  13543 13544 13545  15428 15429 15430  18466 18468 18469  12540 19849 22464  14583 22182 22728  17294 17295 17296  10834 10836 10862  11441 12491 22252  15836 15837 17138  14104 15830 22040  15132 15133 15134  18197 18199 22230  15224 15246 15247  18335 18336 18337  18112 18114 22318  17520 17523 22243  15764 16060 17326  17297 17299 22079  21955 21975 22186  13554 13555 13556  9544 9546 9725  18193 21820 22093  8989 8991 9033  15065 15814 22140  15862 17460 17461  9936 11526 22235  12775 12777 13601  10118 10119 10120  15042 18644 22249  11419 11421 22125  11812 21758 22481  10112 11442 11860  16866 17682 22237  13871 14620 18966  17503 17507 22308  18804 18807 19939  15008 15009 15010  11217 12651 22239  13847 13880 15764  15078 15079 15080  16066 22058 22252  15063 15065 22140  7896 11824 22329  8513 11859 22184  12116 12118 22232  16146 16148 22388  14204 16727 16728  14871 22212 22265  9140 15614 15615  11241 11246 22231  19008 19011 22556  8519 8521 8553  13703 14967 18718  9308 19740 22228  14622 19015 22241  12869 12870 12871  15163 15164 15178  15155 15156 15157  11285 11391 22332  10106 10108 12741  9552 9553 9554  8515 8516 8517  12802 12803 14108  13747 21975 22186  11735 12537 22028  15427 15428 15429  15025 19331 22261  9793 10073 22371  17380 22078 22232  10410 10412 11878  10742 10744 10772  9570 9571 9572  22052 22053 22054  12089 12091 13335  9377 9379 22242  14457 18577 22349  16569 16571 22257  10110 10112 11442  17631 17633 22330  19535 19606 22420  11228 11255 22339  11226 11829 22339  14108 14109 15599  9185 21721 22250  15599 15635 16434  15141 15142 15143  13046 14479 22114  13104 13106 16077  16033 22159 22350  9548 9550 11864  11425 12501 22117  15024 21809 22348  15031 15033 22384  12141 22058 22252  14533 14535 15858  11812 21840 22513  16166 20054 20055  14984 21966 22207  12762 13745 22116  14483 17676 22088  8080 18448 22075  8505 19806 22254  10139 10140 10141  16090 22413 22717  1274 21791 22109  16574 16577 22226  12876 12877 12878  15134 15159 15160  9723 21966 22207  10645 18458 22467  10112 11860 22107  11418 11447 15859  9101 18764 22119  9000 9001 9002  10122 10123 10124  14281 15024 22348  15178 15179 15180  13597 15019 22151  9892 9956 22413  19503 22208 22396  8551 22442 22472  11441 12141 22252  11419 11447 22125  15171 22034 22251  14552 14554 14555  11447 15859 15860  11277 11279 22256  10213 12839 21867  9308 22228 22273  16056 22120 22287  16071 22110 22391  13515 13597 22151  18469 18470 18471  13889 14468 16033  14108 15618 22198  10075 10077 20003  9467 11853 22307  11740 12530 22159  13091 13093 22183  15143 15144 15145  14529 14531 17649  11858 19972 22326  11423 12752 22117  11413 11415 22153  17873 17875 17876  14871 21266 22265  19260 19276 22248  10645 22467 22476  17626 22200 22263  9469 9679 22307  17498 17500 22258  15080 15116 15117  15035 15037 22408  7568 18800 22233  12741 17932 22508  15160 15162 17262  18801 18811 18819  12254 12527 22338  9898 9900 22269  8993 8994 8995  17846 19998 19999  18827 19716 22218  19498 19503 22296  17626 17629 22263  15145 15146 15185  7888 7890 22268  13515 13517 22151  9127 20155 23098  13556 13557 13628  8503 11855 22254  13517 13520 22151  9557 9559 9561  9522 22035 22240  9524 9714 22240  11860 12743 13010  11336 11338 22380  8707 8709 22271  13913 14596 14997  9552 9554 9702  7900 8071 22362  7898 11824 22362  15000 15001 22253  9562 9566 9567  19972 22326 22384  8711 8855 22267  13433 22034 22251  14435 14437 15774  14535 15833 22209  14445 14447 14463  10836 10837 10838  10832 11865 22205  10037 10635 22368  18010 18012 18014  9522 9524 22240  9112 22296 22428  8503 8505 22254  15330 15332 22426  11442 11860 12743  8517 22025 22622  11442 19758 22270  9367 9368 22399  14427 17749 22946  16150 16152 22423  18333 18335 18336  16066 22252 22337  14479 17676 22114  17844 17845 17846  14695 17642 22124  12537 18331 22028  17487 17488 17489  16136 18484 22282  12258 12484 22353  13535 14541 22291  11456 17692 22640  12767 12768 12769  17486 17487 17488  10722 11858 22326  9306 9308 22273  13010 13847 14254  3122 3136 7533  2996 4130 7535  3556 3752 7523  3052 3066 7534  3059 3745 7522  3521 3836 7528  3227 4067 7526  2982 3038 7530  3115 3178 7532  3332 3458 7527  3374 3465 7525  3003 3073 7529  3087 3129 7531  3654 3843 7524  11289 11827 22369  11287 11391 22369  11241 22231 22276  13015 13906 13915  11427 11429 22298  11421 12752 22125  11427 12501 22298  14254 15078 17182  8029 13104 22225  18944 18950 22281  12769 12771 13647  15071 19163 22449  10410 11878 22103  18416 18417 22081  11230 11241 22276  18081 18083 22284  10412 10413 10414  9398 9704 22367  21972 22283 22394  9375 9377 22277  13757 15453 22673  12764 13625 22116  10865 20203 22286  11398 17794 22625  13510 16076 22365  15004 21957 22238  13628 15836 15837  15242 22916 23015  12932 12972 18087  14277 14279 22272  15314 17991 22289  9373 9614 22370  9377 22242 22277  15157 15158 15191  9270 9272 18459  12743 13010 13847  16565 16567 22179  11409 11411 22166  14422 14425 15815  12354 12465 22377  14429 14431 15783  9402 9404 22285  10143 10144 10145  13039 13535 22291  10746 10747 10748  10750 10751 10752  12117 12120 22302  14456 19816 22976  9418 9420 22283  15357 16041 22378  17643 17644 22347  9999 10076 17879  10724 10804 22326  9924 9926 22434  11491 11866 22180  10041 10067 22387  16056 21864 22287  13047 13049 22181  12250 12252 22294  16050 20180 22292  14287 14625 22397  19322 19323 22461  17864 17867 17868  12803 12805 22198  16084 22657 22668  15045 20043 22561  19527 19529 22524  10379 11822 22382  12874 12875 12876  12324 12326 22398  21840 22513 22534  9399 9491 22297  10381 10503 22382  8025 11512 22255  12797 12799 22203  8997 8999 9024  10113 10116 22107  15160 15161 15162  11222 11239 22393  21842 22438 22506  9127 20155 23100  11224 11829 22393  14541 15026 17861  13093 13507 22183  2002 7549 22046  9693 22299 22391  8983 9141 22246  10137 10138 10139  13543 15088 22219  8813 18555 22275  10124 10125 10126  18471 18476 22498  11431 11459 22319  9394 9691 22390  14468 16033 16034  9685 19718 22389  16068 22035 22240  15180 15181 15202  15201 22877 22903  13091 21889 22183  11489 11866 22295  13222 13224 18416  11491 12500 22180  12055 19203 22401  20020 20022 20023  10031 10033 22301  10204 12539 20039  17505 17507 22381  17401 17404 22692  15191 15192 15193  9463 9698 22358  12329 13417 22398  12358 12464 22400  19974 21736 22421  17489 17490 17491  13433 22164 22251  17413 17414 17415  7902 8071 22405  8995 8996 8997  17423 17425 22594  18162 18167 22221  18201 18202 22351  15834 16565 22199  8033 8035 22414  15117 15118 15119  15012 16028 22305  15334 15336 22452  9465 11853 22358  13545 15128 22219  13384 13386 22445  13645 14162 22450  10834 10862 22205  17160 23042 25069  8997 8998 8999  18464 22007 22340  16070 18965 22394  15014 16032 22306  11413 12523 22153  9714 22240 22365  18417 18421 22081  17533 17534 17535  17535 17536 17544  8983 8985 22246  11293 11302 22411  11291 11827 22411  16569 16572 22257  15185 15186 15187  13152 22265 22498  11415 11418 22153  17794 22625 22662  17525 17925 22311  9400 9402 22304  17753 17755 17790  13041 19394 22325  17488 17489 17490  17491 17533 17534  8517 8518 8519  9532 9693 22299  15055 18645 22323  10748 10749 10750  17500 22258 22308  9002 9003 9004  16571 22226 22257  17701 22324 22563  8519 8520 8521  17484 22926 23026  8993 8995 11867  9554 9555 9556  11429 11431 22319  10772 22725 22746  7906 11826 22415  15364 18458 22412  9402 22285 22304  17415 17416 17417  15161 15163 22259  16873 17591 22448  13539 13541 13714  16058 22273 22395  12872 12873 12874  17299 17300 17301  9572 18776 18777  9530 22100 22299  15187 15188 15189  13041 13043 22325  9467 9469 22307  11487 11489 22295  13047 19393 22181  5985 7388 19777  9457 9685 22389  12803 14108 22198  15080 15117 17181  13886 18416 18417  15119 15153 15154  11023 22269 22672  17500 17503 22308  14695 14697 22124  8521 8522 8523  15164 15179 15843  10752 10753 10754  10849 10850 10851  12767 12769 22236  16479 16480 22428  10753 22176 22402  12530 13889 22159  18800 18804 22233  11281 11283 22313  20018 20020 20046  16156 16160 22463  17490 17491 17533  11411 12523 22166  8550 19848 22312  9267 9269 22451  15353 15355 22309  7892 7894 22316  11409 13029 22166  14614 19759 22444  18259 18261 18262  7959 9112 22321  10746 10748 11869  8488 9134 22439  15046 15048 22466  18015 18017 18018  11435 12749 22374  14418 14420 17508  12053 12055 22401  10033 10035 22320  15028 15094 17692  10033 22301 22320  11487 22083 22295  12762 12764 22116  13105 13107 22468  16567 16572 22179  17845 17846 22123  12500 13844 22180  17534 17535 17536  12764 12765 12766  13221 14194 18032  11812 22481 22513  19362 19363 22327  10043 10067 22436  12802 14109 22203  14601 18174 22430  16065 19238 22509  19313 19314 22336  10118 10120 11871  15107 22523 22603  16070 22394 22427  17420 17421 17422  11470 21244 22492  9530 9532 22299  18464 18466 22340  19166 19167 22487  5978 5985 19777  10832 10834 22205  9993 19985 22462  9797 9993 22462  5719 5726 7680  14007 16046 22430  11220 11239 22440  15432 22891 22900  10145 10146 10147  15162 15163 15164  21779 22439 22582  11905 22246 22247  17315 17370 17371  17298 17299 17300  11295 11302 22441  12805 13592 22198  13036 13562 22328  20174 20175 22465  15087 19235 22480  11433 11459 22374  8987 8989 22244  12867 12868 12869  14796 20027 22561  18114 18129 22318  5117 5124 7679  21737 22397 22421  17696 17699 17701  7957 22321 22333  15119 15154 15769  10413 10414 10415  16069 22299 22391  8985 11905 22246  21816 21840 22534  12799 12802 22203  7910 8068 22443  7908 11826 22443  16068 22240 22365  13049 14999 22181  8776 8778 11475  7894 7896 22329  19157 22596 22606  15193 15194 15219  10705 22749 22784  10047 11825 22447  9932 10644 22331  16046 22385 22427  13543 13545 22219  13452 21915 22396  13588 22529 22567  18745 22409 22410  10126 10127 10128  17301 17304 17305  9438 9500 22334  7894 22316 22329  9009 9010 9011  9920 9922 22476  17631 17693 22330  17417 17418 17420  15826 15828 17456  9365 9367 22454  16078 22203 22360  14587 21910 22470  10122 10124 10632  17471 17472 22344  22083 22084 22295  11283 22313 22332  11283 11285 22332  16069 22100 22299  8024 8026 11836  11429 22298 22319  14541 17861 22291  11216 11301 22453  8999 9000 9001  8989 9033 22244  11299 11311 22455  15189 15190 15235  8049 18092 22623  10722 10724 22326  8987 11905 22244  8158 13104 13105  12254 12256 22338  18167 18702 22221  16728 16729 16730  15164 15178 15179  12765 12766 12767  13541 13684 22341  21816 22534 22544  14697 15842 22124  14691 14693 22002  13896 17618 22371  8158 15030 22255  9033 22244 22245  11846 19157 22596  15819 17487 22392  9567 9568 9569  9461 9698 22431  10632 22629 22679  17536 17544 17545  19042 22459 22483  15320 15909 22343  15096 15141 17665  11226 11228 22339  14539 16272 16720  12086 12165 22324  8050 18748 22494  10108 10110 22270  15154 15155 15156  14555 14556 14557  19514 24048 24167  11439 12491 22429  14457 18586 22349  18331 18333 22274  8787 9139 22403  8158 13105 15030  18965 22283 22394  10804 19042 22459  11437 12749 22429  10754 10755 10756  10978 11401 22165  16142 16158 22346  14531 14533 22260  8766 12517 22288  13537 22504 22597  15449 17213 23211  8310 8312 22482  19530 19533 22503  16786 16788 17453  11736 11738 22350  18804 19939 22233  14535 15858 22209  10838 10839 10840  15368 16065 22467  15366 18458 22467  7912 8068 22471  17961 22626 22641  11058 11059 22457  12931 14539 14540  11418 15859 22153  10130 10131 10132  14204 16728 16729  15101 17258 22375  9569 9570 9571  9363 9718 22469  9728 17961 22626  15090 19231 22511  10119 10121 22531  18330 18332 22545  8700 8702 22485  16088 22691 22725  15828 17592 17593  17300 17301 17304  18346 18347 22456  10752 10754 10773  17422 17423 17424  15219 15220 15221  18201 18206 22351  16066 16067 22337  15062 15064 22483  9140 13419 15614  12093 12095 22355  12256 12258 22353  10110 11442 22270  9004 9005 9006  12870 12871 12872  16565 22179 22199  4333 7608 23660  17983 17987 18157  18705 22057 22516  13458 13460 22425  13878 15826 15828  14516 14517 15632  14540 16272 16506  14281 14285 22348  15020 18483 22356  16070 19760 22427  10128 10129 10130  8552 21816 22544  9302 11548 22488  7916 11830 22473  18014 18015 22359  10049 11825 22475  10051 10066 22475  12360 12464 22474  14557 14558 14559  15056 15058 22505  9304 9701 22488  10146 10148 11884  10147 10148 10149  10108 12741 22270  17868 17869 17872  13889 16033 22159  10840 10842 11877  11513 22528 22541  13644 13645 13874  13452 22208 22396  9546 9725 22293  10842 10843 10844  12256 22338 22353  11112 11682 22495  11110 11179 22495  13847 15764 22262  11214 11301 22478  11108 11179 22497  5124 5131 22322  8816 21963 22485  15077 15079 22525  15451 15766 16596  9359 9699 22477  15179 15180 15181  18476 22265 22498  7898 7900 22362  9548 11864 22293  17644 17647 22347  18750 18756 22494  14254 17182 22262  13847 14254 22262  13684 14204 22341  12769 13647 22236  12795 12938 22360  15103 15823 22375  9550 11864 22290  9463 9465 22358  19170 19352 22533  16099 22259 22845  16094 18661 22383  10414 10416 10476  8791 20076 22707  15143 15145 16082  16086 16211 22504  12763 12765 13707  10037 10039 22368  9634 19161 22568  11433 11435 22374  8785 19659 22403  12893 17980 22357  9396 9398 22367  9569 9571 9627  14469 17732 22446  10132 10133 10134  14559 14561 15130  13043 14551 22325  12364 12367 22484  12795 12797 22360  10726 10804 22459  9683 19338 22409  11058 13711 22457  12762 12763 12764  19625 19626 19627  15616 16080 16081  11210 11303 22489  9793 9794 22371  16480 22296 22428  17828 17831 18133  11287 11289 22369  11401 13034 22165  15237 15238 15245  15324 17814 22373  9371 9373 22370  9572 9574 18777  9552 9702 22290  14559 14560 14561  12395 19666 22515  10844 10845 10846  9546 9548 22293  9958 22891 22900  10103 10105 22578  10840 10841 10842  11863 20249 23103  18904 18905 18906  12354 12356 22377  15093 19229 22537  9001 9003 11872  9571 9572 9573  15156 15157 15158  9550 9552 22290  10728 11861 22459  9691 22390 22543  9534 9536 22438  8785 8787 22403  15235 15236 15237  17304 17305 17306  17283 17285 22555  13749 14516 14517  10053 10066 22499  12900 12902 13000  10055 11828 22499  13380 19760 22385  12928 12931 14539  12924 12926 13764  12918 12920 13708  12912 12914 13639  13112 13113 13644  12906 12908 13583  18333 18336 22274  19810 19811 22559  18466 18469 22340  14533 15858 22260  16970 16971 16972  10379 10381 22382  11336 12204 22380  17505 17674 22381  17490 17533 22280  15357 15359 22378  14285 22348 22397  12890 12894 14158  16146 18062 22388  12930 17824 22386  12797 22203 22360  10039 10041 22387  19156 19159 22588  9001 9002 9003  18349 18350 22706  10039 22368 22387  8049 8050 8051  15461 16552 16553  14531 17649 22260  10126 10128 11873  16059 19007 22395  21779 22572 22582  12884 12886 14110  10705 17665 22749  17476 17616 22404  14693 17642 22002  8035 11511 22414  9394 9396 22390  18331 22028 22274  10756 10757 10758  19317 19318 22406  16058 16059 22395  9396 22367 22390  10850 10851 10852  15158 15192 15782  15374 16065 22509  14497 19172 22693  11222 11224 22393  15193 15219 22314  11863 20249 23105  9714 13510 22365  14194 18031 18032  8725 8727 22517  15245 17120 17122  15105 22547 22587  9357 9699 22510  15158 15191 15192  15221 15222 15223  9457 9459 22389  15828 17456 17592  15031 19972 22384  18417 18419 18421  5131 5138 7394  5152 5159 7511  5173 5180 7398  20044 20045 22536  15109 20175 22536  5705 5712 7395  12356 12358 22400  9371 22370 22399  9368 9371 22399  12356 22377 22400  15067 15069 22539  17487 22392 22507  8798 8799 8800  14561 14562 14563  15030 17750 22600  9914 9916 22541  16077 22225 22414  11208 11303 22520  14285 14287 22397  12878 12880 14017  20036 22523 22603  7902 7904 22405  11311 11312 22530  12087 12089 22169  9007 9009 9025  15089 16027 22543  12326 12329 22398  20212 22169 22659  12763 12764 12765  12300 12302 22526  14008 22394 22427  15108 19227 22560  9353 9655 22522  19161 22568 22588  13109 13110 13112  12053 12393 22401  12865 12866 12867  10509 18547 22546  14008 21972 22394  3451 3479 7669  16480 21915 22396  15035 18263 22408  10059 10070 22527  10057 11828 22527  14555 14557 15107  12732 12734 22644  15111 17146 22658  14551 20036 22523  11204 11820 22532  14539 14540 16272  15359 22378 22412  15078 17182 22315  9892 9894 22413  12305 13418 22526  11873 22760 22801  11023 22672 22710  10760 10761 10762  10646 18647 22570  5684 5691 7514  16272 16506 16985  15380 18647 22528  5194 5201 7512  11291 11293 22411  17701 17703 22563  19476 19527 22524  9572 9573 9574  13224 13886 18416  10134 10135 10136  19148 19150 22416  2653 2681 17673  12972 12974 18147  15101 15103 22375  14652 16165 16166  8552 22544 22572  15078 15080 22315  7904 7906 22415  7390 19783 19784  12185 12186 22446  8818 18563 22435  12084 12086 22324  16069 22110 22391  16090 22710 22717  16076 22365 22425  7904 22405 22415  19974 22421 22442  15359 15364 22412  17701 17702 17703  21736 21737 22421  8818 18499 22435  17680 18563 22435  15018 15819 22392  15192 15193 15194  16150 17960 22423  12868 12869 12870  13075 13077 22556  15187 15189 16095  19153 22416 22454  13531 15088 22490  13711 16857 22457  10844 10846 10863  10758 10759 10760  18765 22542 22571  9138 13486 22517  11437 11439 22429  12095 13878 22355  5663 5670 7399  15080 17181 22315  5642 5649 7513  9794 22371 22462  8048 12601 22494  5621 5628 7406  15081 15110 22564  5215 5222 7404  15330 15906 22426  15043 21779 22550  10646 22570 22577  15075 19709 22569  13107 13110 22468  16033 16034 22464  11861 18765 22542  15969 23953 24041  11116 11194 22565  11114 11682 22565  13541 13714 22341  5614 5621 22342  10132 10134 10639  12973 13650 22673  14384 14386 22551  15112 19220 22579  9345 9346 22562  22005 22107 22345  9459 22389 22431  17305 17306 17307  15223 15224 15246  13460 22425 22516  11200 11257 22554  11202 11820 22554  13458 16068 22425  10061 10070 22548  10063 11831 22548  9926 11525 22434  11871 22345 22525  5607 5614 7681  13798 13800 22558  21778 21779 22572  14007 14601 22430  9003 9004 9005  15092 17147 22558  16479 16560 22428  10043 10045 22436  9573 9574 9596  9351 9655 22552  14008 16046 22427  18015 18018 22359  10756 10758 11875  5236 5243 7515  9459 9461 22431  15107 20830 22666  12872 12874 13783  14740 20987 24474  17424 17425 17426  17480 17586 22787  15194 17945 22643  10846 10847 10848  10116 10118 22345  15083 15085 22571  19467 19478 22595  12839 22204 22392  14204 16729 22341  10765 22175 22460  11470 22340 22492  11218 11220 22440  10415 10417 11870  13451 13537 22567  16061 19758 22419  9910 9912 22577  14976 16083 22575  10116 22107 22345  9006 9007 9008  16080 19659 22403  10412 11878 22317  5586 5593 7411  11295 11297 22441  17418 17419 22437  15194 15219 15220  9534 9693 22438  10415 10416 10417  13507 22183 22490  15071 19153 22449  17426 17427 17436  15018 22204 22392  9367 22416 22454  17980 17983 22357  7908 7910 22443  14614 15390 22444  5257 5264 7409  13384 18267 22445  10413 10490 22266  19471 19474 22595  13108 13111 13553  16873 16874 22448  15220 15222 17191  5579 5586 22363  8430 8432 22590  10412 10414 22317  8768 8770 22566  12734 12737 12862  10045 10047 22447  14551 14552 22523  8486 8488 22439  10045 22436 22447  13645 22450 22521  13113 13539 22303  18346 18349 22456  10118 11871 22345  9956 22413 22712  14162 18150 22450  12742 17792 22716  15384 16075 22570  15382 18647 22570  5264 5271 22364  12761 12762 12763  17306 17307 17311  13109 13112 22521  16033 22350 22464  17302 22079 22855  22050 22053 22638  16083 22575 22585  11869 22777 22821  19321 19322 22461  14625 21939 22442  5572 5579 7682  17592 17593 17594  20023 20025 20026  13536 13537 22585  22005 22345 22525  15117 17181 22354  10065 11831 22574  10072 10597 22574  15334 17707 22452  19061 19984 22589  9433 9634 22568  9435 11846 22568  12758 14516 22689  10730 11861 22542  9267 9504 22451  20654 23816 23829  5271 5278 7683  12286 12288 22576  11218 22440 22453  15120 20045 22589  12540 22350 22464  13113 13644 22303  11216 11218 22453  10732 10771 22542  10104 11398 22508  15026 17861 22458  11297 22441 22455  19223 19224 22610  11297 11299 22455  11403 11405 22614  11059 11062 22457  15138 19155 22606  22050 22052 22053  11183 20829 22603  13419 15614 15616  12760 12761 12762  13550 19803 22738  15344 21161 23107  15088 22490 22546  16231 23813 23828  12291 13434 22576  15119 15769 22354  17480 17481 22825  9365 9718 22454  16068 22365 22425  1239 1246 7517  10106 12741 22508  12370 12463 22581  11462 18547 22635  12866 12867 12868  15089 22543 22575  8044 8045 8046  5551 5558 7417  14420 14422 22310  12839 22392 22507  15117 15119 22354  13024 21910 22470  16156 16159 22463  9794 9797 22462  17307 17311 17312  16169 19207 24975  17824 17828 22386  20212 21706 22599  9291 9503 22755  20043 22000 22561  5292 5299 7414  13896 17617 17618  9005 9007 22424  15028 17692 22458  5544 5551 22372  12926 12928 22376  8484 8486 22582  15046 16055 22466  12902 12904 22379  18593 22183 22490  12374 12462 22586  17651 20174 22465  10136 10137 10138  9007 9025 22424  4480 7616 18074  11867 17543 23456  12185 13561 22446  15151 22756 22767  5537 5544 7684  5306 5313 7685  16027 22390 22543  10726 10728 22459  18705 22516 22547  10529 10597 22593  11462 18327 22698  16075 19489 22605  16160 22463 22530  12089 13335 22169  9361 9363 22469  7912 7914 22471  13112 13645 22521  10414 10476 22317  13537 22585 22597  15366 15368 22467  11064 11175 22608  8041 8135 19508  5327 5334 7418  10140 10141 10142  5341 5348 7686  9134 22439 22550  15026 15028 22458  5362 5369 7424  11118 11194 22611  15258 15260 22612  17844 17846 19998  15202 15204 22961  19865 19866 19867  19011 22556 22618  11810 22144 22535  9005 9006 9007  14539 16720 22376  5516 5523 7420  16160 16161 22733  8045 8046 8047  10533 10596 22601  12093 22355 22553  9437 11846 22596  9439 9728 22596  16546 18605 20204  15828 17593 22355  15220 15221 15222  13073 13078 22618  15614 15616 16686  8041 8043 19508  15227 18706 22839  5502 5509 7688  15229 15231 15234  15129 19204 22650  18469 22340 22492  7914 7916 22473  11830 22473 22677  12360 12362 22474  12376 12462 22604  5376 5383 7687  21939 22442 22472  10848 10850 11911  16085 22089 22597  15387 16075 22605  14054 16092 22724  15066 21939 22472  15124 19214 22634  10413 10415 22266  10049 10051 22475  15705 16963 24016  7914 22471 22473  15066 22472 22481  9609 9629 23148  9922 10645 22476  10414 10415 10416  13878 15828 22355  5481 5488 7425  11257 21850 22573  9361 22469 22477  9359 9361 22477  5467 5474 7689  15087 19324 22480  15340 15896 22677  14422 15815 22310  19165 19166 22487  11212 11214 22478  5124 7679 22322  12380 12461 22609  7330 17566 17567  5397 5404 7428  5418 5425 7516  17872 17873 22540  5432 5439 7690  5439 5446 22407  5446 5453 7429  15137 16096 22641  19803 22738 22753  10138 10139 10140  17983 18157 22357  15053 16062 22705  18260 18261 23068  12830 14054 22724  7154 7459 22279  14054 14055 16091  8312 9063 22482  9536 22438 22607  12362 22474 22484  13551 22753 22764  10842 11877 22417  13104 13105 13106  15008 15010 22535  12362 12364 22484  9343 9345 22627  9956 19518 22759  15180 15202 22922  17792 22716 22754  15062 19042 22483  11122 11176 22639  8700 8816 22485  15237 15245 17574  10136 10138 11880  10771 18701 22616  18473 18490 22671  14625 22421 22442  14394 14396 22632  8036 8038 11832  10848 10849 10850  18701 22616 22646  10535 10596 22628  10537 11838 22628  9302 9304 22488  10418 10419 10420  19462 19477 22651  11212 22478 22489  15066 21932 22481  11182 12164 22549  13666 13667 23674  10142 10143 10144  11210 11212 22489  16076 22425 22516  14420 17508 22310  11176 22639 22791  13539 13714 22303  9441 9728 22626  15139 19211 22665  15340 15341 22694  9443 11849 22626  9134 21992 22619  9324 19369 22663  12928 14539 22376  12926 13764 22376  11311 22463 22530  9878 10594 22653  18748 18750 22494  12902 13000 22379  11110 11112 22495  11106 11108 22497  13152 21244 22498  19529 19530 22503  21779 22439 22550  10053 10055 22499  17828 18133 22386  21992 22619 22637  10151 10591 22592  10754 10773 22422  13562 14418 22328  15056 16057 22505  17362 17363 17365  2205 7547 22633  13105 13106 13107  15842 22124 22496  15098 15100 22646  10539 11838 22645  10541 10546 22645  8794 8796 8817  9326 9584 22663  16101 22653 22834  12863 12864 12865  10844 10863 22417  14459 17595 22591  16085 16086 22504  15842 17597 22496  18474 18528 22686  17287 17289 22662  2625 7548 22638  11495 19518 22771  12737 12862 12863  10123 10125 22676  13799 15111 22655  12866 12868 13713  12091 13335 22553  15090 19236 22511  12262 12264 22649  10077 12542 20003  18342 18343 22849  15222 15223 15224  10734 10771 22616  19518 22759 22771  9538 9713 22607  15340 22677 22694  10633 10950 23703  9799 9954 23116  15374 15376 22509  12395 19397 22515  9355 9357 22510  8727 9138 22517  10104 10106 22508  12267 13435 22649  15751 18342 22874  13507 13531 22490  15638 17065 24593  11578 20830 22661  20847 20848 22661  17487 17489 22507  16071 22391 22506  10736 11862 22616  19494 19496 22696  5131 7394 22322  12757 12759 12760  9573 12433 22432  14652 16166 20054  9134 22550 22619  21932 22481 22513  9900 9902 22668  9571 9627 22432  21823 21932 22513  9956 22712 22759  13109 13111 22521  16076 22057 22516  15396 16084 22657  22046 22047 22048  10842 10844 22417  18469 18471 22492  11206 11208 22520  16211 22504 22567  2359 7539 22636  18593 22490 22546  10543 10546 22660  10545 11840 22660  12758 12759 13749  9355 22510 22522  13111 16119 22521  9353 9355 22522  10639 22890 22925  16857 22457 22608  21823 22513 22534  19169 19170 22533  14469 16439 17732  15376 22509 22528  14563 19059 22667  10754 10756 22422  10756 11875 22422  9693 22391 22506  10099 12742 22625  10057 10059 22527  17311 17312 17314  10102 11398 22625  9007 9008 9009  14798 15045 22561  12864 12865 12866  12755 12757 12758  15009 15010 22630  14418 17508 22328  9008 9009 9010  16606 17729 22703  11262 11263 22709  10119 10713 22531  10144 10145 10146  16119 22450 22521  11206 22520 22532  12302 12305 22526  11871 18568 22629  16082 18020 22844  15132 15823 22631  16211 16655 22529  8397 11833 22670  8395 9082 22670  10142 10144 10651  11204 11206 22532  9637 16755 24968  11312 12467 22530  19529 22503 23322  15376 15380 22528  22082 22654 22688  15109 20044 22536  12759 12760 12761  15093 19232 22537  15116 15118 22679  2051 2254 21806  18568 22629 22679  9571 9573 22432  15399 16084 22672  9504 22451 22599  12839 21867 22507  17593 22355 22553  10548 11840 22675  15003 21823 22534  18430 18431 22613  14249 15770 22674  8047 9143 22623  15150 19208 22708  10146 10147 10148  2051 7486 21806  13537 22504 22567  11851 21992 22637  15067 16063 22539  7636 16862 24916  10505 18327 22748  11400 22695 22927  10467 10484 23739  15003 22534 22544  12694 12950 22689  15008 22144 22535  9916 11513 22541  10552 10557 22678  15121 15167 22697  8770 8809 22566  8515 8517 22622  12737 12863 12864  9502 19932 22697  17314 17315 17370  11062 22457 22608  8952 8954 22652  14497 14499 22693  19932 21728 22697  20004 22992 22995  15696 16961 22765  10407 10409 22681  18332 18338 22545  14404 14406 22690  3010 7465 19789  15077 22005 22525  15460 16290 16809  15279 15281 22702  10773 22872 22901  8552 22572 22582  12840 13883 22669  8541 22184 22669  15750 16425 22928  15750 15751 22899  13112 13644 13645  10509 18593 22546  9561 18016 24815  10730 10732 22542  11057 11060 22699  11851 22637 22656  12732 12735 22644  10419 10499 22518  15003 21923 22544  10061 10063 22548  15513 23327 23355  12091 12093 22553  3010 3346 19789  17374 22773 22788  13287 22613 22786  21767 21850 22573  21842 22438 22607  15043 21937 22550  9349 9351 22552  17480 22787 22825  9691 22133 22543  19013 19014 22615  14555 15107 22523  12164 21891 22549  11200 11202 22554  17283 17932 22555  15227 19986 22885  15221 15223 22512  14552 14555 22523  14386 17309 22551  16084 22269 22672  13690 15633 22709  15896 22473 22677  10648 22657 22668  11495 22771 22785  8788 8790 11477  11495 19665 22785  15108 19230 22560  18495 22906 22976  18547 22546 22635  19458 19460 22729  13077 13890 22556  10656 22868 22904  14470 17565 22684  10554 10557 22704  19468 19469 23335  10556 11844 22704  20027 22000 22561  13882 13883 22684  10120 11871 22629  12757 12758 12759  5621 7406 22342  13798 15092 22558  10122 10632 22629  9346 9349 22562  18327 22698 22748  9349 22552 22562  11862 18986 22691  17312 17314 17315  15081 17959 22564  17432 22335 23411  17873 17876 22540  13107 13108 13109  11855 18858 22654  9143 22623 22624  13460 22104 22547  11114 11116 22565  8896 19864 22714  8891 10675 22714  5614 7681 22342  19864 19865 22714  15403 16090 22710  9693 22438 22506  16100 22852 22890  9894 9896 22717  18347 22456 22742  17302 22855 22888  22092 22656 22664  11851 22092 22656  15075 16045 22569  15094 17692 22640  4284 4291 7449  7154 7161 7459  3185 3472 19792  4277 4284 22479  3199 7168 19786  18429 18431 22642  11262 12182 22709  13451 13588 22567  10415 11870 22266  15194 15220 22643  9433 9435 22568  3346 3416 19782  3185 4004 19793  10505 19811 22559  15083 18765 22571  15405 16090 22712  15110 22564 22573  22133 22543 22575  13749 14517 15555  4228 4235 22486  4270 4277 19567  15096 17665 22640  15382 15384 22570  10758 11875 22491  12974 13664 18147  10065 10072 22574  8794 8795 8796  10559 11844 22715  21923 22544 22572  19709 22569 22627  15170 16284 22718  19665 22785 22798  13550 21983 22723  10593 19665 22798  21778 21923 22572  8023 11512 22701  16099 22845 22872  15166 19332 22745  12828 13742 22724  3423 3437 7410  8304 8306 22732  20069 23545 23564  13460 22516 22547  10103 11460 22578  14561 15130 22667  10738 11862 22691  10846 10863 22493  11884 22598 23102  15112 19228 22579  5586 7411 22363  10563 10568 22719  9912 10646 22577  19468 19477 23342  10360 10362 22735  14802 14804 15054  12288 12291 22576  15089 22575 22585  15751 22874 22899  5264 7409 22364  17489 17491 22617  16093 16094 22739  15160 17262 22687  20020 20023 20046  12370 12372 22581  21767 22573 22655  12825 12952 22772  19468 23335 23342  11849 22021 22648  5579 7682 22363  16264 19676 24382  8484 8552 22582  8789 8791 22707  4753 4760 22514  17307 17313 22695  9025 22424 23496  19159 19161 22588  13108 13553 22501  5271 7683 22364  13536 15089 22585  14976 22133 22575  15111 22655 22658  7710 14417 22774  8019 8021 22734  12372 12374 22586  12694 12755 22689  8430 19707 22590  15011 17512 22727  15120 19984 22589  12372 22581 22586  11257 22564 22573  10417 10418 10419  14459 17492 22591  22053 22633 22638  1218 1225 7405  16546 17090 18605  20746 23208 23315  10758 10760 22491  10529 10531 22593  21937 22550 22619  9929 9931 22747  14319 14545 22728  9558 18060 22862  7549 22044 22046  19467 19471 22595  8772 8809 22751  10095 11026 22716  11462 22635 22698  10565 10568 22736  11233 19799 22752  10567 11847 22736  11104 11233 22752  16866 16867 22750  9615 18966 22773  16083 22585 22597  14517 15632 16526  10097 12742 22716  17423 17603 22594  11875 22491 22969  9437 9439 22596  13106 13107 13108  5551 7417 22372  22104 22547 22587  13575 14169 24116  9504 21706 22599  15110 22573 22655  9345 22569 22627  8501 22092 22664  15131 15133 22746  13400 13551 22753  13466 22104 22587  8798 18079 22783  10531 22593 22601  11026 17926 22803  14559 15130 22666  14545 22182 22728  10531 10533 22601  15030 22255 22600  8124 8126 9502  5544 7684 22372  12108 13033 22741  12084 22324 22563  16083 22089 22597  17291 17293 22754  10848 11911 22493  12376 12378 22604  16088 22725 22746  19155 19157 22606  13547 15151 22756  16123 22512 23018  11511 22414 22500  15168 22718 22767  8047 8048 8049  10742 10772 22725  8501 22664 22688  15387 15389 22605  17358 17374 22773  16090 22413 22712  9025 23496 23507  11512 22255 22600  11062 11064 22608  15437 15439 22769  10416 10476 22602  11183 20036 22603  15816 21873 22965  12378 22604 22609  10146 11884 22598  10570 11847 22763  12378 12380 22609  11118 11120 22611  15260 16162 22612  10593 22798 22830  12524 22006 22727  16162 23108 23111  10846 10848 22493  14994 22021 22648  8048 8049 8050  19222 19223 22610  13744 23192 23900  17489 22507 22617  4291 7449 22278  17552 22817 22823  13287 18650 22786  9536 9538 22607  13073 13075 22618  18343 18345 22838  1190 1197 22584  9540 9713 22742  10574 10579 22768  8795 8796 8797  12160 21731 22774  11446 21867 22617  10127 10129 22784  15389 22605 22621  13106 16077 22501  14994 22648 22723  15675 19986 22966  16606 16786 22703  17491 22617 22700  8154 22734 22770  2513 22633 22638  17549 22790 22808  14798 14800 15045  10416 10417 10418  10734 10736 22616  8515 11859 22622  18092 18094 22623  14557 15107 22666  11120 22611 22639  15461 16553 22620  21867 22507 22617  9153 9155 13560  15088 22546 22635  10579 22768 22896  10535 10537 22628  11400 22888 22927  2359 2380 22636  8501 22082 22688  9441 9443 22626  18347 22742 22800  5439 7690 22407  15389 15392 22621  15123 22654 22688  5446 7429 22407  15124 19225 22634  9343 9729 22627  15009 15835 22630  3388 3402 7692  7710 7712 22774  10099 10102 22625  15104 21937 22619  1204 1211 7691  14304 14306 22775  15104 22619 22637  14396 17279 22632  10801 23112 23113  14620 17358 22773  11023 22710 22717  22383 22705 22739  10632 18275 22760  15450 16678 22366  11403 13034 22614  15104 21936 22637  2205 2513 22633  11120 11122 22639  15137 17961 22641  8950 9021 22789  8045 8047 9143  12759 12761 22519  20646 20923 22790  13108 13109 13111  10801 20007 23113  11528 18556 22737  19060 22639 22791  2513 2625 22638  8946 11623 22792  12759 13749 22519  10120 10122 22629  15392 22621 22647  18776 18782 22788  15249 18516 22795  15461 16290 16552  16101 22830 22834  15257 17194 22795  10539 10541 22645  15132 15134 22631  20007 23113 23115  8942 9020 22797  8944 11623 22797  12734 12736 12737  10823 10825 22807  13533 13815 22815  15450 15453 16678  18275 22760 22801  10107 10109 22824  15259 17194 22799  15261 17195 22799  16096 22641 22648  16290 16552 17137  15094 15096 22640  12755 12756 12757  11539 19996 22805  7616 18070 18074  8938 11889 22804  8940 9020 22804  10828 18740 22920  15098 18701 22646  8046 8047 8048  15129 19215 22650  11890 20007 23115  22237 22733 22750  8783 8784 22776  15264 17195 22806  15266 17197 22806  16077 22414 22500  15421 16101 22796  14138 16636 16637  12693 12754 14113  21936 22637 22656  15088 22219 22635  9584 19462 22651  8934 9019 22809  8936 11889 22809  15392 15394 22647  9878 9880 22653  12491 22429 22787  12264 12267 22649  3381 3388 22580  12407 17752 22744  8817 22284 22783  18081 22284 22783  17926 22803 22835  15271 15813 22812  15269 17197 22812  9713 22607 22706  11890 23115 23117  15511 18266 22884  8932 9019 22813  11528 22091 22737  10149 10151 22592  8954 11451 22652  15224 15811 22782  8928 11681 22814  15153 15155 22801  19059 19060 22791  9725 22800 22838  15278 17201 22816  15275 20575 22816  13799 21767 22655  11890 20083 23117  9713 22456 22742  16096 22648 22723  8926 11681 22818  8924 9018 22818  10772 22011 22777  9981 21963 22823  15394 22647 22657  11106 22497 22752  15141 17665 22749  16079 22734 22770  7391 19625 19626  15280 17201 22819  15282 17202 22819  7369 19567 19568  15082 15110 22658  17534 22700 22740  8922 9018 22822  8920 11892 22822  4004 7480 19793  9983 13305 22823  17552 21963 22823  10543 10545 22660  20083 23117 23118  17752 17753 22744  13335 22553 22685  15284 17202 22828  15286 17203 22828  10744 10772 22777  10124 10632 22760  11855 22082 22654  15394 15396 22657  15113 21936 22656  10091 12504 22803  17287 17794 22662  8918 11892 22829  8916 9017 22829  13749 15555 22519  19564 19565 19566  7624 18904 18905  15113 22656 22664  15143 16082 22749  11578 20847 22661  10652 20083 23118  15290 17206 22831  15288 17203 22831  9324 9326 22663  14463 17430 22913  15139 19205 22665  8914 9017 22832  8912 11894 22832  15113 21925 22664  10093 11026 22803  15752 17206 22833  13476 13633 22730  15220 17191 22643  11446 22617 22700  10652 23118 23121  15418 16101 22830  10746 11869 22777  10126 11873 22760  8044 8087 22418  9902 10648 22668  18473 18530 22671  12973 12975 22673  11880 22960 22991  13486 22517 22848  15159 15161 22821  8541 12840 22669  3367 3381 7436  9544 9725 22800  11542 19824 22943  17549 17550 22817  10652 20938 23121  8395 8397 22670  16636 16637 16638  7390 19782 19783  13740 20907 20908  16095 17920 22951  1176 1183 22583  4410 4417 17081  9880 9882 22834  19905 22861 22989  1183 1190 7435  7574 18847 22850  13476 13549 22730  17491 17534 22700  10594 22653 22796  20938 23121 23123  10548 10550 22675  14249 14416 22674  16077 22500 22501  9558 18454 22862  21925 22664 22688  10123 11456 22676  15399 15401 22672  11617 20938 23123  15134 22631 22687  17431 17432 22755  18342 22849 22874  9025 22168 23507  18474 18491 22686  10550 22675 22678  17295 17297 22835  10550 10552 22678  22011 22777 22821  11830 22094 22677  14750 24280 24361  12734 12862 22644  13882 14470 22684  14561 14563 22667  15162 17262 22811  8797 8798 8799  10407 10488 22681  11849 22641 22648  15214 17440 23175  15750 22899 22928  11446 19043 22700  13549 22718 22767  17586 22429 22787  13550 22723 22738  14800 14802 22557  22372 23944 24032  4228 19564 22486  8300 8302 22842  15116 18568 22679  4235 7454 22486  19213 19496 22696  14557 14559 22666  16093 22756 22767  15164 15843 22811  14005 17512 23057  14499 17563 22693  22094 22677 22694  12773 18806 24570  14406 17278 22690  13335 22169 22659  16093 22739 22756  8021 8023 22701  15123 21925 22688  10144 10651 22598  15121 21728 22697  15460 15461 16290  2233 7663 22846  2450 7345 22846  2142 2457 22850  8789 9139 22707  10418 17897 22602  9698 22431 22705  15401 22672 22710  19043 22700 22740  16837 16838 16840  17593 22553 22685  12736 15460 15461  18350 21842 22706  11060 11973 22699  22053 22054 22758  15134 15160 22687  10738 10740 22691  15281 16163 22702  14980 22094 22694  19803 22753 22764  16163 23125 23127  15110 22655 22658  7512 23898 23939  10554 10556 22704  12737 12864 22620  7638 19629 19630  20599 23217 23481  16162 22612 23108  12754 12755 12756  12597 12694 12950  3416 7390 19782  7480 19793 19794  8776 11475 22810  10802 23132 23133  15150 19495 22708  8424 19402 22957  14545 15123 22713  14255 24640 24832  22168 23507 23514  12182 13690 22709  22219 22635 22698  15128 22219 22698  5516 7420 22722  10802 21122 23133  10594 19610 22856  5509 7688 22722  9071 9072 22857  9120 20749 22857  12733 12736 15460  10651 22598 23075  15877 17003 22859  15401 15403 22710  15151 15168 22767  16786 17453 22703  21122 23133 23135  10838 18136 22865  9698 22383 22705  9584 22651 23353  13106 13108 22501  18793 18794 22883  15295 17576 22860  11893 21122 23135  5509 5516 22722  3122 7533 22843  22245 23347 23622  17593 17594 22685  8891 8896 22714  15862 17461 22847  12827 12829 22793  15005 18860 23007  10559 10561 22715  17335 23073 23260  4277 19567 22479  8587 19522 22948  11597 12593 22863  15405 15407 22712  13335 22659 22685  15222 17191 22782  3185 19792 19793  3346 19782 19789  9896 11023 22717  10144 10146 22598  11893 23135 23139  4284 7449 22479  3199 7391 19786  3472 7390 19792  21842 22607 22706  12504 22079 22855  10095 10097 22716  19610 22856 22864  15128 22698 22748  8587 19548 22948  12523 22153 22826  11893 20937 23139  10561 22715 22719  10740 22691 22725  15241 16636 16795  10561 10563 22719  10089 12504 22855  4270 7369 19567  19625 19628 22721  15168 15170 22718  13145 20103 22866  18578 22517 22848  11549 19959 22870  13090 18328 22916  20937 23139 23142  17305 17307 22695  12736 12737 22620  14994 21983 22723  18904 18907 22726  9477 17514 23064  8797 17653 22502  10636 22971 23001  1127 1141 7693  1162 1169 7519  7390 19784 19792  11539 22168 23514  7393 16704 25043  16091 16092 17098  12733 12734 12736  14245 15762 22867  10748 11869 22845  10803 20937 23142  11471 19610 22864  11869 22259 22845  7389 19654 19655  19014 22802 22958  15202 22922 22961  8044 8046 22418  12828 12830 22724  19210 19460 22729  14956 17457 22871  15203 17271 22875  8796 8817 22783  10740 10742 22725  8019 8154 22734  11873 18565 22852  16062 22431 22705  16097 22877 22903  12736 15461 22620  14136 14138 15241  12866 13713 22780  14319 17448 22728  16101 22653 22796  18274 22930 22940  16284 22718 22730  8306 11461 22732  10416 10418 22602  10362 11492 22735  15145 16082 22844  15011 22006 22727  11848 21978 22871  8296 11697 22876  8294 9050 22876  7606 17067 17068  12106 12108 22741  18083 23545 23564  15205 17271 22878  15207 15846 22878  18343 22838 22849  8772 8774 22751  10594 22796 22856  15696 17259 22765  15407 22712 22759  8292 9050 22880  15136 16096 22738  10565 10567 22736  8288 11577 22881  15218 20031 22882  3745 4123 22854  15200 18274 22930  10487 18659 22926  14412 22911 22917  16224 22091 22737  22409 22410 22820  7391 19626 19786  14802 15054 22557  15227 22839 22885  12755 12758 22689  12467 22237 22733  19564 19566 22486  10133 10135 22904  12592 12732 12735  15166 19459 22745  18858 22654 22713  15557 20264 22887  16553 22620 22780  14014 14015 22903  7369 19568 22726  9863 10704 22892  16160 22530 22733  7624 18905 18912  15136 22738 22753  15131 16088 22746  9929 9965 22747  12218 19298 24804  9982 20718 22894  9984 10877 22894  9540 9542 22742  9864 10655 22895  17362 17365 17366  9478 17519 23067  15176 18567 22926  12539 19043 22740  16554 24258 24264  9866 9868 22897  11104 11106 22752  15801 17457 22889  13400 15136 22753  10128 11873 22852  7465 19789 19790  17291 17792 22754  10085 11400 22888  13547 15053 22756  3297 3318 7518  14454 18495 22906  16196 23475 23477  13262 14454 22906  22053 22633 22758  12732 12733 12734  15128 17595 22748  13264 14456 22906  18046 22959 23072  10836 10838 22865  15509 15511 22884  17534 17536 22740  15450 15451 22366  17753 17790 22744  11471 22864 22879  15443 20102 22761  12640 21192 22968  14995 16115 22907  10570 10572 22763  15443 22761 22766  15141 15143 22749  15179 15843 22869  3962 7330 17566  16866 22237 22750  15407 15409 22759  15443 16104 22766  15140 19803 22764  14138 15241 16636  8784 8821 22776  18431 22613 22786  14278 14280 22910  12864 22620 22780  13549 16093 22767  15178 15180 22901  9958 18606 22891  7547 22633 22758  8414 19361 22964  17770 17771 22902  11471 18606 22879  10752 10773 22872  15135 16079 22770  10572 22763 22768  16094 22383 22739  15439 15441 22893  10572 10574 22768  15822 17198 22914  12694 12754 12755  14411 14412 22911  14800 15045 22557  15437 16105 22769  15409 22759 22771  8780 8783 22909  12825 12827 22772  19980 19981 22921  16098 22084 22873  21332 21505 22918  12467 22530 22733  8046 8048 12601  13560 19865 19866  10124 10126 22760  15195 16064 22896  7712 12160 22774  15432 15434 22900  18755 21831 22931  12539 22740 22781  14290 14292 22919  16064 22768 22896  15409 15412 22771  18606 22879 22891  16577 22226 22905  17536 22740 22781  14443 18025 22913  869 870 7578  17464 17466 22915  8884 11619 22923  8883 8888 22923  19012 19014 22802  10910 11454 22924  10908 12600 22924  16238 16240 22682  16238 16239 16240  15201 22180 22877  17560 23033 23122  15793 19337 22962  407 408 7579  11511 22500 22839  11743 18449 22940  15919 17211 22921  16638 16672 23202  10906 12600 22929  14304 17268 22775  15793 21914 22962  10902 11453 22933  14620 18966 22773  13569 14246 22934  15187 16095 22868  15123 22654 22713  18757 18760 22935  18753 18754 22935  10826 10828 22920  10651 23051 23065  19952 19981 22931  13549 22718 22730  15412 22771 22785  13757 15450 15453  10900 11453 22939  10898 12602 22939  15195 22896 22907  12579 20039 22794  22084 22295 22873  11990 22226 22905  19119 19122 22949  18079 18081 22783  9542 22742 22800  16096 22723 22738  10083 11400 22937  10127 10705 22784  15191 15193 22925  10361 10497 22943  19814 19819 22942  16946 17109 24494  16115 22907 22911  10363 11542 22943  16163 22702 23125  12428 19691 24517  14283 17568 22930  13845 15200 22930  18650 18658 22786  14445 14463 22913  10744 10746 22777  19419 19420 22949  12832 14136 14138  4375 7434 25070  10132 10639 22890  15412 15414 22785  17765 17767 22936  8948 8950 22789  12579 20923 22808  12539 20039 22781  7416 24558 25035  13305 20646 22790  8774 8776 22810  12579 22794 22808  4382 4389 23009  8774 22751 22810  8948 22789 22792  14054 16091 16092  3388 7692 22580  11176 20848 22791  16540 16690 16828  20039 22781 22794  8946 8948 22792  20021 20024 23066  17545 22781 22794  14412 17276 22917  17545 17547 22794  15249 15257 22795  16100 22890 22925  17536 17545 22781  17301 17305 22927  9615 18776 22788  10591 19992 23110  18347 22800 22838  16099 22872 22901  15414 22785 22798  1127 1162 22731  15452 17017 17485  8942 8944 22797  17547 22794 22808  17550 17552 22817  8778 11475 22909  13079 15239 22952  12693 12694 12754  15259 15261 22799  11506 19174 23764  13081 15572 22952  10593 22830 22834  15758 23518 23523  15053 22739 22756  8938 8940 22804  12491 22337 22787  10825 12516 22807  8786 8821 22944  10091 10093 22803  15421 15423 22796  8424 8426 22957  15758 19996 22805  17859 24270 24333  17875 17876 23066  15264 15266 22806  1190 7435 22584  13831 14086 22955  13830 15609 22955  17547 17549 22808  15414 15416 22798  12864 12866 22780  12112 12114 22953  15153 18275 22801  8934 8936 22809  9542 9544 22800  15234 17248 22954  1897 7348 22956  1890 7656 22956  17313 22695 22937  15269 15271 22812  10675 22714 22861  4732 16985 24546  15156 17942 23087  16123 23018 23051  870 871 22680  8930 8932 22813  15222 15224 22782  12655 13006 23224  8930 22813 22814  13815 16417 22815  8928 8930 22814  19865 19867 22861  9618 9686 23225  14427 14429 22946  8404 19335 22975  17549 22790 22817  15275 15278 22816  9749 10599 23128  9071 15758 23523  7391 19624 19625  7635 19656 19657  7635 19657 22721  8796 8797 8798  8924 8926 22818  9592 18042 22959  19624 19625 22721  15416 22798 22830  7635 19624 22721  19986 22885 22966  15280 15282 22819  7368 19564 19565  10107 10584 22824  7369 18903 22726  8583 18862 23000  8920 8922 22822  3381 7436 22580  406 407 22762  9981 9983 22823  7599 16979 24617  15162 15164 22811  15284 15286 22828  18903 18904 22726  7624 18903 18904  17234 17235 17236  8042 8087 22950  8414 8416 22964  8916 8918 22829  16166 20056 22837  22337 22787 22825  20025 20026 23030  15288 15290 22831  7428 20931 24464  9285 9592 22959  8912 8914 22832  18706 22500 22839  13862 21873 22965  10518 17052 22993  15752 17212 22833  15416 15418 22830  15159 22011 22821  13145 22866 23050  11511 19217 22839  11449 17574 23033  8795 8848 22502  7610 16970 16971  15206 16117 22969  15859 22153 22826  3290 3297 22757  16067 22337 22825  868 869 22778  1183 7435 22583  9882 10593 22834  16874 17433 24578  9683 22409 22820  17295 17926 22835  9629 9990 23148  17461 18060 22862  11918 11920 12674  9954 10971 23116  18204 18211 23052  18345 18347 22838  8404 8406 22975  15859 22826 22836  12597 12693 12694  871 872 7695  16067 17509 22970  15423 22796 22856  9337 9717 22974  15189 16095 22951  20069 20070 22840  21796 23970 24183  15859 15860 22836  5768 5775 22977  8693 8694 22979  10376 16829 24833  7384 23763 23844  4123 7678 22854  15451 16596 22366  15114 15778 22981  13956 21346 22982  14850 15986 22982  15557 22766 22887  17437 17438 22841  8302 9067 22842  14114 19627 24851  13859 21954 22973  11597 22863 23062  3108 3122 22843  17302 22888 22927  11400 22695 22937  12731 12732 12733  3283 3290 7694  3241 3255 7706  17276 22917 22945  10655 22769 22895  19598 24376 24506  2233 2450 22846  10774 19354 22994  16243 17153 24581  405 406 7696  15860 22836 22847  10639 22314 22960  15215 16117 22987  14211 15701 22988  1932 7484 22986  16229 20013 24187  15145 15185 22844  10134 10639 22960  13237 13239 22990  2457 7574 22850  15860 15862 22847  11550 20004 22992  10762 10774 22985  13486 22084 22848  8548 21878 22975  8338 8583 23000  17276 17277 22945  16104 22766 22887  19014 22615 22820  15829 18581 22853  16050 16051 22998  10748 10750 22845  9683 22615 22820  16117 22491 22969  14138 16637 22793  14583 15829 22853  10139 10141 23001  20077 23017 23036  10136 11880 22960  15229 15234 22954  14176 16282 16599  10079 12542 22996  16105 22769 22895  8547 21863 22964  9725 22293 22849  16971 16974 23263  17238 17239 17240  20586 21120 23005  8795 8797 22502  8046 12601 22418  3920 7508 22999  3927 7676 22999  15219 15221 22991  15262 20674 23069  9186 22292 22998  8546 21849 22957  10087 10089 22855  10518 10582 22993  9072 9120 22857  14544 18454 22862  11180 11182 22549  14433 14435 22997  15877 15879 22859  12596 12597 12693  12592 12731 12732  17313 22937 22996  10128 10130 22852  16060 17280 23006  15423 15426 22856  15005 15007 23007  14806 22433 22954  8788 11477 22944  15511 15512 22858  14668 15295 22860  19865 22714 22861  20435 20438 23008  20437 20443 23008  20058 20061 23002  867 868 7697  15837 23835 23892  7161 7459 22898  7168 19786 22898  409 410 7698  12829 12832 22793  12593 13570 22863  15426 22856 22864  12218 19303 24804  15086 18535 23032  18048 18049 22953  10836 10862 22865  19867 19868 19869  13866 18906 23964  15237 17574 22971  16165 16166 22837  14649 20103 22866  12591 12731 14236  15426 15428 22864  8421 12478 23014  8419 9096 23014  10750 22845 22872  2681 7339 17673  10147 10592 23040  15758 22805 23518  15185 22844 22868  16814 16836 16837  16836 16837 16838  8870 11982 23253  17239 17240 22711  14245 14460 22867  13305 22790 22817  9725 22838 22849  20213 23069 23260  14649 22866 22870  9139 20077 23017  16117 22491 22985  14649 19959 22870  872 873 22743  22314 22960 22991  10760 22491 22985  8135 19217 22885  17236 17237 17238  12832 14138 22793  14956 21978 22871  13554 14188 23016  10087 22855 22888  13556 15836 23016  15428 22864 22879  8061 8153 23023  8034 8092 23013  15185 15187 22868  19887 19889 23248  19217 22839 22885  9677 9678 23025  5313 7685 22984  19876 19878 23250  14460 22867 22886  15181 15203 22875  11866 22295 22873  11866 22873 22877  8294 8296 22876  22293 22849 22874  15179 15181 22869  10750 10752 22872  20442 20443 23030  14320 15242 23026  15205 15207 22878  15181 22869 22875  14572 16527 23028  16080 16081 23017  8038 11832 22978  20907 20908 20909  16170 24234 24389  8290 8292 22880  12542 22996 23019  15441 16104 22893  8290 22880 22881  19841 22410 22958  18658 22786 22983  17871 17890 23171  13078 19841 22958  11864 22293 22874  8288 8290 22881  18794 18795 22883  15434 16105 22900  18950 19246 23083  10130 22852 22890  15218 15262 22882  12104 13024 23029  18323 18540 23197  15428 15430 22879  10633 12414 23703  11866 22180 22877  15200 15201 22908  11864 22874 22899  14460 17220 22886  15509 17359 22884  18886 18897 23039  15707 21994 25014  15086 15099 23032  1127 7693 22731  1162 7519 22731  19196 23238 23549  16468 23520 24708  10704 20264 22887  10085 10087 22888  14246 17112 23510  15225 22992 22995  13618 13659 23210  9863 10655 22892  15430 15432 22891  15801 17455 22889  15569 15702 16467  15430 22879 22891  15217 15225 22994  9982 9984 22894  9864 9866 22895  10803 17333 23208  15276 16198 23011  9868 9958 22897  7573 23826 23901  9711 9712 23038  9746 12836 23038  18883 18884 23039  15276 23011 23012  20003 20014 23050  15178 16099 22901  10579 22195 22896  14015 16097 22903  12595 12596 12597  15172 15276 23012  8778 8780 22909  16959 17008 24045  10133 10656 22904  16115 22911 22917  17162 17163 22938  10130 10132 22890  15530 16863 25040  17771 17778 22902  8124 8125 8126  16577 21980 22905  22195 22896 22907  12733 15460 22851  13262 13264 22906  10497 18797 22912  11864 22290 22899  11449 23033 23122  15172 18328 23015  15196 15593 16534  20542 20543 23041  15177 15806 23041  9033 23456 23622  15180 22901 22922  15792 19976 22910  14014 22903 22908  8783 22909 23175  18658 22017 22983  14280 15792 22910  15172 23012 23015  14411 15195 22911  14995 22195 22907  10138 11880 23018  15822 17134 22914  12452 12594 14061  8036 11832 23013  7161 7168 22898  11707 20606 23046  9760 12836 23046  16190 23546 23547  18713 24750 25048  8032 8092 23043  13090 15176 22916  17466 17482 22915  9139 22403 23017  17211 21505 22918  17312 17315 23019  14443 14445 22913  15796 19948 22919  17837 17838 23052  16115 16116 22917  12591 12592 12731  17237 17239 22720  11880 22512 23018  14292 15796 22919  17222 17223 17224  10826 10861 22920  10149 22592 23040  15919 19980 22921  12276 17570 23166  12667 17905 23718  14012 15806 23053  8883 8884 22923  15195 22907 22911  10908 10910 22924  18567 18659 22926  12590 12591 12592  18369 18370 24998  10904 10906 22929  15191 16100 22925  17301 17302 22927  10904 22929 22933  8043 19508 23021  11656 12158 22683  12158 22682 22683  8786 8788 22944  13845 14283 22930  19952 21831 22931  10902 10904 22933  16182 23532 23534  13569 13570 22934  15245 17574 23033  16466 16835 24705  17371 22866 23050  9153 9154 9155  18753 18757 22935  12767 22236 23047  10081 10083 22937  17237 17238 17239  11743 18274 22940  12640 19999 22968  10898 10900 22939  17767 17770 22936  22290 22899 22928  9702 22290 22928  12765 13707 23047  15292 17512 23057  19814 19815 22942  10773 22422 22922  10361 10363 22943  15240 21316 23060  11640 15385 23060  12475 17670 23180  8040 8042 22950  9511 19552 23063  8028 8031 23058  9024 18058 23460  14215 17916 23097  17788 17789 23273  17119 22863 23062  17481 22825 22970  17669 17670 23180  870 7578 22680  14850 20816 23062  8794 8817 23048  19122 19419 22949  16153 16273 23061  16155 21885 23061  15184 15467 23063  7428 20931 24538  17315 17371 23044  12106 22741 23029  3297 7518 22757  10675 22861 22989  17514 17515 23064  14429 15783 22946  407 7579 22762  17606 17608 23027  16465 16735 24864  15258 22612 23102  12731 12733 22851  15279 22702 23123  15246 15248 23065  16116 22917 22945  17519 17521 23067  13079 13081 22952  8026 11836 23058  17888 17889 23171  9285 9287 22959  7511 17615 23084  16859 24455 24642  12114 13031 22953  869 7578 22778  9287 9289 23072  8790 11477 23031  17122 17560 23033  7704 16828 24822  8282 9070 23073  8426 8546 22957  13830 13831 22955  1890 1897 22956  8278 9194 23076  3598 7337 23070  13078 22802 22958  19903 22989 23184  14806 15229 22954  8045 9143 23021  20107 20110 23077  15297 17334 23077  15189 15235 22951  16429 23129 23728  10142 10651 23051  8274 11886 23078  8276 9194 23078  21004 21158 23079  15777 23991 24098  20109 20110 23080  20112 20115 23080  8270 9142 23081  8272 11886 23081  16181 22699 23138  20114 20115 23082  20117 20122 23082  18042 18046 22959  14752 20496 23106  8266 11887 23085  8268 9142 23085  20192 21440 23086  20191 20193 23086  8135 22885 22966  7447 17020 17021  15523 17543 23443  18046 23072 23243  20121 20125 23088  20119 20122 23088  17315 23019 23044  8264 11887 23089  8260 9132 23090  20145 20150 23091  20126 20127 23091  8258 9132 23093  8256 11888 23093  20147 20150 23094  20149 20154 23094  15916 18140 23131  10774 22987 22994  18223 18642 23168  8254 11888 23095  14038 14040 23096  17147 22558 23027  16122 19508 23021  12594 12595 12596  8250 9127 23098  8416 8547 22964  15343 20155 23100  15342 20249 23100  17869 17874 23140  15778 15779 22963  12218 19303 24939  9024 18058 23455  871 7695 22680  17481 18595 22970  8246 11863 23103  8248 9127 23103  11884 22612 23102  15156 15158 23087  13862 17598 22965  10134 10136 22960  16175 17615 23084  18082 18139 23104  7660 20241 24269  14750 16237 24361  20248 20249 23105  17892 17893 23168  14643 20213 23069  14752 21606 23106  16003 17198 23106  17867 17870 23140  14465 15344 23107  18371 18372 23099  14643 20004 22995  12807 12809 23101  18508 18513 23195  10152 10801 23111  10081 22937 22996  15263 16162 23112  10937 12471 23114  11875 22422 22961  10143 10145 23122  15204 15206 22969  10148 11884 23108  12731 14236 22851  22422 22922 22961  8038 8040 22978  5159 7511 23084  8132 17113 23920  8135 19508 22966  16813 16814 16836  18431 22786 22983  12880 12882 23099  11617 22702 23123  406 7696 22762  10941 12477 23124  10166 11617 23125  16812 16813 16814  15235 22951 22971  10170 10802 23127  9143 23021 23092  15211 15213 23307  15243 15841 23131  9841 23511 24216  15283 16163 23132  16104 22892 22893  12589 12590 12591  13583 18356 23656  8406 8548 22975  9337 9339 22974  7767 20972 23134  7765 9950 23134  14993 22972 22973  14993 15771 22972  19816 19978 22976  12005 12503 23136  12007 12626 23136  14993 21954 22973  16105 22897 22900  16782 16980 23908  11975 13599 23138  19174 19177 23549  8040 22950 22978  5775 7457 22977  11885 12477 23141  11896 20641 23141  15201 22903 22908  15242 22916 23026  8694 8697 22979  17075 17076 17078  11042 11043 17014  10655 22892 22893  15235 15237 22971  15114 16180 22981  8018 8065 23144  14248 15841 23146  8020 8065 23143  15986 21346 22982  9958 22897 22900  10773 22901 22922  3290 7694 22757  12130 18957 23157  5313 5320 22984  4893 4900 23151  8014 9136 23145  12978 17485 23711  12132 12139 23157  17859 22150 24333  17887 17893 23169  20132 20134 23152  12172 12453 12959  20795 23240 23570  12952 22772 23202  21904 23935 24009  11884 22612 23108  10434 10437 23154  17168 17169 23156  15516 21096 23338  15167 22697 22941  14043 14044 23160  17884 17885 23169  14263 14964 23155  12220 12403 12662  17876 20021 23066  12428 19691 24645  17172 17175 23156  17174 17175 23158  1932 1939 22986  8024 11836 23137  11952 13846 23162  868 7697 22778  15215 15217 22987  14211 15250 22988  10675 20964 22989  13237 13774 22990  11550 19354 22992  3920 3927 22999  18046 18047 23243  12809 12811 23161  15040 15047 23163  9499 17683 23203  16123 23051 23065  10582 11925 22993  10760 10762 22985  16180 23508 23513  18615 18632 23209  16926 20879 24166  20784 20787 23167  15225 15262 22995  12276 12278 23166  10079 10081 22996  2121 7653 23164  2597 7497 23164  16180 16204 23513  8338 8340 23000  12482 17504 23199  10676 21590 23173  20135 20136 23173  14435 15774 22997  18941 18943 23176  8006 8070 23170  16050 22292 22998  17589 17669 23182  8008 8070 23172  8012 9136 23174  16267 24051 24094  8004 11835 23170  16204 23513 23517  11617 22702 23125  12294 12296 23180  872 7695 22743  10139 10636 23001  12292 12294 23182  15219 22314 22991  15176 22916 23026  12476 17589 23182  18222 18227 23190  13470 13638 23181  18219 18220 23190  12405 20586 23005  12314 17675 23228  23256 23502 23503  18431 22642 22983  20891 20892 23184  11973 22699 23138  5656 16981 24969  15951 20401 23186  13006 15575 23224  16182 23534 23539  14477 15665 23189  19603 23880 24008  9686 10585 23225  15007 17255 23007  17313 22996 23019  16949 16975 23045  7998 8082 23188  16060 17326 23006  11655 11657 22932  11655 11656 11657  13570 22934 23516  9154 21112 23291  7505 21904 24009  17440 22909 23175  8002 11835 23187  7996 8082 23191  8034 8036 23013  11037 11038 17013  16182 21442 23539  7994 11834 23191  12453 12594 12595  10676 23173 23552  7490 21466 24023  20435 20437 23008  16437 17272 23445  19384 22529 24432  9499 18987 23203  20058 20059 23002  9502 22697 22941  12403 12589 12590  18507 18512 23204  7605 17064 17065  18226 18227 23195  13285 21747 23011  18504 18505 23204  13285 23011 23012  10985 12533 23254  7613 17234 23074  17234 17236 17237  13570 22863 23412  15521 23517 23527  7410 17688 24487  18628 18629 23241  13285 22014 23012  16067 22825 22970  7988 8089 23201  7992 11834 23200  15907 15908 23203  8419 8421 23014  8043 8045 23021  14852 21071 23206  7986 8089 23205  15225 22992 22994  2618 7448 17037  10180 10803 23208  10182 20746 23208  7984 11868 23205  1827 7488 23207  1820 7661 23207  17234 17237 23074  12308 17731 23234  22014 23012 23015  9695 20571 23212  9235 9237 23212  13554 13556 23016  15242 22014 23015  18511 18512 23209  1386 7501 23213  1379 7649 23213  18614 18618 23218  12402 12589 14180  11956 19233 23544  14222 23341 24598  18611 18612 23218  14580 17513 23055  8902 21030 23217  8900 11619 23217  17312 17313 23019  7982 11868 23215  19111 19113 23241  7978 8093 23216  8790 8792 23031  20597 20599 23219  8903 9667 23221  8901 11702 23221  13637 21012 23288  20692 21569 23223  16080 22403 23017  12714 23776 23982  7976 8093 23222  16107 17249 23229  20026 20442 23030  18621 18624 23233  18623 18627 23233  12314 12316 23228  15455 21145 23232  7972 7975 23230  7970 11874 23230  11872 18056 23478  10138 10140 23018  8059 8061 23023  12308 12310 23234  12073 23977 24050  12815 12817 23231  12332 12334 23235  22433 22954 23110  9678 9711 23025  13439 13441 23238  7551 16811 24411  7968 11874 23236  20794 20795 23240  13589 14258 23238  19112 19113 23249  14320 17484 23026  7964 8067 23239  19053 19058 23274  15652 23675 24097  17801 17803 23244  17152 17818 23120  14158 18367 25083  12330 12332 23244  12104 12106 23029  12469 17801 23244  18994 19282 23249  14572 14574 23028  11379 11380 23246  7649 17784 24656  12906 13583 23220  3094 17957 23245  11383 12654 23246  7962 8067 23247  7960 11876 23247  15099 17258 23032  12904 22379 23220  15076 22303 23214  7417 22372 24032  7958 11876 23259  16796 16797 24792  8911 11891 23262  8913 9116 23262  18997 19000 23264  19095 19100 23299  18993 18995 23264  17142 17582 23177  7954 8079 23261  16264 24382 24511  3836 7528 23245  12709 20849 23270  14314 16656 23284  14632 14635 23270  14538 16214 23284  17939 17940 23579  20801 20804 23272  20798 20799 23272  18319 18322 23276  17130 21908 23275  12735 18260 23068  15245 17122 23033  17139 17671 23196  7952 8079 23271  13520 14161 23269  7950 11879 23271  18999 19000 23274  15951 23186 23597  17606 22558 23027  19824 19825 23037  12591 14236 22980  8915 9116 23279  8917 11903 23279  17930 17931 23276  9712 9746 23038  21908 21929 23275  7948 11879 23278  12815 23231 23623  14417 17189 23447  19052 19056 23285  16702 18713 24619  19049 19050 23285  17133 17730 23237  7944 8085 23282  6244 17148 23431  10792 12434 23277  10796 12623 23281  19889 19893 23248  16236 17929 23303  18883 18886 23039  20075 20077 23036  15252 17099 23286  17159 17162 23755  19878 19885 23250  20535 20536 23287  20803 20804 23287  10790 12434 23280  14044 23160 23585  15019 22151 23269  20674 23069 23260  12452 12453 12594  7942 8085 23290  7940 11881 23290  16036 16040 23298  19055 19056 23299  17333 23208 23315  15778 22963 23504  11052 13001 23595  10786 11966 23289  8919 11903 23301  15585 16658 23302  8031 8032 23043  15615 17739 23401  19177 19196 23549  7938 11881 23304  19094 19098 23310  19091 19092 23310  15895 18104 23311  17432 22755 23022  2485 7538 23300  15177 20542 23041  7934 8091 23305  8923 9144 23308  16311 20225 23309  16313 16832 23309  8792 8794 23048  7591 16899 23331  17504 17506 23199  11068 11071 23312  11067 14127 23312  9503 22755 23022  12536 21930 23839  12168 12170 12415  2492 7402 24176  10147 10149 23040  7932 8091 23313  7930 11883 23313  20531 20534 23314  20528 20529 23314  16223 16224 23197  10140 23018 23051  12542 23019 23044  19145 19146 23318  7650 21798 24386  18018 22359 23288  11872 18056 23472  8925 9144 23319  8927 11906 23319  20560 21483 23320  17730 22398 23237  10534 12437 23323  15217 22987 22994  12367 12368 23322  10530 12439 23324  12461 22609 23335  9760 11707 23046  15676 16122 23092  12542 20003 23044  20523 20524 23325  20526 20529 23325  1960 2044 23326  15385 23060 23553  14172 20413 23327  12765 12767 23047  9756 20466 23366  8931 9195 23329  8929 11906 23329  8433 9191 23328  6167 6174 23330  8431 11823 23328  18815 18818 23483  17837 18211 23052  13659 15643 23210  13145 20014 23050  17205 20520 23333  20521 20524 23333  2380 22636 23300  8792 23031 23048  16122 23021 23092  12367 22503 23322  14012 14013 23053  13868 15514 23347  20066 23525 23545  17671 22526 23196  7609 17074 17075  15228 16763 23415  16271 16589 16594  8933 9195 23334  15502 17190 23349  11706 17636 23420  15504 17190 23352  15506 16120 23352  15500 18564 23349  10973 12162 12861  19200 19201 23350  14013 23053 23056  17512 22727 23055  9990 23148 23149  14576 16454 23345  8937 9073 23346  16180 22981 23508  13551 22004 23316  15494 17188 23357  10140 10142 23051  8967 9065 23354  15496 16118 23357  11657 13636 22932  10062 19490 23358  10064 10637 23358  17582 22576 23177  8963 11529 23361  14449 16053 23353  19469 22609 23335  8973 11856 23348  8975 9064 23348  8971 11856 23351  17981 17986 23379  11905 22247 23337  8965 9065 23361  15464 17215 23359  15462 17204 23359  14013 15240 23056  10599 23128 23129  15492 17188 23368  8977 9064 23356  15230 15757 23415  12934 17110 23567  15337 15794 23362  10056 10638 23367  10058 11515 23367  15730 16626 23365  15728 16256 23365  15490 18537 23368  8026 8028 23058  8699 9756 23366  15333 17033 23364  8957 9068 23384  5173 7398 23332  15292 15772 23057  8941 11910 23369  8939 9073 23369  17248 22954 23110  17430 22913 23147  8981 9141 23360  10052 19480 23372  10054 10638 23372  8961 11529 23373  12012 12405 23371  15329 15802 23370  15331 17033 23370  12402 12403 12589  15772 23057 23059  7140 7614 17155  17818 22649 23120  22244 22245 23337  15468 17215 23374  15470 17221 23374  15772 17514 23059  20604 23543 23795  12589 12591 22980  15327 15802 23375  10046 10640 23381  10048 11514 23381  19354 22992 22994  8955 9068 23397  15323 17034 23378  8086 23538 23793  8945 9069 23383  8943 11910 23383  11640 21316 23060  12172 12452 12453  10042 19479 23386  10044 10640 23386  15319 15805 23385  15321 17034 23385  16153 16155 23061  22246 22247 23363  11597 20816 23062  16735 24310 24864  15484 17218 23390  8189 12063 23494  15184 19552 23063  15475 16124 23389  15473 17221 23389  9677 23025 23547  15486 16121 23390  8845 13293 23402  16428 21731 23447  15317 15805 23388  6216 7645 23393  6209 7477 23393  10036 10641 23394  10038 11516 23394  15313 17035 23391  8947 9069 23395  17515 17531 23064  10032 19433 23400  10034 10641 23400  16481 24227 24437  17513 22727 23055  15309 15808 23396  15311 17035 23396  7743 9126 23403  13408 21812 23399  14736 17125 23553  16053 22651 23353  13410 13661 23399  14839 16632 23404  10462 20949 23404  15482 17218 23410  16243 20835 23406  17610 19791 23689  8951 11854 23408  20964 22989 23184  15307 15808 23405  18372 18413 24731  8777 8779 23401  18025 22913 23147  15246 16123 23065  10026 10642 23413  10028 11517 23413  9140 15615 23401  1022 7378 23414  1029 19785 23414  15303 17036 23409  10523 14230 23498  8953 11854 23397  14736 23553 23559  10022 19406 23417  10024 10642 23417  15480 20548 23410  15299 15810 23416  17521 17532 23067  15301 17036 23416  2975 7341 23392  12161 12219 13724  11919 11921 12967  14975 15810 23419  19514 19515 24167  16175 23084 23332  14736 21158 23559  3563 3598 23070  2268 7547 23418  15911 17585 23451  16946 17107 17108  15512 22858 23336  18072 24117 24467  9289 9503 23072  18024 18025 23147  9988 11706 23420  9986 10877 23420  7919 7921 23421  8280 8282 23073  8280 23073 23076  15248 15256 23075  8278 8280 23076  13870 17542 23347  9070 20674 23260  10971 23802 24444  15348 17038 23427  15346 15812 23427  15297 20107 23077  7591 23331 24609  18949 18950 23083  6251 7466 23431  8274 8276 23078  14040 21004 23079  9720 23265 23616  7856 11815 23430  7858 8066 23430  15350 17038 23433  15352 19717 23433  21112 23229 23555  20109 20112 23080  16485 21993 24985  15522 18058 23443  16940 16942 17107  8270 8272 23081  18057 18058 23460  5159 5166 23084  7854 11815 23434  9176 9482 10988  2093 7443 24586  8775 8777 23435  20114 20117 23082  7484 21797 23178  20065 20066 23525  7850 8072 23436  12063 23494 24795  12603 21916 23083  15358 17039 23438  15356 15820 23438  8266 8268 23085  20191 20192 23086  16961 17916 23097  9694 20892 23670  20718 22894 23510  14221 16189 16719  16702 18713 24750  20119 20121 23088  7846 11813 23439  7848 8072 23439  15363 17039 23444  15256 23075 23102  15365 19751 23444  18523 18525 23453  8262 8264 23089  15213 16549 23307  8262 23089 23090  4445 7610 23263  15911 21871 23451  16533 16857 24859  8260 8262 23090  18055 18056 23478  15158 15782 23087  2254 21806 23392  23149 24286 24378  7844 11813 23446  20127 20145 23091  22068 23999 24610  15602 19587 23753  17907 17910 23448  17904 17905 23448  7840 8084 23449  8256 8258 23093  15375 17042 23450  15373 15821 23450  12220 12402 12403  20147 20149 23094  15525 18056 23460  17178 19553 24967  8252 8254 23095  14038 15537 23096  7836 11808 23452  7838 8084 23452  9143 22624 23092  18846 23524 23696  19596 19598 24506  16637 16638 23202  8252 23095 23098  18845 18848 23524  14183 15580 23673  15379 17042 23457  15381 19850 23457  8250 8252 23098  14884 24789 24958  13435 23120 23126  15342 15343 23100  7834 11808 23458  14156 17005 24127  11019 12156 13712  12408 12409 13648  1414 7358 23459  15256 15258 23102  12807 13592 23101  8246 8248 23103  18082 18083 23104  17127 17136 23935  7830 8088 23461  11258 13575 23790  5327 7418 23432  15344 20248 23105  8991 9033 23456  8997 9024 23455  14127 17129 23985  15388 17044 23463  12880 14017 23099  15386 15825 23463  18053 18054 23478  16003 21606 23106  12589 14180 22980  8993 11867 23456  14465 17132 23107  8995 11867 23455  12171 12172 12452  12471 22840 23564  10150 23108 23111  10148 10150 23108  20537 21000 23109  14643 22995 23069  7826 11541 23465  7828 8088 23465  3374 3395 23464  9052 9603 23024  10150 10152 23111  14907 15571 16726  14907 16726 21486  13255 13791 23466  13257 13613 23466  10460 10461 23428  15391 17044 23468  15393 21753 23468  15263 15265 23112  15265 23112 23113  22150 24333 24383  15265 15268 23113  7410 17688 24562  10937 10939 23114  16811 16812 16813  7824 11541 23469  15268 23113 23115  15250 22988 23286  15268 15270 23115  7820 8096 23470  15270 23115 23117  17892 18642 23168  15270 15272 23117  16299 16301 23471  15272 23117 23118  15537 23563 23571  10939 23114 23124  9711 23025 23548  15272 15274 23118  17609 17610 23582  15400 17049 23473  15398 15839 23473  15537 15538 23571  15274 23118 23121  15274 15277 23121  13435 22649 23120  7818 8096 23474  10143 11449 23122  15277 23121 23123  20815 20975 23699  11948 13182 23475  7817 19957 23474  15277 15279 23123  11918 11919 11920  12507 13879 23477  10939 10941 23124  10166 10168 23125  8132 17113 24048  15538 23571 23578  13435 17555 23126  10168 23125 23127  15404 15548 23479  15402 17049 23479  8999 9024 23472  10168 10170 23127  15243 15916 23131  15283 15285 23132  11503 19943 23482  7505 24009 24090  13600 13721 23042  9001 11872 23472  15285 23132 23133  15538 15540 23578  8022 8024 23137  15285 15287 23133  19956 19957 23482  7765 7767 23134  15287 23133 23135  18054 22424 23496  15287 15289 23135  19992 22433 23110  12005 12007 23136  15289 23135 23139  11973 11975 23138  8020 8022 23143  15408 15411 23484  15289 15291 23139  15406 15548 23484  9266 18151 24452  17867 17869 23140  15291 23139 23142  15540 23578 23580  12533 14094 23254  8844 8852 23035  8844 8845 8852  11885 11896 23141  11955 17576 23554  18783 18784 23490  15291 15753 23142  8016 8018 23144  14690 18054 23496  19942 19943 23490  12170 12171 12172  15262 22995 23069  16613 23163 25054  15540 15542 23580  8022 23137 23143  12682 12712 14227  21787 23721 23961  3549 7503 23491  15410 15411 23492  18262 22193 23887  8014 8016 23145  18812 18813 23483  14248 15294 23146  18762 18763 23505  8016 23144 23145  15542 23580 23584  10497 22943 23183  15415 15420 23495  15601 15602 23753  15294 23146 23152  4893 7374 23151  9003 11872 23486  16594 23706 24211  17237 22720 23074  9051 18947 24952  18054 22424 23486  8690 8693 23504  3052 7534 23493  7608 17069 17070  9005 22424 23486  8697 22979 23366  15294 20132 23152  17846 19999 23489  12130 12132 23157  10434 11555 23154  15741 17168 23153  14263 15741 23155  17169 17172 23156  17806 17808 23506  8686 8689 23508  17607 17608 23582  15741 23153 23155  15516 16108 23338  17174 17177 23158  17177 17180 23159  14043 15244 23160  17177 23158 23159  17213 17333 23315  18446 18447 23521  18785 22015 23505  15417 15420 23509  10988 10989 10990  12811 13022 23161  17112 22894 23510  11952 12957 23162  15244 23160 23165  16456 16782 16979  2121 2597 23164  15422 15425 23512  18847 18848 23644  11977 13599 13600  11977 13600 23042  15267 16176 23516  12976 13664 23519  10990 10991 10992  16533 16831 24859  15047 16613 23163  12957 23162 23167  10992 10993 10997  16585 17434 24278  13434 23177 23179  19190 19191 24936  15521 20652 23517  12172 12959 23020  15244 16202 23165  15550 21384 23518  12957 20784 23167  12278 12479 23166  9694 20885 23687  16892 16893 23192  17889 17890 23171  10950 12659 23703  17884 17887 23169  16224 18540 23197  16441 16548 17511  17116 17118 23412  8004 8006 23170  8008 8010 23172  15424 15425 23526  14095 15140 23528  18764 22119 23521  8391 19263 24831  20136 21590 23173  8010 8012 23174  4928 7634 23531  4935 7373 23531  14574 23028 23345  7927 11506 23533  14176 16281 16282  13869 15514 23336  7925 21745 23533  18943 18951 23176  8010 23172 23174  12170 12415 23020  11716 11926 23534  15429 15552 23530  13434 22576 23177  19038 19040 23178  7788 11478 23537  18448 22075 23535  19270 19273 23540  12296 12475 23180  13434 17588 23179  7784 8086 23538  19266 19267 23540  17219 24157 24158  15438 19852 23541  15440 15553 23541  13468 13470 23181  21130 21131 23542  7457 22977 23424  12292 12476 23182  20066 20069 23545  8783 22776 23175  20604 20706 23543  11908 11987 23520  18170 18292 23613  10871 10873 12993  16285 17048 24793  8852 12159 23035  12592 12735 23441  16202 23586 23593  20786 20787 23552  20787 23173 23552  16190 23025 23547  19869 19870 19871  15526 21176 23547  20891 20964 23184  18981 19326 24421  15515 16223 23185  20786 23552 23556  20401 20402 23186  15345 16190 23548  16892 16896 23192  17125 23060 23553  8817 23048 23525  10461 10462 10463  16593 16811 16812  8000 8002 23187  12443 16870 24787  11883 23313 23758  1197 22584 23497  7998 8000 23188  13694 23981 24716  13418 23196 23198  1204 7691 23497  14477 16430 23189  18219 18222 23190  11180 11181 11258  8000 23187 23188  11083 11955 23554  11081 11260 23554  3108 22843 23493  17911 19935 23648  20821 21144 23556  20821 23556 23561  7994 7996 23191  13599 23138 23626  14160 15690 17015  13774 22990 24372  14036 15699 20973  15397 15536 23560  17506 17812 23199  18226 18513 23195  17144 23240 23570  13801 14139 16250  12219 12220 12402  11987 12729 13829  7521 17030 17093  5320 22984 23432  13418 22526 23196  11635 20547 23563  12685 12994 14163  13418 17638 23198  15550 22805 23518  15454 16200 23566  9705 20821 23561  17121 17136 23870  2415 2583 17165  10951 11908 12715  23255 23257 23258  7990 7992 23200  9705 23561 23562  12220 12662 23054  7440 17081 17082  2037 2058 23602  15907 18987 23203  7988 7990 23201  12008 12429 23572  7990 23200 23201  13288 20012 23891  3577 7467 23568  20402 23598 23604  15519 16470 16471  23149 23150 24286  9705 21054 23562  18504 18507 23204  13904 17186 23734  21054 23562 23565  9503 23072 23243  9603 13725 14019  7984 7986 23205  9602 23612 23619  12607 16950 24860  18576 23459 23848  5166 23084 23332  17610 19791 23763  16533 16831 24987  11702 21071 23206  1820 1827 23207  18511 18632 23209  14852 21054 23565  10180 10182 23208  14070 14160 23575  5978 19777 23568  10585 23225 23226  16966 23595 23596  21084 23160 23585  9602 20742 23619  15449 16196 23211  21083 21084 23584  9237 9695 23212  9341 9729 23583  15761 16217 16688  19824 22943 23183  1379 1386 23213  18629 19111 23241  12169 12170 12171  20742 23619 23624  15542 21543 23585  7980 7982 23215  14980 19202 23577  8636 9091 23586  23250 23251 24230  13009 19039 24263  19440 19453 23587  9954 10002 10971  12939 22150 24383  7980 23215 23216  7978 7980 23216  15642 20590 23737  8900 8902 23217  11639 20742 23624  3220 3276 23960  18611 18614 23218  20571 23212 23756  15532 18143 23605  9484 23186 23597  7392 16897 23487  13714 22303 23214  20597 20600 23219  16237 24361 24433  13774 21813 23592  8901 8903 23221  17803 17804 23589  16151 16273 23591  16149 16633 23591  7647 21783 24777  12904 12906 23220  13563 14027 23480  8632 9484 23593  16441 17511 23759  7975 7976 23222  11639 23624 23627  18284 18285 23613  17249 21569 23223  13563 23480 23481  16176 22934 23516  13563 21030 23481  14139 14141 23574  16945 16949 23045  12402 14180 23071  16107 16108 23229  12316 12472 23228  12162 12861 23054  7446 24077 24557  8693 22963 23504  7970 7972 23230  15544 16202 23597  10513 10516 10520  11639 21008 23627  15879 22859 23544  15534 18143 23607  8630 9484 23598  15556 15621 23599  12817 12990 23231  13582 21145 23232  16637 22772 23202  18621 18623 23233  12310 12473 23234  4445 4452 23263  13417 23237 23242  21008 23627 23631  13801 16250 23649  12170 12172 23020  12967 21096 23338  13582 23232 23240  12334 12468 23235  16971 16972 16973  12471 23104 23564  7966 7968 23236  16938 17103 24003  12162 12219 12220  8191 8214 8220  8220 8226 8439  8626 9602 23604  7966 23236 23239  13439 13589 23238  16177 16178 16643  13417 22398 23237  8439 8529 8559  7964 7966 23239  13582 20794 23240  9635 21008 23631  8057 11537 23609  15756 16646 23615  19030 19032 23615  13417 17800 23242  15631 15636 17001  3780 3794 23608  14141 15564 16521  16874 22448 23658  12910 12912 23601  7479 16862 24762  17543 23456 23622  20399 20402 23612  8154 18268 24173  15199 20736 23614  14765 15609 23614  8689 22981 23508  17002 17140 23679  12330 12469 23244  5691 7514 23594  16903 17026 24217  3094 3836 23245  8189 8190 8191  10497 22912 23183  14417 22774 23447  12065 20747 24150  16502 17046 23995  8867 8868 8869  18994 19112 23249  12011 12667 23620  12009 12626 23620  9505 9609 23569  11380 11383 23246  18356 18357 23656  14186 14193 16203  7960 7962 23247  12167 12169 14020  7793 11452 23629  18381 18382 23656  7795 8145 23629  12199 14036 20973  12199 12392 14036  17350 23231 23623  20560 23320 23816  13745 22054 24062  18360 18363 23339  13687 13803 15052  10603 23265 23266  12813 13022 23623  17144 21148 23570  10523 10524 10527  19767 19768 23632  5523 7420 23600  7956 7958 23259  14040 23079 23560  1687 7496 23630  9611 9662 9786  19689 19690 23632  17335 20213 23260  7956 23259 23261  21148 23570 23573  19885 23250 23251  20869 23748 23850  23297 24149 24992  7954 7956 23261  8911 8913 23262  14255 17444 24459  9749 9857 10599  10867 11014 12142  21012 22359 23288  13657 19701 23749  18993 18997 23264  11891 21148 23573  11037 11039 11305  11258 11307 13575  19824 23037 23183  14632 20849 23270  7950 7952 23271  7476 17327 23751  13520 22151 23269  20798 20801 23272  12424 12665 23641  6671 7408 24475  6678 7595 24475  7709 7711 23283  18999 19058 23274  13575 13576 14169  16482 24025 24079  23292 23293 23294  15479 16454 23690  17116 23412 23516  16630 17585 23451  7492 21789 24479  13416 21929 23275  17931 18319 23276  10792 10794 23277  7946 7948 23278  8915 8917 23279  10788 10790 23280  7946 23278 23282  10794 10796 23281  19246 23083 23654  10794 23277 23281  7944 7946 23282  10984 10986 12934  12219 13724 23071  14314 14538 23284  20224 21549 23638  9629 9731 9990  19049 19052 23285  10788 23280 23289  15250 15252 23286  20536 20803 23287  10786 10788 23289  14980 22694 23577  20224 23638 23640  7940 7942 23290  20630 21039 23655  15537 23096 23563  19055 19100 23299  16035 16036 23298  3892 7508 23652  19887 23248 23643  9750 10603 23265  2380 2485 23300  7608 17072 23660  16040 20224 23640  16179 23708 24301  15569 16467 23889  16235 16236 23303  8919 8921 23301  15585 16830 23302  10998 11000 12178  16035 23298 23306  7936 7938 23304  7599 16979 25070  7479 16862 24839  8921 23301 23308  18682 18690 23659  7936 23304 23305  18683 18687 23659  4305 4312 17164  7934 7936 23305  17095 23429 23602  16035 16205 23306  8921 8923 23308  16311 16313 23309  18104 18109 23311  19871 19872 19873  19091 19094 23310  13785 16484 23874  7605 17066 23657  15543 17921 23683  11067 11068 23312  7930 7932 23313  16233 23819 23823  2835 7546 23661  20528 20531 23314  18108 18111 23664  16398 20489 23663  16634 21388 23663  17947 17949 23683  19786 22898 23651  16233 16235 23819  3563 23070 23491  19873 19874 19883  16190 23025 23548  19097 19098 23758  16612 19358 24763  19097 19146 23760  13182 20746 23315  16231 23813 23815  23128 23130 23425  18848 23101 23524  16231 21240 23815  19097 23758 23760  12437 19145 23318  16849 16850 23034  8925 8927 23319  13031 22953 23411  15531 21483 23320  15531 23320 23321  16235 23806 23819  15531 15586 23321  12368 12463 23322  19201 19202 23577  15586 15587 23817  9731 9799 23588  18049 22953 23411  10532 10534 23323  15587 23817 23818  10532 23323 23324  15587 20778 23818  9339 22974 23583  15559 17099 23676  10008 10580 12396  15561 17327 23676  20778 23818 23820  9211 10980 23642  4872 4879 23677  15588 20778 23820  15588 23820 23821  10530 10532 23324  16232 23822 23823  20523 20526 23325  16232 16233 23823  14076 16414 23931  18867 18869 23681  16562 18084 23692  20065 23048 23525  18882 18884 23681  4354 4361 23913  2044 7543 23326  17148 17149 23431  17452 24420 24482  14172 16584 23327  17539 17540 23690  8431 8433 23328  10866 11013 13635  15586 23807 23817  19999 22968 23811  16205 23641 23650  16205 20413 23650  8929 8931 23329  6167 7469 23330  15467 17810 23839  13465 13732 23682  15549 20635 20636  12392 20635 20636  10520 10714 10800  5166 5173 23332  16171 18842 24014  11305 11306 12408  6321 7442 24535  23254 23256 23503  7519 22731 23283  20520 20521 23333  7619 16923 25080  11956 23544 23782  12534 13585 13790  7529 17645 24106  19515 24167 24297  12162 12220 23054  16439 17089 24941  15453 16678 23579  9800 10944 23268  12161 12162 12219  11452 23629 23835  8933 8935 23334  23283 24356 24466  16545 17089 24941  12168 12169 12170  17989 17990 23692  7709 22731 23283  12461 22157 23335  7399 18102 24312  8935 23334 23346  22157 23335 23342  14094 23254 23255  13551 22764 23316  12994 14163 23423  6195 19791 23689  6202 7477 23689  11905 22244 23337  14574 14576 23345  8935 8937 23346  16053 22157 23342  15500 15502 23349  13868 13870 23347  10637 19200 23350  15504 15506 23352  8973 8975 23348  8969 8971 23351  15494 15496 23357  15674 16744 23691  14449 15770 23353  8969 23351 23354  8967 8969 23354  13600 13718 13721  12219 12402 23071  14036 15697 15699  10062 10064 23358  8977 8979 23356  9169 9172 23407  16237 16239 24433  15517 21378 23693  16644 16662 16967  15462 15464 23359  16729 22341 23684  7590 16887 23841  8979 8981 23360  8979 23356 23360  15335 15337 23362  15390 16586 23658  8963 8965 23361  15335 23362 23364  13182 23211 23475  10009 10581 11967  15333 15335 23364  15490 15492 23368  15728 15730 23365  9141 22246 23363  17656 17659 23697  17657 17662 23697  16790 17754 23581  8697 8699 23366  10056 10058 23367  8939 8941 23369  15520 15521 23527  17772 17775 23700  17163 22898 23651  15536 23079 23560  11555 23154 23476  16592 16593 16811  15329 15331 23370  13670 13672 15652  7540 18181 25086  12010 12012 23371  7370 18091 25042  12763 13707 23694  16654 16851 24535  17768 17769 23700  10052 10054 23372  15520 23527 23532  19875 19882 23936  16612 19358 24890  8563 9029 15617  17162 22938 24878  9052 9209 9603  8959 8961 23373  8882 8887 12144  15468 15470 23374  13592 22198 23696  7670 17270 23837  9503 23022 23243  8893 8898 9078  17981 17985 23379  15325 15327 23375  9192 9505 9688  19189 19491 24119  15325 23375 23378  8959 23373 23384  15520 16182 23532  8059 23023 23609  15323 15325 23378  13668 13669 14059  10872 10874 12727  7105 7112 23952  12201 18946 24696  10046 10048 23381  13785 14070 16484  22042 22043 23429  10003 10670 12209  13712 16952 24078  8943 8945 23383  7370 18091 24991  2254 2975 23392  8957 8959 23384  11658 11660 12681  10986 12534 23621  20547 23096 23563  15319 15321 23385  10526 10634 12145  21798 24386 24588  16926 20879 25078  15890 16624 23705  1001 7643 23707  994 7378 23707  10042 10044 23386  14031 16190 23546  16591 16592 16593  15484 15486 23390  16181 23138 23626  16202 23165 23586  15315 15317 23388  7694 16995 25055  16789 22109 23581  15473 15475 23389  9792 10806 23340  15315 23388 23391  8853 8859 9628  12761 22519 23694  7674 17136 23951  15313 15315 23391  13659 14183 15643  19438 19440 23709  10464 10469 14186  16177 16643 24124  6209 6216 23393  11924 12966 23343  9750 9858 10603  10036 10038 23394  19866 19867 19868  8947 8949 23395  15309 15311 23396  10806 23340 23341  13634 21185 23398  13408 13410 23399  10032 10034 23400  8949 23395 23408  15480 15482 23410  8779 9140 23401  8953 8955 23397  17902 17905 23718  7741 7743 23403  13578 14123 16177  8136 19193 23971  15568 17007 23721  14839 20949 23404  8128 8169 14271  15305 15307 23405  16223 23185 23779  12685 14163 23603  15781 20835 23406  9157 9159 9748  16590 16592 16804  8949 8951 23408  15305 23405 23409  15303 15305 23409  6734 7393 25043  6741 7596 25043  15760 16212 16213  11991 12480 13715  11923 12390 13808  15167 15549 15660  16894 24480 24905  13020 13864 14219  15228 15230 23415  8178 8188 8189  10026 10028 23413  2191 7604 17028  9191 23328 23709  13869 22858 23336  13006 14090 15575  16331 20360 24607  1022 1029 23414  8863 8865 8867  9686 9742 10585  9791 9805 12062  13031 22335 23411  10798 10983 12723  7476 17327 23840  10483 10484 10491  15299 15301 23416  16204 23517 23527  16553 22780 23634  16011 16012 23724  12680 21673 23724  10466 10467 10483  10973 12161 12162  8196 16967 24981  10022 10024 23417  1967 2268 23418  9612 9663 9766  10493 10508 13773  11658 12681 22683  14975 16922 23419  10515 10522 10523  8887 8893 23662  9610 9633 9856  7739 8185 23725  9720 9750 23265  5285 21414 24861  4179 16852 25028  4879 23677 24081  1757 7351 23727  1764 7658 23727  11657 11659 13636  12533 13584 14094  17029 17032 24221  7490 21466 24227  13720 13723 14018  13756 15378 15569  14185 23974 24045  17542 17543 23622  9986 9988 23420  18382 23656 23834  19894 19904 24644  11115 11235 23731  11117 11962 23731  7919 8157 23421  14027 16196 23480  20402 23186 23598  9159 9618 23671  18254 18255 23738  13660 14184 14185  8737 13904 23734  8739 8849 23734  9211 9212 9498  9732 9800 23268  7457 18865 23424  10634 10951 23665  19878 19880 19885  19889 19891 19893  15346 15348 23427  5320 5327 23432  7856 7858 23430  16239 16240 16517  15212 24059 24365  6244 6251 23431  9091 23165 23586  7649 17785 25045  14666 15642 23737  16263 16264 24511  16594 24029 24211  9800 9955 10944  12662 23054 24131  7602 17101 17102  18451 18453 23862  15350 15352 23433  9059 9665 23380  17783 17785 25045  8775 8856 23435  7852 7854 23434  16200 23206 23566  16428 23447 23715  12985 17743 24726  8564 14214 23387  15581 15612 16595  12662 24131 24155  7852 23434 23436  7850 7852 23436  2065 2170 23741  6174 23330 23906  13668 15630 23653  9155 13560 23529  18259 18262 23738  8852 8858 12159  11017 14247 23685  15356 15358 23438  13671 13673 14050  12425 15208 15705  5495 5502 23740  9609 23148 23569  7846 7848 23439  2275 2926 24034  11955 20863 23787  15522 15523 23443  13786 14159 16254  15140 22764 23695  16331 20360 24683  7526 24405 24849  14047 21104 23442  15363 15365 23444  18083 23104 23564  14031 21442 23546  10463 10465 10466  7842 7844 23446  14992 19650 24542  9484 23186 23598  21731 22774 23447  16966 23596 24301  7842 23446 23449  17984 17988 23792  5705 7395 23743  17904 17907 23448  7840 7842 23449  12201 18946 24814  13618 23210 23633  11365 12722 23749  11367 13657 23749  9628 20910 24996  16810 24349 24721  16724 16725 24122  16696 24153 24730  16964 16965 23558  4921 7634 23751  4914 7476 23751  15373 15375 23450  16196 23211 23475  20200 23212 23756  21916 23083 23654  11702 23206 23566  13904 21871 23451  7836 7838 23452  9196 19587 23753  18525 18527 23453  2436 7538 23752  5537 7684 23744  19098 23313 23758  13001 23595 23596  11955 17576 23787  7991 11509 23754  8995 8997 23455  8991 8993 23456  14076 15209 16414  22042 23429 23602  10580 10866 23618  15379 15381 23457  10507 10708 23422  15213 15459 16549  6790 16992 23832  5180 7398 23748  12266 12269 23698  15255 16043 23757  7832 7834 23458  1414 1421 23459  15525 18057 23460  8126 9502 23536  7832 23458 23461  2212 7344 23761  2842 7648 23761  17803 23235 23589  11660 11923 23688  15601 23753 23921  7830 7832 23461  7520 16864 24407  10460 23428 23699  12167 12168 12169  14513 17610 23763  7579 22762 23611  15386 15388 23463  8315 8317 23766  3878 7334 23765  9799 23116 23588  7826 7828 23465  13667 13670 23674  3374 7525 23464  13255 13257 23466  13717 13719 16558  7356 18698 24374  14668 22860 23737  18444 18678 23777  18200 18205 23750  15391 15393 23468  6755 7421 23639  19875 19877 19882  7647 24777 24974  9955 10003 23646  12728 14060 23376  19890 19894 19904  19879 19886 19900  9156 9158 9590  15167 15660 22941  3801 7670 23701  3689 7330 23701  8127 8168 12226  7822 7824 23469  19609 23538 23793  15579 23543 23795  7860 7862 23773  12004 12714 23776  12006 12429 23776  15339 15341 23774  16171 18842 24091  14250 16089 23775  13750 14298 15640  7822 23469 23470  16254 17083 24577  6433 6440 23557  16971 16973 16974  19023 19025 23695  12995 13667 13668  12590 12592 23441  19136 19137 24661  7820 7822 23470  16661 23803 24741  13755 15377 16073  13722 13753 16179  13560 19866 23529  16299 16450 23471  16589 16590 16591  16265 18584 24911  16422 16982 24554  11017 11018 13017  14992 19650 24597  8999 9001 23472  9633 9732 23672  18440 18441 23777  15398 15400 23473  8898 9078 23550  3409 7467 23772  3304 7638 23772  2373 7426 17100  10915 11444 23779  10507 10514 10708  7817 7818 23474  10460 20815 23699  11948 12507 23475  18235 18238 23781  20747 24150 24283  18053 18055 23478  11555 19935 23476  15883 16288 23782  14060 23376 23377  11922 11992 13768  13879 20598 23477  12410 12686 15472  15402 15404 23479  10590 10799 12066  9792 9806 10806  9743 9792 23340  9619 9687 9841  8860 8862 8866  13023 14091 15638  12481 12668 14046  8177 8187 8215  11661 11924 23343  13019 13655 15655  11924 12605 12966  20598 23480 23481  20598 20599 23481  4900 23151 23897  13577 14122 15530  3339 3570 23657  15594 17576 23787  11503 19956 23482  16102 16103 23798  16147 16633 23788  16145 16673 23788  12010 23371 23572  10972 10973 12161  6307 6314 24266  18813 18815 23483  19081 19082 24350  16855 17111 24147  13253 13791 23791  13251 13810 23791  12821 17353 24114  12728 13677 14060  17704 17705 23785  7485 21796 24183  15406 15408 23484  9676 19571 23799  16590 16591 16592  5334 7418 23780  17163 22938 23651  5341 7686 23780  16982 23331 24554  9612 9766 23645  16010 21649 23801  15590 21763 23799  9003 9005 23486  8399 11833 23800  4333 4340 23660  19451 19605 23814  10525 10633 12414  18783 19942 23490  10950 11907 12659  13022 23161 23644  3549 3563 23491  11966 22037 23806  11300 24733 24985  20654 23320 23816  11986 12728 23376  11047 11049 23595  873 874 23770  7098 7105 23625  1197 1204 23497  17846 22123 23489  11553 12691 23807  16980 23010 23908  15623 16625 23808  18109 24431 24498  15624 19126 23808  16472 17110 23567  3052 3108 23493  15410 15413 23492  12665 23306 23641  8870 8886 11982  8530 8564 23387  9059 9193 9665  9032 9059 23380  7536 17098 24252  8892 8897 9060  9798 11970 23809  18981 19326 24874  9053 9210 9211  8564 9030 14214  15566 20731 23812  15413 23492 23495  14142 15565 16429  10996 12984 23440  3535 7673 23810  3542 7503 23810  2415 17165 24176  19447 19449 23814  13942 14821 23813  866 867 23768  410 411 23769  22284 23525 23545  10370 17027 24714  17898 17901 23811  14096 21278 23816  13468 23181 23682  15413 15415 23495  14145 14165 16771  7529 17645 24225  9077 16232 23821  10873 12993 23344  14690 20453 23496  13627 15588 23822  15563 16216 23824  13614 17260 23929  12976 12978 23519  8689 8690 23504  15467 17130 23839  20453 23496 23507  18762 22015 23505  13576 13578 23730  8853 9628 23402  18558 18559 23831  7869 17318 24044  3059 7522 23827  7374 23950 24010  17806 17809 23506  15528 20453 23507  8685 8686 23508  5817 5824 23833  12265 18732 23698  11016 12167 12168  16235 23303 23806  8125 8126 8127  15417 15419 23509  19566 22486 23771  18845 18846 23524  8685 23508 23513  11509 19347 24012  15199 16555 24830  15528 23507 23514  9627 18017 24837  15419 23509 23512  10874 10972 10973  16176 20718 23510  2800 7655 23767  2758 7490 23767  15419 15422 23512  8685 21239 23513  8139 19376 23836  15528 15550 23514  11921 11991 23733  12908 12910 23834  15267 17116 23516  19925 21826 24813  21239 23513 23517  13714 23214 23684  15669 17270 23837  15671 17054 23837  16512 16848 16864  7536 17098 24199  9502 22941 23536  16301 23471 24032  14516 15632 23859  20652 21239 23517  18446 22119 23521  9154 9155 9156  16789 16790 23581  16848 16849 16850  14450 21384 23518  15603 17327 23840  15605 16248 23840  16205 23306 23641  18205 18207 23750  14450 23518 23523  15518 16469 17004  15459 15695 23702  13753 13755 23708  15586 23321 23807  13802 14143 23437  7398 23332 23607  14450 15762 23523  20508 20993 23841  12437 23318 23757  15424 15427 23526  16595 16983 24664  15211 23307 23722  16204 21355 23527  8817 22284 23525  16757 20226 23842  20227 20241 23842  14095 15613 23528  9156 9590 23291  13802 14140 14143  11656 11657 11658  15427 23526 23530  12713 13802 23437  16588 16589 16590  21355 23527 23532  7486 20386 25002  10464 14186 23428  19737 19738 23844  16271 16588 16589  10484 10493 23739  15427 15429 23530  4928 4935 23531  13719 13722 23717  8467 11971 23846  18000 18002 23946  8465 9094 23846  11926 21355 23532  7925 7927 23533  7492 24479 24681  1547 18727 23904  11715 11716 23534  11478 22075 23535  11656 11658 22683  11987 13829 23520  10994 10996 23440  8339 9036 23847  11001 11009 11017  10996 10999 12984  11715 23534 23539  13737 20973 23797  13634 23398 23655  7786 7788 23537  20199 23756 23911  12668 13023 23712  7786 23537 23538  1428 7493 23848  7784 7786 23538  12605 13019 23713  7374 23151 23950  19267 19270 23540  11715 15526 23539  16602 23611 24808  3227 3248 23849  5187 5194 23850  15438 15440 23541  12969 14197 23852  13184 21130 23542  13184 23542 23543  15879 15881 23544  13184 20706 23543  13750 15640 23150  7434 16980 23009  16428 16754 23715  18083 22284 23545  18198 18200 23855  3521 7528 23854  12157 12683 12935  16282 16599 16833  8530 23387 23885  15453 17940 23579  2240 2555 23845  7565 18817 23853  9677 21176 23547  16584 23327 23355  16307 16409 23858  16263 24511 24629  9590 23291 23292  17901 22968 23811  15676 23092 23488  15345 20543 23548  7403 17064 23878  1967 23418 23661  15690 17015 23454  21891 22549 23790  2464 2611 23860  18668 18671 23864  11500 19025 23863  9618 23225 23671  10676 20895 23552  15385 21408 23553  22761 23784 23796  12950 22689 23859  11081 11083 23554  14075 18877 24137  20895 23552 23556  18665 18666 23864  19609 19852 23793  21408 23553 23559  11015 11016 12167  20895 21144 23556  20786 23556 23561  1043 7643 23865  1015 7470 23865  15536 21408 23559  12674 20053 23798  10637 23350 23774  15579 20102 23795  3731 3759 23867  7725 7727 23869  20102 23795 23796  15397 20547 23560  2520 7537 23866  20785 20786 23561  19243 19246 23654  12596 12693 23857  18109 23311 24431  20785 23561 23562  23307 24439 25038  13169 13170 23871  13172 13176 23871  13648 15196 15593  12168 12415 23706  16201 20785 23562  11635 21065 23563  7604 17028 24221  16201 23562 23565  16771 23667 23668  10873 10874 10972  3577 5978 23568  16200 16201 23565  16269 21113 23873  15454 17141 23566  18120 18122 23875  21065 23563 23571  16270 16271 16588  21552 21554 23877  17900 22602 23872  20795 20797 23570  15582 16452 23877  8894 21065 23571  15598 17726 23870  20797 23570 23573  21378 23693 24260  15341 22694 23577  17607 17609 23582  12008 12010 23572  8894 23571 23578  20797 20799 23573  19441 23328 23709  8894 20675 23578  3794 23608 24163  3024 22193 23887  7670 17270 23914  8858 8860 23746  14019 15763 17272  15676 23488 23691  11907 11986 23723  20102 22761 23796  20675 23578 23580  8435 9191 23880  20488 20489 23883  20585 21438 23883  13932 15700 23884  14673 15656 23884  11954 20675 23580  14597 17834 23892  7491 22109 23581  17789 23273 24102  19876 23250 23729  18871 18873 23893  18868 18869 23893  3066 7534 23887  11954 23580 23584  7751 7761 23891  7749 13288 23891  11014 11015 11016  2569 7546 23888  19966 20504 23894  15626 17600 23894  9154 9156 23291  17839 17840 23902  9339 9341 23583  11954 21083 23584  22624 23092 23488  7356 18698 24574  20393 20475 24208  15592 20870 23898  15658 17990 23902  14044 21543 23585  16248 23151 23897  16772 16773 23862  14141 16521 23574  8634 8636 23586  4907 7476 23897  20069 22840 23564  11659 11661 23762  15665 23189 24006  7650 17126 24184  19453 19603 23587  11444 23185 23779  12173 13744 23900  17804 17807 23589  8634 23586 23593  17739 17740 23778  19738 23330 23906  7704 16828 24810  18559 21813 23592  9676 19515 24297  17984 23792 24826  16149 16151 23591  19593 19696 23903  23265 23267 23616  15599 15618 23901  12868 13713 23895  8632 8634 23593  1554 7355 23904  15692 16270 16271  6181 7384 23906  5691 5698 23594  15544 15951 23597  1792 1799 23907  16847 16848 16849  8628 8630 23598  15556 20448 23599  19902 19903 23670  5523 5530 23600  15734 16721 23909  15732 16626 23909  7741 23403 23725  2107 2198 23910  7427 17067 23986  18285 18292 23613  17224 23010 24288  16206 17187 23611  8628 23598 23604  9274 9684 23918  16043 23318 23757  15812 23382 23773  12912 13639 23601  17159 17160 23755  15532 20869 23605  18905 18912 23876  17659 23776 23982  16837 16840 23905  15534 16175 23607  8626 8628 23604  12143 12697 12698  2247 7489 23915  980 7659 23915  2037 22042 23602  16074 16978 25031  3780 7336 23608  8057 8059 23609  12181 17444 24236  7543 24457 24543  19868 19869 19870  1701 7352 23917  16769 18098 23926  17853 17855 23919  15756 19030 23615  15558 16255 24622  7987 8132 23920  20397 20399 23612  9841 23511 23726  14765 20736 23614  12064 18959 23921  12171 12452 23879  16967 23805 23927  14075 18877 24215  13002 17741 25052  14160 17015 23575  7469 23955 24019  20397 23612 23619  20863 23787 23945  3248 23849 24889  15574 21611 23617  20395 20397 23619  16246 16291 23922  12009 12011 23620  13592 23101 23524  20395 23619 23624  19023 23316 23695  10872 10873 10874  12147 12221 12607  17108 24152 25004  12997 18006 23946  12813 12815 23623  10994 23440 23882  15570 20395 23624  9033 22245 23622  15583 20448 23825  16143 16673 23923  7664 21787 23961  11003 11005 11007  15583 23825 23828  11919 11920 11921  15583 16231 23828  11264 20220 24965  20653 20654 23829  12171 23879 24611  16430 23189 24087  6118 6125 23925  15570 23624 23627  10997 17109 24152  12269 12271 23930  5817 23833 25027  16648 16698 23929  13614 21261 23929  23341 24322 24853  7453 18900 23943  15547 15570 23627  19136 24661 24865  15341 23350 23774  8313 8315 23934  20448 23809 23825  7793 7795 23629  8128 14271 23536  9635 21549 23638  15547 23627 23631  7761 7763 23933  1687 1694 23630  8845 8852 8853  4382 7434 23009  19690 19767 23632  18379 18382 23942  15547 21264 23631  19183 19198 24119  16196 23477 23480  10867 12142 23590  1484 7498 23938  1491 7662 23938  7862 23382 23773  15791 22101 23937  17998 18000 23946  18357 18381 23656  11966 23303 23806  9665 23258 24834  16126 24548 24883  21264 23638 23640  16942 16946 17107  12145 23665 23666  14066 21264 23640  12424 13586 23641  7664 21797 23899  13713 22780 23634  18895 18896 23943  15621 22761 23784  5719 7680 23940  9157 9748 23529  17510 24359 24393  7913 7915 23949  5712 7395 23940  17070 17072 17073  17235 24591 24823  14168 16751 23948  12691 23321 23807  13586 23641 23650  3640 7670 23914  3528 7506 23914  18207 22846 23750  17189 23447 23715  15607 16248 23950  3556 7523 23947  4410 7440 17081  19370 19837 23953  10871 10872 10873  13756 15569 23686  17909 17911 23648  3850 7674 23951  3871 7334 23951  13586 15513 23650  18280 18283 23956  18282 18288 23956  13395 17321 23978  14060 23377 24378  16726 21486 21487  15360 19738 23955  12389 17736 23969  16437 24329 24651  19017 19019 24022  3885 3892 23652  9174 9176 9482  9167 9169 9171  8403 9090 23957  20975 23699 24180  9066 21916 23654  13634 20630 23655  23662 24004 24751  7636 18091 24916  8183 8197 23959  10502 10513 10516  16430 24087 24170  10461 10463 10464  19605 23814 24840  6944 18820 23968  12534 13790 23621  7526 24849 24953  10873 10972 23344  15390 22448 23658  8845 8853 23402  11013 11014 11015  18865 24594 24691  7543 23326 24457  7581 17189 23715  6951 7563 23968  14059 15631 15636  15612 16595 23610  11052 11054 13001  8869 14042 16431  13195 13866 23964  8559 9163 11959  1344 7494 23965  17138 23629 23835  15644 17558 24053  15572 22952 24012  18682 18683 23659  16512 16864 23467  19626 19786 23651  16676 20972 24239  19413 19420 23970  7636 18091 24991  15664 17151 23812  8156 19028 23975  11089 11180 11181  15640 23588 24852  13249 13810 23973  13247 14026 23973  11043 11135 17014  1967 2835 23661  13599 13600 13717  2688 7545 23972  19188 19192 23971  18733 18737 24175  15479 17539 23690  21442 23539 23546  7426 16932 16934  10872 12727 23522  16175 23332 23607  16398 21388 23663  18111 18116 23664  7389 19655 23954  19081 24350 24544  5348 7686 23966  19629 19630 23954  3073 7529 23976  13397 14205 23978  12727 16847 25050  16108 23229 23555  17754 23581 23896  8568 20747 24283  12069 17219 24158  12224 13694 23981  11942 21361 23981  9096 19303 24939  19187 19193 23971  20598 23477 23480  11087 17097 24612  12265 12266 23698  3514 7673 23984  3507 7335 23984  23225 23226 24240  6328 6335 24855  16139 16490 23987  20892 23184 23670  16987 16990 24993  7703 17369 25077  20474 20475 24031  11038 11042 17013  19376 19378 24738  20908 20909 20910  19765 19768 23989  19766 19916 23989  16519 16520 24313  14189 17040 24666  15559 15561 23676  8343 11816 23992  4872 7474 23677  7469 23330 23955  9327 9329 23993  7469 19651 24019  16693 20339 23985  12536 17130 23839  19883 19896 19899  10951 12715 23665  16502 20361 23995  12450 20733 23995  15543 17947 23683  18841 18842 24014  15691 15692 16270  13717 16558 23626  7415 16917 24581  12916 12918 23994  19174 23549 23764  18867 18882 23681  7485 24183 24395  2240 23845 24897  15622 20555 23998  8223 21476 23998  13465 13468 23682  13464 13732 23999  8882 12144 23710  11099 11101 24001  22123 23872 23924  15746 17838 24007  7572 18843 24014  12065 17600 24033  5089 5096 24002  7506 23189 24006  13788 15700 24005  13787 21422 24005  15667 17270 24006  10461 10464 23428  15745 17735 24007  10670 12209 23522  8437 8440 24008  10866 13635 23618  16470 16471 23628  15681 16426 24010  12682 14227 24078  8220 8439 23669  15698 16734 24442  7417 23471 24032  13714 22341 23684  15673 16744 24013  8893 9078 23662  18727 18728 23904  19347 22952 24012  4823 4830 24015  17807 23589 23742  12468 23589 23742  17113 17578 24048  8563 15617 23716  15631 17001 24018  5698 23594 23743  18972 18973 24024  15649 21466 24023  15648 20193 24023  13466 22068 23999  7638 23772 24675  2065 23741 24618  15881 23544 23782  11035 11037 11039  5530 23600 23744  12468 23235 23589  7398 23605 23748  14227 24078 24250  2408 2548 24027  11028 11030 11031  23034 24591 24823  14955 16745 24028  6195 6202 23689  15378 15569 15702  10670 10871 10872  13674 21852 24028  13686 13750 23150  7737 8185 24033  7735 12065 24033  17909 23648 23732  17935 17938 24071  18380 18385 24056  12069 17219 24213  12872 13783 24026  5201 7512 24025  17989 18084 23692  16652 20431 24951  17021 17023 17024  17952 17954 24068  15674 15676 23691  10491 10495 19734  14192 16860 24035  16426 23677 24081  14197 20199 23911  18865 23424 24594  7891 19434 24037  13670 15652 23674  7889 9107 24037  15517 20660 23693  7573 18849 23826  10669 10871 24000  1834 7488 24038  12039 12041 24039  12761 12763 23694  9498 10981 13651  13571 17976 24068  7698 17575 23997  7440 17082 23990  18732 18735 23698  7364 17185 24330  15618 22198 23696  16024 19628 24925  19243 23654 23843  7901 7903 24042  7867 7869 24044  13583 23656 23834  17656 17657 23697  10867 11013 11014  16019 16427 24047  16851 21387 24047  1421 23459 23848  12392 14036 14037  2499 7537 24043  7650 17126 24386  18865 18911 24691  19244 19249 24050  14051 16418 24051  7329 7379 24052  1008 19778 24052  18635 18641 24060  11042 17013 23838  18846 18849 23826  15564 16521 16805  18315 18442 24066  9278 9769 24058  13175 13748 24054  13317 13811 24054  17321 17322 23978  14882 21225 24055  17769 17772 23700  19427 19428 24061  7352 19082 24138  17795 17796 24074  10589 19904 24746  11119 11962 24057  11121 11242 24057  16288 23782 23934  16248 23151 23950  14094 23255 23257  13629 19429 24061  18875 18877 24065  10669 10670 10871  18872 18873 24065  17740 17742 23778  18848 23161 23644  18311 18312 24066  15690 15691 15692  14116 14117 24064  16263 16668 24629  408 7579 23997  17789 24102 24212  15857 16997 17538  13745 22116 24062  7353 21798 24588  16559 17841 24072  15704 17840 24074  9743 23340 23726  18452 18453 24022  11923 13808 23688  10003 12209 23646  11970 23599 23809  15890 16769 23705  19651 24019 24083  17364 17369 24224  17826 17830 24071  994 1001 23707  12722 19926 24099  10581 11967 23590  16934 16952 24250  17848 22123 23924  17951 17952 24068  15635 16434 24069  5362 7424 24063  15885 16288 24075  9732 23268 23672  3689 3801 23701  3885 23652 23765  4886 7374 24081  19438 19441 23709  15641 22174 24080  5208 5215 24079  7421 23639 24200  2933 7660 24070  2912 7341 24070  17918 17919 24090  15705 23647 24016  409 7698 23997  18671 23999 24610  16271 16594 24029  19025 23528 23863  15708 15710 24085  15637 20195 24088  15526 23539 23546  17901 17902 23718  18289 18290 24199  7421 17151 23812  15554 16206 24420  15568 19105 23721  17017 17485 23711  9482 10988 10989  17739 23435 23778  17985 24573 24702  14193 16203 23783  12066 23567 24930  16510 16512 23467  18108 23664 24556  16511 16512 16847  7364 17185 24403  10989 10990 10991  16078 16171 24091  16877 16879 24687  10991 10992 10993  7415 23406 24737  16893 23192 23900  16011 21673 23724  13584 14094 23633  16281 21891 23790  15549 15660 15661  15620 21479 24094  8144 19044 24098  12990 23231 24181  17900 23489 23872  5733 7456 24093  16913 23981 24716  5726 7680 24093  12409 13648 23603  15850 17645 24106  19903 23184 23670  15645 16218 24106  22682 22683 23886  7739 7741 23725  13737 21486 23797  13026 18570 24102  19286 19289 24100  16917 17153 24581  19885 23251 23252  13619 13660 23974  11263 16249 24089  15659 16732 24111  7429 20359 24938  19274 19275 24100  13671 14050 23719  1757 1764 23727  16228 16676 24105  16227 16869 24105  16450 24096 24182  12938 22360 24091  19654 19655 24082  16135 16766 24107  16137 16490 24107  11540 19748 24108  9214 9612 23645  5558 7417 24096  7619 16925 24146  16601 16968 24140  19738 23330 23955  1561 7355 24109  1568 7651 24109  12414 23485 23703  13725 14019 15763  11115 11117 23731  17909 17910 23732  18911 24691 24758  15683 16426 24112  3262 7506 24087  8737 8739 23734  16108 23555 23881  17985 23379 24573  8568 24283 24408  2282 2296 24115  15791 23421 23937  12821 12823 24114  1218 7405 24095  17238 17241 24155  16943 16947 24567  8866 23251 25032  1211 7691 24095  18255 18259 23738  11304 20863 23945  16178 16643 16644  15653 21865 24118  18406 18411 24144  14142 16429 23728  1470 18691 24896  8214 8220 8226  8226 8439 8529  8190 8191 8214  15558 20592 24121  14661 16432 24121  16724 21270 24122  13822 21567 24122  16903 16904 24942  7647 21802 24974  14666 14668 23737  2632 7536 24120  12065 17600 24150  11181 11258 11307  9209 9603 13725  11258 22549 23790  16240 16517 16518  10527 14230 23861  7698 23769 24810  13009 19037 24931  13667 13668 13669  23293 23294 23295  15662 18489 24135  16958 23962 24628  18959 23921 24064  14154 14156 24127  19870 19871 19872  19082 19677 24138  15633 22709 24089  8471 9095 24130  8469 11971 24130  16663 19581 24133  13755 16073 23708  18920 18938 24133  12730 24727 24741  20583 20584 24134  16400 20961 24134  6027 17799 25013  2170 7542 23741  18915 18916 24136  11307 13575 13576  17807 17810 23742  15755 16646 24136  12789 12791 24132  11306 12408 12409  5698 5705 23743  11452 17834 23835  13243 14075 24137  13245 14026 24137  5530 5537 23744  5502 7688 23740  10406 10479 24139  14123 16177 16178  12468 21930 23742  14120 15619 24103  9191 23587 23880  10866 10867 11013  18402 18403 24144  19925 19926 24813  13578 16177 23730  19070 19071 24138  10469 14186 14193  8188 8189 8190  8865 8867 8868  15565 16429 16440  7516 20751 24699  9066 23654 23843  12045 12047 24142  20358 20359 24938  2394 7545 24141  22123 23489 23872  10003 10669 10670  17919 23608 24163  1988 2184 24143  11991 13715 23733  10522 10523 10524  13722 16179 23717  16512 16847 16848  18684 18690 24151  14181 16855 24147  14097 14098 24147  7628 19651 24083  18696 18698 24151  10516 10520 10714  19872 19873 19874  13023 15638 23712  10581 10866 10867  13019 15655 23713  17848 23924 23980  15743 17600 24150  16998 17000 24189  3486 7335 24148  11039 11305 11306  7520 17232 24955  4207 7619 24146  4214 7368 24146  7516 20751 24772  18890 18891 24156  13494 19184 25016  7567 17154 24678  5180 5187 23748  12142 24029 24211  16645 21049 24602  17955 17956 24849  8807 8808 24158  8819 12069 24158  16538 17184 24748  3479 7669 24148  10619 16725 24820  7544 18313 24228  18839 18842 24174  11365 11367 23749  16509 16510 16511  18523 23453 24443  16212 16217 16285  9333 9335 24159  10714 10800 12425  20393 24208 24416  7315 7625 24162  7322 7379 24162  8381 8383 24161  10493 13773 23739  7345 22846 23750  15690 15692 23454  2422 2436 23752  4914 4921 23751  8126 8127 8128  10402 10404 24165  20653 21240 23829  3808 7505 24163  16970 17048 24793  13735 20879 24166  7427 23628 23986  3822 7627 24153  3990 7465 24153  4501 17137 24665  7491 23581 23896  9196 19715 23753  19880 19885 23643  15663 16436 24160  16668 24629 24759  15672 16536 24169  13669 14059 23719  10002 10003 10669  8849 17446 24268  7989 7991 23754  9155 9156 9157  13025 19679 24172  16792 22253 24169  15678 18761 24179  8017 8154 24173  9590 23292 23293  17986 23379 24470  22519 23694 24806  19018 19019 24160  16419 20571 23756  12713 23437 23736  7525 24623 24765  17071 17225 24468  12392 14037 20636  15255 15784 23757  11883 22098 23758  12167 14020 23996  22098 23758 23760  2212 2842 23761  16549 23307 25038  18730 18733 24175  16043 22098 23760  10009 10580 10581  15689 15690 15691  7436 17088 24886  1638 7650 24184  1631 7481 24184  14513 21734 23763  15169 15171 24186  13629 19342 24189  18093 18096 24188  15625 16998 24189  15549 15661 20636  3878 3885 23765  14258 16089 23764  15895 23311 24387  7524 17924 24315  1960 23326 24390  16729 23684 24904  11567 12181 24192  11565 12183 24192  15377 16073 16074  10467 10483 10484  10484 10491 10492  8317 8594 23766  17691 17835 24232  8868 8869 23710  6069 6076 24194  1358 7359 24193  15737 16721 24197  15739 16803 24197  8529 8559 23716  3752 7523 24191  7696 17452 24419  11986 23376 23723  3633 3668 24198  5572 7682 24182  10465 10466 10467  16477 19646 24709  7331 23693 24260  14061 24713 24947  7811 7813 24204  7493 23848 24060  12712 14227 23649  7432 16916 24883  11657 11658 11659  18907 22726 24128  9109 17041 24204  15575 23224 23511  16621 18964 24877  22764 23316 23695  867 7697 23768  410 7698 23769  20448 23599 23809  7445 16977 24495  17209 21901 25036  2758 2800 23767  16450 23471 24096  16853 24917 24946  7907 7909 24209  17848 17849 23980  12696 20217 24356  16431 24059 24365  15765 17219 24213  15527 17919 24226  7860 8066 23773  18879 18881 24215  15339 15794 23774  18876 18877 24215  12004 12006 23776  18527 24547 24695  14250 15791 23775  18382 23601 23942  873 22743 23770  3304 3409 23772  9210 9211 9212  16645 21049 24733  12616 14149 24214  14739 14740 24217  14742 17026 24217  16477 19646 24766  2576 7677 24252  18977 18979 24275  19874 19883 23729  7544 18313 24305  7605 17065 17066  20868 20869 23939  3311 7331 24170  16125 17796 24232  16952 24078 24250  7576 17343 24218  13829 23010 24288  16131 16802 24223  16133 16766 24223  19894 24644 24995  15761 16212 16217  10008 10009 10580  16929 23660 23912  8860 8866 23746  7628 24083 24126  2541 7576 24218  18602 18960 24229  18440 18444 23777  23257 23258 23789  15706 17820 24235  2079 7544 24228  9611 9786 24222  7454 22486 23771  5334 5341 23780  16510 16511 16512  3003 7529 24225  12403 12662 24110  19033 19035 24308  10915 12623 23779  19891 19893 23499  10580 10581 10866  9635 23631 23638  13239 22990 24296  1694 23630 23917  2828 7502 24231  2765 7648 24231  5369 7424 24220  9858 10008 10009  5376 7687 24220  18235 18236 23781  16423 21221 24640  15881 15883 23782  15695 16738 23485  9619 9841 24021  11960 20424 24236  11569 12181 24236  17704 20474 23785  17158 17160 23635  7352 19082 24350  16741 23550 24321  16412 21276 24241  21264 23631 23638  10679 10683 24239  8170 20972 24239  18962 18964 24877  2611 2877 23983  7608 17070 17072  13702 24917 24946  1113 1120 24246  8153 23023 24332  13972 16172 24249  13974 14151 24249  3395 23464 24549  8405 9090 24247  11970 20887 23784  17988 18003 23792  5740 7456 24245  12994 13666 23423  2590 7536 24252  11009 11017 11018  7353 24588 24797  12978 23519 24871  4368 7599 25070  1848 7349 24251  15611 15612 16509  16102 20053 23798  16715 23833 25027  13027 19350 24219  15594 15596 23787  12999 22056 24238  23708 24301 24944  16145 16147 23788  18910 18911 24758  15650 21443 24253  15208 15705 23720  19242 19243 23843  20887 23784 23796  13792 14079 24257  14160 15689 15690  18075 18250 24265  19206 19207 24259  11661 23343 23762  13251 13253 23791  18116 24583 24662  7347 19034 24680  17789 23049 24212  7000 7611 24796  12922 12924 24254  7701 17451 24689  8086 21131 23793  15703 16430 24260  10670 10872 23522  9995 20604 23795  10480 18774 24270  9995 23795 23796  9995 20887 23796  12375 12956 24263  12377 13009 24263  13829 23010 23908  16295 16297 24262  13026 23273 24102  20218 22583 24650  15209 16414 23722  19571 21763 23799  7336 24226 24317  5229 5236 24264  7525 23464 24623  17973 17974 24319  20908 20910 20911  5222 7404 24258  7447 17131 23962  8399 8401 23800  8741 8849 24268  7524 17924 24428  16010 16760 23801  20229 20241 24269  9155 9157 23529  9212 9498 23747  18251 18256 24265  13593 19353 24275  18386 18387 24284  18527 23453 24547  16092 17098 24199  7579 23611 24808  19914 19916 24272  19915 19919 24272  14084 15622 24273  18975 18977 24275  11843 24724 24782  8325 8327 24274  8345 11816 24276  8347 9041 24276  13628 15837 24036  16576 17434 24278  8126 8128 23536  7445 16928 24341  7301 7471 24282  7308 7625 24282  9169 9171 23407  14626 22037 23806  13611 16538 24748  21734 23763 23844  15612 16509 16510  9590 23293 23745  11920 11921 11922  11553 20081 23807  12874 13783 24271  9954 9955 10002  13599 13717 23626  16657 18102 24312  15623 15624 23808  9955 10002 10003  18389 18391 24338  8852 8853 8858  14626 23806 23819  21553 21554 24314  7531 23792 24826  11016 12168 23706  3535 3542 23810  9798 9953 23809  7506 23189 24087  18308 18313 24305  20081 23807 23817  16548 16694 16695  17898 17900 23811  7821 11476 24290  15566 15664 23812  16510 23467 23610  2772 7490 24227  7823 9102 24290  16547 16548 16694  12571 13942 23813  19447 19451 23814  12571 23813 23815  12571 14096 23815  18717 23819 23823  8136 19193 24903  15565 16440 16441  20560 21278 23816  16213 24077 24557  14626 18717 23819  7703 23768 25077  9953 23809 23825  9509 20081 23817  18005 18256 24999  9509 23817 23818  9509 20006 23818  15830 16801 24314  20006 23818 23820  19929 20006 23820  19929 23820 23821  9077 19929 23821  20960 20961 24295  20932 20954 24295  7474 24112 24177  18817 18818 24806  13627 14603 23822  14603 23822 23823  14603 18717 23823  16825 16826 24300  18051 18052 24317  9111 19491 24119  13241 14075 24296  15563 19723 23824  21486 21487 23797  18305 18306 24305  7887 9107 24303  12997 18075 24385  17972 17975 24319  14063 14177 24302  18881 22990 24296  7416 16905 24558  9857 9858 10008  3059 3584 23827  17849 23980 24040  9953 21003 23825  21003 23825 23828  12783 12785 24299  14821 21003 23828  8013 9113 24306  19404 19405 24308  19567 19568 24280  9554 9702 24298  12209 23646 24530  19031 19033 24308  13600 13717 13718  2422 23752 23866  16748 17266 24125  15580 15581 15611  10471 16815 24937  14150 14221 24294  14094 23257 23633  13761 20879 25078  15628 16496 24316  23511 24216 24992  16709 22185 24311  18558 18983 23831  12156 12157 12682  7552 16809 24870  7412 23625 24673  3843 7524 24315  10463 10464 10465  13808 17225 24196  4305 7615 17164  16441 16547 16548  15581 15611 15612  9687 9841 23726  17754 17756 23896  17971 23849 24889  7682 24182 24262  16841 16842 24749  5754 7364 24330  5824 7453 23833  9192 9688 24321  13676 18008 24336  14150 14165 14221  19882 23226 24988  11559 11563 24332  16293 16295 24345  8745 9133 24331  16685 23023 24332  14968 21993 24334  15610 18603 24342  13667 13669 13670  3451 7669 24324  11123 11242 24339  11125 11981 24339  12682 12683 12712  10491 10492 19734  14070 14159 14160  16505 20182 24344  14221 15647 16189  7628 19633 24126  12908 13583 23834  16456 16979 24617  19782 19783 24307  14219 23912 24625  18910 24758 24835  8157 23421 23937  16127 16858 24347  16129 16802 24347  12156 13712 24078  13494 19186 24326  9184 9492 24349  23292 23294 23881  23292 23555 23881  1708 7352 24350  7452 16923 25080  11843 22013 24782  16440 16441 16547  9750 9857 9858  19789 19790 24307  8139 19434 23836  15837 17138 23835  20909 23402 25024  7713 12696 24356  3101 7331 24327  15598 17121 23870  21562 23488 24323  12685 12686 12994  16934 17101 24250  17150 24789 24958  15669 15671 23837  2471 7489 24357  16429 16440 23551  9609 9610 9629  2982 7530 24354  11908 11986 11987  18826 18828 24360  15519 16469 16470  7417 23471 24096  11987 12728 12729  11496 19371 24363  12409 12410 12685  13648 15593 23603  14055 16091 24359  12712 12713 13801  15759 15760 15761  10972 12161 23916  14110 18368 24986  16498 16501 24362  9800 9954 9955  16470 16472 16473  9799 9800 9954  15603 15605 23840  9505 9506 9609  14592 14595 24363  13976 14151 24366  14122 15530 23714  7604 17018 24377  9749 9750 9857  8898 9058 23550  14212 17150 24789  15378 15702 17196  9172 23407 23856  18831 18840 24368  7426 16934 17100  21812 23399 24738  5019 7468 24369  19306 23814 24840  16189 16455 16456  14036 14037 15697  15760 15761 16212  18880 18881 24372  18688 18692 24375  16275 16277 24373  14184 15580 15581  1505 7356 24374  1498 7662 24374  12729 13677 13678  9629 9633 9731  9662 9663 9719  8856 23435 23778  9611 9612 9662  12202 21876 24376  14223 15518 15519  7454 23771 23876  13801 13802 14139  10984 10985 10986  13491 13494 24326  14183 14184 15580  9133 23311 24387  19684 19693 24379  10986 12533 12534  16449 20993 23841  9731 9732 9799  13687 13750 13803  19686 19691 24379  23267 23616 23851  17450 17510 24482  9719 9720 9749  9610 9629 9633  9506 9609 9610  16456 16468 16782  15627 17127 23935  7530 23379 24470  17646 17647 24470  12994 12995 13666  3759 3766 24381  9158 9590 23745  19900 23226 24988  17734 17735 24449  12719 17554 24445  6279 6307 24460  9732 9799 9800  20226 20227 23842  16760 17105 23932  15838 16451 24387  16442 17126 24386  8409 9135 24384  7343 17718 25064  12533 12534 13584  13678 13686 13687  10985 10986 12533  18306 23326 24390  2709 7345 24084  7343 17716 24867  16459 16461 24388  19868 19870 19892  9066 21917 23843  7474 19641 24177  14159 14160 15689  17717 17720 24449  9633 9731 9732  19418 19426 24395  16893 23900 24214  19737 21734 23844  16087 21940 24394  2555 7340 23845  13785 13786 14070  2009 7544 24390  12534 13584 13585  17185 18708 24403  7294 7471 24396  17849 17851 24040  20868 20870 23939  14139 14140 14141  10581 10867 23590  7567 18415 24678  8465 8467 23846  16197 16487 24403  9612 9662 9663  16419 23756 23911  18635 18636 24248  5768 22977 24485  5383 7687 24380  14140 14143 23728  18150 22450 24391  13584 13585 13618  14141 14142 15564  12686 12994 12995  12410 12685 12686  12590 23441 24110  13611 16875 24748  13803 14298 14299  13673 13784 13785  20265 20267 24408  12878 14017 24397  8339 8341 23847  13750 13803 14298  19715 23753 23921  9113 23453 24443  4067 7526 24405  11019 11020 12156  7989 23754 23920  6020 6027 24409  11306 12409 12410  13659 13660 14183  18241 18244 24950  9720 9749 9750  12063 17043 24973  1421 1428 23848  12157 12682 12683  13669 13670 13671  17829 17833 24428  9663 9719 9720  18921 18938 24417  18923 18945 24417  17827 17924 24428  8473 9095 24415  14059 15636 23719  13618 13619 13659  19326 19327 24421  11986 11987 12728  16469 16470 16472  12728 12729 13677  13980 14164 24422  13686 13687 13750  8177 8215 24237  3227 7526 23849  14117 24064 24179  9214 9611 9612  5194 7512 23850  7565 18820 23853  12969 15620 23852  3521 3899 23854  13170 21117 24426  15699 20973 23797  13677 13678 13686  13660 14183 14184  19105 23721 23961  10983 10984 10985  8335 17433 24578  13670 13671 13672  13585 13618 13619  15591 18052 24440  7841 7843 24430  16472 16473 17110  3437 7410 24402  17689 17690 24487  12995 13666 13667  13671 13672 13673  15612 16510 23610  11020 12156 12157  19633 24126 24185  18973 19350 24410  8747 9133 24431  13619 13659 13660  7883 8134 24434  16517 16518 16519  12683 12712 12713  13672 13673 13784  13571 17975 24537  18304 18306 24457  11005 12147 23606  17781 17784 24424  18761 24179 24311  16164 16435 24443  8559 11959 23716  15519 16471 24858  8869 16431 23710  15518 15519 16469  18298 23741 24618  14169 24116 24461  18198 18203 23855  14165 14221 15647  15763 16286 16287  11907 11908 11986  7349 19137 24469  5250 5257 24441  11773 13679 24445  11771 12719 24445  13786 14070 14159  13784 13785 13786  14298 14299 15759  16916 24548 24883  11009 11018 11019  5033 7371 24448  10492 19734 23422  18902 19130 24456  14142 15564 15565  18559 23592 24456  9266 9268 24452  14516 22689 23859  17241 23441 24110  15660 15661 16528  7280 7380 24455  19703 21826 24627  15647 16189 16455  12683 12935 23736  14299 15759 15760  12777 12779 24446  7527 17953 25075  12713 13801 13802  8850 23664 24556  15613 23863 23991  14140 14141 14142  14067 14255 24459  17687 17688 24487  18881 22990 24372  7653 21803 24031  16305 16307 23858  16410 20626 24463  10484 10492 10493  11658 11659 11660  9210 9212 9213  7915 7917 24190  12693 14113 23857  19127 19128 24469  19137 19750 24469  4116 7504 24423  2464 7572 23860  12698 23647 24016  9729 22627 24404  16240 22682 23886  7517 17877 24923  13802 14139 14140  8461 19692 24706  20239 23845 24897  10714 12425 14076  10998 12178 25004  16215 16810 24473  14061 23879 24713  9193 9505 9506  19872 19874 19875  16183 16803 24476  7408 16901 24499  11307 13576 13577  16773 18451 23862  11500 18956 23863  19883 19899 23729  8226 8529 8530  23293 23295 23296  8190 8214 12166  16455 16456 16468  16178 16644 16661  14258 23549 23764  16293 24345 24414  13725 15763 16286  9482 10989 13762  18665 18668 23864  5761 7364 24485  5656 16981 25037  10469 14193 16251  10522 10524 10525  16819 16821 24486  2583 7448 17165  8127 8128 8168  13588 22529 24432  11921 11922 11991  8865 8868 8870  16487 22977 24485  10991 10993 10994  16797 24302 24792  15761 16688 24444  17540 23772 24675  13764 22376 24454  16279 16557 24488  5397 7428 24464  13292 15960 24491  23255 23256 24834  18832 18833 24508  9156 9157 9158  8853 8858 8859  14190 16265 24492  16704 16705 24497  13022 23623 23868  19885 23252 23643  18846 23696 23826  15040 23163 25021  1015 1043 23865  18597 18598 24906  9213 9214 9611  2422 2520 23866  7346 19553 24773  3731 7510 23867  13786 16254 24337  10951 11907 11908  10464 10465 10469  5593 7411 24478  19641 24177 24233  7725 9608 23869  11093 11095 24206  8751 8850 24498  10993 10994 10995  9182 17250 24349  17266 22998 24125  15747 20633 24499  15695 23485 23702  20491 20659 24500  18272 18772 24501  14145 14150 14165  7649 17784 25045  9214 23645 23747  5243 7515 24493  16747 24125 24799  18409 18410 24516  16108 23338 23881  7661 16999 24914  19191 19197 24234  23635 23636 23637  17851 24040 24092  7439 17083 24577  16225 16446 24513  19242 23843 23977  13169 13172 23871  19257 19259 24514  9684 18461 24904  10008 12396 24477  12597 12950 24484  9556 9557 24510  18052 24317 24381  2940 7704 24822  13291 14134 24518  14957 14959 24517  19191 19192 24234  15596 23787 23945  12409 12685 23603  12428 21833 24517  16573 18488 24529  19708 19709 24521  17832 17833 24623  16644 16661 16662  17658 17659 23982  16575 16691 24529  18910 19005 24835  19793 19794 24481  13717 13718 13719  19295 19298 24526  17776 17777 24424  8529 8530 8563  16208 18185 24536  8868 8870 8882  10995 10996 10998  10476 22602 23872  14193 16251 16252  23295 23296 23297  10998 10999 11000  11000 11001 11008  2639 7339 24437  10524 10525 10526  15661 16528 16529  19250 19253 24370  13811 21113 23873  5957 7366 24534  16516 19644 24821  13984 16457 24531  13982 14164 24531  17833 23464 24549  7346 19553 24967  7727 7729 24532  19290 19291 24526  13576 13577 13578  13864 14145 14150  12415 23706 24277  18122 18127 23875  20752 20776 24538  20930 20931 24538  8128 8168 8169  18297 18298 24543  9157 9158 9159  14222 23341 24853  10800 12425 23647  10800 12143 23647  4732 4739 24546  16516 19644 24873  14987 14992 24542  13813 21953 24542  19874 19875 19876  11008 17103 24507  9163 9165 24310  1722 7499 24544  8011 9113 24547  14037 15697 15698  5600 5607 24540  8349 9041 24551  8351 12201 24551  8477 9147 24552  7336 23608 24226  17096 23879 24611  12425 14076 15208  15582 21552 23877  18106 18109 24556  16422 21546 24554  16426 23677 24112  8563 8564 9029  8882 8886 8887  15697 15698 16733  1624 7481 24555  16252 16666 16667  9029 9030 9052  13718 13719 13720  9052 9053 9209  8887 8892 8893  8893 8897 8898  8898 9032 9058  9058 9059 9192  9192 9193 9505  1225 7405 24515  10526 10633 10634  16257 20491 24565  10634 10950 10951  3654 7524 24549  9766 23616 23851  2030 7346 24560  11660 11661 11923  7578 22680 24522  10799 10983 10984  20869 23605 23748  9106 17316 25041  11991 11992 12480  8859 8860 8861  13578 14122 14123  19379 19381 24579  10493 10507 10508  2891 17719 25064  8169 8177 8178  16258 16815 24566  9159 9208 9618  16733 16734 23786  11923 11924 12390  8178 8187 8188  12390 12605 12606  12606 13019 13020  13020 13655 13864  12480 12481 12655  8861 8862 8863  12655 12668 13006  13006 13023 14090  14090 14091 14222  14222 14223 15518  9618 9619 9686  8863 8864 8865  9686 9687 9742  9742 9743 9791  9791 9792 9805  9805 9806 10589  10589 10590 10798  10798 10799 10983  16518 16519 16520  23148 23569 24378  17000 19428 24888  10508 10514 10515  10515 10521 10522  8401 23800 23957  3584 23827 23947  16835 24400 24705  16662 24727 24926  18697 18698 24574  13720 13722 13723  10492 10493 10507  13723 13753 13754  13754 13755 13756  13756 15377 15378  9108 19386 24579  8391 8393 24572  19784 19792 24481  20391 20393 24416  15736 20183 24575  19876 19877 19878  7454 18912 23876  19878 19879 19880  19880 19886 19887  19887 19888 19889  19889 19890 19891  19891 19894 19895  19377 19379 24579  11659 11660 11661  12771 12773 24570  8335 8337 24578  13020 14219 25082  7385 19633 24185  9212 9213 9214  16781 17443 24918  15208 15209 15210  2660 7583 24822  11922 11991 11992  14076 15208 15209  15210 15211 15212  8858 8859 8860  15212 15213 15458  15458 15459 15694  15694 15695 16737  16737 16738 16739  16739 16740 16741  3038 7530 24573  12222 13630 24946  18461 23684 24904  18824 18829 24590  8435 8437 23880  20660 24327 24423  20267 24408 24532  8753 8850 24583  18116 23664 24583  15209 15210 15211  5677 17483 25062  15211 15212 15213  16740 16741 16742  16738 16739 16740  15695 16737 16738  15459 15694 15695  15213 15458 15459  19875 19876 19877  19900 23227 24086  20488 21438 23883  12452 14061 23879  1785 1792 24592  19890 19904 24451  13932 14673 23884  18392 18393 24601  19649 19650 24597  13719 13720 13722  16295 24262 24345  19877 19878 19879  19647 19648 24597  19890 19891 19894  19888 19889 19890  19879 19880 19886  19886 19887 19888  9158 9159 9208  8168 8169 8177  11018 11019 11020  13577 13578 14122  13722 13723 13753  13755 13756 15377  13753 13754 13755  9172 9174 23856  16438 17688 24638  10507 10508 10514  15656 17540 24675  7448 16975 24960  15698 16733 16734  10514 10515 10521  11661 11923 11924  8860 8861 8862  11992 12480 12481  10525 10526 10633  9208 9618 9619  10590 10798 10799  9806 10589 10590  9792 9805 9806  9743 9791 9792  9619 9686 9687  9687 9742 9743  8177 8178 8187  8862 8863 8864  12481 12655 12668  14091 14222 14223  13023 14090 14091  12668 13006 13023  8187 8188 8196  11924 12390 12605  13655 13864 14145  13019 13020 13655  12605 12606 13019  16251 16252 16666  8530 8563 8564  8870 8882 8886  14122 14123 15677  9498 13651 23747  5040 7371 24599  10806 23341 24598  15613 23528 23863  18009 18013 24605  16187 16645 24602  2149 2569 23888  3024 3066 23887  13584 13618 23633  3423 7410 24562  10633 10634 10950  10950 10951 11907  18868 18871 23893  8886 8887 8892  7482 21800 23890  7706 16995 25055  8564 9029 9030  9059 9192 9193  9032 9058 9059  8897 8898 9032  8892 8893 8897  9053 9209 9210  9030 9052 9053  14597 16483 23892  7749 7751 23891  18369 18377 24998  17016 17017 24522  16331 16333 24607  18818 23694 24806  3402 7692 24562  15626 20504 23894  14236 22851 24436  11042 17014 23838  6986 7551 24948  8142 18709 24619  10994 10995 10996  9769 13051 24613  5964 5971 24615  15600 20267 24616  18710 18713 24619  10374 10376 24624  10996 10998 10999  11001 11008 11009  10999 11000 11001  18803 18805 24630  2023 7543 24618  19955 21826 24627  12868 12870 23895  7349 19137 24661  10495 10502 23678  16861 20819 24633  16274 16756 24633  18164 18181 25085  16244 21926 24626  13986 16457 24637  14115 21221 24640  13661 19380 24710  9650 20927 24641  7491 21785 23896  10981 11028 23680  18635 24060 24248  19688 19691 24645  22043 22045 24947  22044 22045 25081  5404 7428 24606  4501 4508 24665  7480 19794 24587  12773 18806 24957  14989 14992 24649  15686 16653 24655  16259 16481 24653  18070 18074 24870  7690 20738 24922  16614 16616 24654  16807 17677 24923  16272 16720 24635  1372 7649 24656  1365 7359 24656  16291 16293 24414  8413 12218 24657  8411 9135 24657  12032 12985 24672  1855 7349 24661  18296 18298 24677  15592 16482 23898  2849 7502 24658  4900 4907 23897  17851 17853 24092  16209 16674 24698  8757 11843 24662  19005 24835 24913  7639 19641 24233  16589 16594 24277  19378 23399 24738  14111 14189 24666  17919 23608 24226  15524 15574 24569  16210 16650 24674  15658 17839 23902  23422 24490 24989  20235 20239 24681  18413 18414 24731  16329 16331 24683  1946 7347 24680  16470 16473 23628  16288 23766 24075  12173 12179 23900  5054 7479 24690  18926 18945 24696  18928 18946 24696  8007 8143 24695  19920 19921 24692  10476 23872 23924  19656 19657 24587  7690 20738 24854  17658 23982 24041  11005 11007 23606  16305 23858 23944  23293 23296 23745  5285 5292 24688  15599 16434 23901  16463 16669 24701  14228 16545 24941  16672 17341 25065  16416 18153 24728  19781 23163 25021  7711 23283 24356  8461 8463 24706  18808 18835 24811  14042 23720 24365  16514 16768 25086  10368 10370 24714  15015 16477 24709  16284 16702 24750  13412 13661 24710  19592 19593 23903  13447 21931 24710  1547 1554 23904  11020 23445 24752  3087 7531 24702  18090 18091 25042  18598 24906 25008  2877 7573 23983  18113 18116 24724  16290 16809 24646  16207 17799 25029  9561 9562 24707  17798 17821 24771  22045 24947 25034  16024 21996 24725  20905 21317 25074  4193 7452 25080  4200 7619 25080  6174 6181 23906  16439 17732 24941  9492 21738 25072  16447 16579 24732  11131 11300 24733  11129 21049 24733  12028 13002 25052  17968 17971 24765  16188 16485 25071  12672 21707 25069  18178 18179 24780  12415 23020 24520  16588 16590 24438  16229 16675 24187  13505 13506 24745  15693 16482 24178  5418 7516 24699  16566 16862 24762  3458 7527 25075  19135 19136 25056  7458 19781 25054  16837 16839 23905  16568 16758 24762  12890 14158 25083  2562 2891 25064  17090 18605 25022  19425 19426 24767  16604 17877 24923  19080 19084 24754  18398 18399 24895  16924 16926 24166  15589 16715 25051  10946 13637 25047  7903 7905 24761  8830 8847 24757  7640 19644 24766  19645 19646 24766  3136 7533 24742  1799 7350 23907  17341 17342 25065  7875 9106 25041  5677 5684 25062  9325 9327 24759  18148 18149 24774  18913 18914 24773  17170 19553 24773  15515 23185 24429  20750 20751 24772  16486 20738 24772  16612 21981 24763  1239 7517 24722  16506 16985 25058  18802 18806 25010  2072 2086 24790  1176 22583 24650  5810 7362 25027  17363 17365 24871  16870 16872 24787  21917 23843 23977  12671 14114 24786  15732 15734 23909  12990 24181 24800  14884 21026 24789  10696 14212 24789  11956 23782 23934  1589 7482 24788  2198 7541 23910  17982 17985 24826  9133 23311 24431  19880 19887 23643  8155 18241 24950  4172 7367 25028  11175 16831 24859  7504 24423 24500  19300 19303 24804  17344 17353 24800  19297 19298 24804  20237 20239 25017  15038 15041 25021  13593 19326 24874  16262 18584 25005  13489 13494 25016  22624 23488 24323  7609 17075 23889  1463 7357 25009  3115 3143 25020  18177 18179 24893  7474 23677 24112  11540 18560 24983  7436 17089 25068  23020 24520 24545  8353 12201 24814  7721 21621 24820  7719 10619 24820  16563 18091 24916  8355 9051 24814  14101 16522 25015  5649 7513 25037  21994 22080 25014  1169 7519 24650  15021 16516 24821  15017 16477 24821  18526 18597 24816  10378 10470 24833  13009 19404 24931  4179 4186 25003  10372 10471 24990  5061 7479 24839  5068 7636 24839  16513 16556 24961  5075 7636 24991  5082 7370 24991  14083 16533 24987  16618 16743 24846  17970 17971 24953  19780 19781 24979  2107 2128 24845  8763 8854 24847  16564 16862 24916  7809 7811 24950  16418 16419 23911  19355 19358 24890  5635 5642 24825  18306 23326 24457  13055 22129 24829  16703 19482 24945  19643 19644 24873  12453 12595 24528  14118 15533 24862  13818 13819 24975  15639 16668 24881  1869 7500 24865  3899 23854 23976  18930 18946 24952  8379 12073 24210  12670 14114 24878  2478 7346 24967  1596 1603 24880  7941 19491 24903  7943 8136 24903  2793 7343 24867  20429 20431 24951  16173 21422 24900  14958 16415 24885  18734 18736 24756  1470 1477 24896  16587 20723 24905  20737 20738 24922  12183 12968 24918  14196 16781 24918  8417 9096 24939  1806 7350 24914  1813 7661 24914  8415 12218 24939  13493 13496 24936  9569 9627 24837  16515 21771 24913  13761 21185 24704  8765 8767 24915  5656 5663 24969  16883 16884 24943  980 2247 23915  8143 24695 24816  3465 7525 24889  17041 18243 24769  12886 14110 24986  3129 7531 24909  5628 7406 24848  19426 24395 24592  1694 1701 23917  9274 9276 23918  7368 19565 24697  5278 7683 24861  8341 23847 23992  7447 17021 23962  17855 17860 23919  5425 7516 24854  5432 7690 24854  16545 17089 25068  15781 16855 24737  7499 24544 24754  7987 7989 23920  19879 19900 24988  5453 7429 24938  19261 19263 24970  12064 19715 23921  16601 17231 24140  16644 16967 24981  15581 16595 24664  18118 18120 24827  16761 22743 24483  16246 16597 23922  7639 24233 24289  23185 24429 24524  3528 3640 23914  14517 15555 24866  17955 24405 24849  16957 23712 24910  16418 23852 24051  7542 24677 24780  12712 13801 23649  12914 12916 24171  17756 23896 24104  6125 6132 24291  12147 12607 23606  16267 16268 24261  7353 21795 24797  2856 7492 24897  1939 22986 24680  16709 24311 24429  16857 22608 24859  13639 23601 23942  18956 23863 23991  12209 23522 24887  22039 24101 24304  10492 10507 23422  3367 7436 24886  17700 17719 24267  16240 16518 23886  15613 15777 23991  18636 24248 24447  13575 23790 24116  4417 4424 24077  16141 16143 23923  14114 22938 24878  4732 16985 24971  15692 23454 24029  21800 23890 23963  16533 16857 24978  17658 19837 24041  16869 18098 23926  16257 24565 24636  6118 7462 23925  19184 19185 24842  10476 22317 23924  13633 22730 24750  2149 23888 23972  7484 23178 24614  3318 7518 24963  16648 21261 23929  12271 13027 23930  14047 23442 24392  12066 17004 24930  16257 21354 24636  8313 11956 23934  16458 23699 24180  7763 9950 23933  19603 23587 23880  3241 7700 7706  16434 23860 24069  19626 19627 24851  13784 24097 24337  13713 23634 24895  1484 1491 23938  22101 22174 23937  14042 16431 24365  5712 5719 23940  3283 7694 25055  7512 23898 24025  19242 19244 23977  18379 18380 23942  18895 18900 23943  19781 23163 25054  17998 18006 23946  13669 13671 23719  14193 16252 23783  3255 7706 25055  12209 24530 24887  404 17451 24419  16303 16305 23944  12594 12596 25034  15596 15708 23945  16497 17019 24503  19599 19601 24145  16698 16704 24497  19886 19900 24086  21000 23109 24660  3556 3584 23947  16198 23011 24594  11096 11099 24458  21797 23178 23899  17833 23464 24623  20491 24500 24565  16489 24320 24548  7530 23379 24573  18395 18396 24744  14168 15653 23948  7913 9110 23949  12143 12698 23647  19038 23178 24614  16838 16840 23941  12697 13740 24364  15607 15679 23950  7412 17104 24673  7377 16865 25049  7639 19640 24289  13754 13756 23686  3850 3871 23951  9113 23453 24547  10495 19734 23678  16417 16753 24949  16515 24913 24977  8851 19370 23953  7389 19629 23954  19183 19184 24842  10981 13651 23680  17700 17706 24267  19702 19703 24627  17028 17029 24221  16515 16715 24977  9060 23499 23500  14635 20731 24471  15618 23696 23826  18280 18282 23956  13649 16978 25031  15360 19733 23955  16694 23618 25061  21240 23815 23829  12870 23895 24026  16141 23923 23987  18902 23592 24456  18179 24780 24845  8401 8403 23957  22317 23924 23980  20660 23693 24327  12729 13829 24288  16283 16692 24715  13628 14132 24036  7403 16957 23878  16472 23567 24930  8197 8223 23959  7331 23693 24327  14222 15518 24598  11014 11016 24211  20475 24031 24208  18372 18413 24844  16688 24444 24838  16473 23628 23986  8868 8882 23710  19104 19105 23961  12681 22683 23886  7615 22278 24585  7845 9103 24553  16760 23801 23932  13721 23635 23636  20217 24356 24466  10589 10798 24644  20391 24416 24608  7651 21800 23963  8529 8563 23716  13660 14185 23974  12389 21121 23969  13194 13195 23964  5348 5355 23966  1344 1351 23965  15689 15691 24341  10502 10516 23678  16645 24733 24985  14298 15640 23802  12722 23749 24099  6944 6951 23968  23596 23717 24595  19187 19188 23971  19413 19414 23970  12390 13808 24196  19640 24289 24352  2149 2688 23972  18598 18600 25008  13247 13249 23973  21354 24636 24720  11028 11031 23680  16662 16967 23927  19027 19028 23975  3073 3899 23976  4354 7413 23913  12073 21917 23977  16938 16940 24003  7112 7609 23952  15679 23950 24010  8851 23953 24011  19874 19876 23729  9276 23918 24058  19899 23746 24768  16694 16695 24712  17350 23623 23868  13395 13397 23978  20733 23995 24399  16433 21354 24720  16812 16814 24576  7437 23574 24668  19891 19895 23499  16548 17511 24377  11942 12224 23981  12714 20631 23982  20217 20218 24466  16303 23944 24032  11878 22317 23980  9174 9482 23856  3507 3514 23984  13673 14050 23874  19733 23955 24019  21795 24797 24984  8459 12428 25063  7593 16991 24320  16468 16782 23908  14680 16051 24879  19866 23529 24049  18029 18982 24703  16139 16141 23987  12443 16870 24940  11015 22223 23996  16241 17153 24503  23149 23150 24852  19040 23178 24892  20508 23841 24527  14169 24461 24465  8856 22039 24101  2184 2709 24084  15208 15210 23720  20909 23402 24996  9212 9214 23747  19765 19766 23989  18576 23848 24060  20869 23850 23939  16594 23706 24277  7695 17016 24483  13652 19305 24840  10479 23919 24139  14748 14882 24244  16198 23424 24594  14140 14142 23728  8144 18956 23991  8341 8343 23992  15209 15211 23722  12959 23020 24545  19601 19603 24145  9329 9700 23993  21785 23896 24104  17365 23519 24871  11054 13001 24073  16950 16976 24340  16592 16811 24411  12918 13708 23994  17030 17031 25023  15627 23935 24009  12450 20361 23995  16167 16554 24413  16584 23355 25019  408 409 23997  14299 15760 24863  12793 12938 24293  7696 17452 24420  7497 17706 24267  16073 17014 24944  12683 12713 23736  18196 18203 24398  8850 23664 24583  20555 21476 23998  7601 17085 24318  16508 22158 24907  7375 19640 24352  13464 13466 23999  14096 23815 23829  13740 20908 24364  19897 19898 24113  15631 16701 24018  11181 17447 24612  3276 7607 23960  8856 23778 24101  11101 11254 24001  9687 9743 23726  5089 7370 24002  12226 23004 24237  20978 23035 24205  15627 17917 24009  11671 20978 24205  12415 24277 24520  13787 13788 24005  15601 23921 24064  15665 15667 24006  18398 23634 24895  15745 15746 24007  8440 9190 24008  13194 23964 24055  8594 24075 24203  19599 24145 24285  15679 15681 24010  13005 20733 24399  8851 20000 24011  16963 16964 24676  20631 23982 24041  14122 15677 23714  17718 17719 25064  15572 16106 24012  11878 23980 24040  15673 16622 24013  11040 17079 24202  2415 2492 24176  18841 18843 24014  4823 7475 24015  10871 12993 24000  5355 23966 24063  7563 23968 24927  12169 14020 24611  15697 15699 24242  19350 24219 24410  14097 20633 24736  15565 16441 23759  15634 19733 24019  16433 24720 24801  18452 19017 24022  15648 15649 24023  13637 23705 25047  18972 18976 24024  16181 23626 24073  4494 7552 25033  9158 9208 23745  18735 18736 24219  5201 5208 24025  12870 12872 24026  14132 24036 24154  17857 17860 24256  16433 20702 24801  13673 13785 23874  16530 24607 24785  10995 24152 25004  18029 24703 24778  17018 17511 24377  22941 23536 24067  2408 7540 24027  12672 23755 25069  15564 16805 23759  9990 23149 24852  14955 21852 24028  16301 16303 24032  7520 24407 24955  15766 16761 24483  17744 24101 24304  23035 24205 24328  7735 7737 24033  18597 24816 24906  7414 21415 24994  16755 16796 24792  16439 17089 24899  15837 23892 24036  8168 12226 24237  17756 17758 24104  7542 23741 24677  15777 22164 24243  9729 23824 24404  14192 15633 24035  7580 16992 24569  17008 17009 24045  7653 23785 24031  7889 7891 24037  1834 1841 24038  16281 23790 24116  14298 15759 23802  12041 12979 24039  18124 18126 24982  17346 17353 24114  18011 18012 24815  22164 22251 24243  8389 12399 24831  7510 24440 24533  9857 10599 24477  17742 23778 24101  19383 19385 24042  11878 22103 24040  18636 18638 24447  17974 24849 24953  15969 20631 24041  7901 9108 24042  7867 8156 24044  2499 2534 24043  18298 23741 24677  23522 24887 25050  16443 17126 24046  15619 24011 24103  16019 21387 24047  4830 4837 24453  16189 16719 24617  15632 16526 24927  22045 23857 25081  17578 22031 24048  11020 12157 24752  12179 23900 24214  18028 18029 24778  17917 24009 24090  15644 17580 24053  15647 23666 24195  12967 23733 24371  15634 24019 24083  14018 24281 24755  19249 19253 24050  12914 13639 24171  7345 23855 24084  14051 16267 24051  16817 16829 24937  1008 7329 24052  7440 17055 23990  11054 16181 24073  7366 23831 24534  13175 13317 24054  18385 18387 24056  13194 21225 24055  18052 23867 24440  9276 9278 24058  11119 11121 24057  18576 18641 24060  15564 15565 23759  16414 24490 24989  7592 17153 24503  16715 23833 25051  19427 19429 24061  18676 22116 24062  18872 18875 24065  5355 5362 24063  14116 15601 24064  16769 23705 25047  9213 23794 24222  18311 18315 24066  23194 23621 24351  18603 23925 24342  17951 17976 24068  10599 23551 24477  12787 12989 24525  10972 23344 23916  20702 24801 24875  17841 19207 24072  16496 23949 24316  17857 17859 24256  18973 23890 24410  18126 24982 25018  17826 17935 24071  17059 23423 24427  2912 2933 24070  15704 17795 24074  16488 20702 24875  19304 19306 24123  20389 20391 24608  15635 16171 24069  15699 23735 24242  16914 21509 24716  22103 24040 24092  19598 19599 24285  14018 23637 24281  16649 19722 24648  23485 23703 24207  16411 16664 24634  23296 23745 24021  15885 16191 24075  7531 23792 24909  12037 12039 24472  15641 16496 24080  15693 20195 24178  20239 23845 25017  4879 4886 24081  18712 21973 25048  5215 7404 24079  7510 21898 24533  17037 24901 24960  16848 16864 24407  7478 17708 25029  19414 23970 24183  9266 18151 25076  18028 24778 24856  15634 19512 24083  12166 23804 23805  18387 23994 24284  7627 19654 24082  9210 9213 23794  1351 23965 24193  14748 14750 24244  7462 24342 24406  9209 13725 23794  16666 16667 25001  8594 19960 24203  16286 23794 24222  15710 16505 24085  15533 23836 24862  17971 23849 24953  13636 22932 24180  17057 24097 24337  14123 16178 23803  2534 24043 24120  15637 16554 24088  14132 15749 24154  8188 8190 23804  18573 21794 24212  12775 13601 24957  24304 24739 25018  17021 17024 23962  20267 23869 24616  17917 17918 24090  12781 13028 24743  11039 23462 24418  3262 3360 24087  23380 23501 24355  11263 22709 24089  10514 10708 24439  16466 16735 24705  19040 19103 24956  18676 24062 24129  16928 24017 24341  7411 23922 24478  15622 24035 24273  16738 23485 24207  5726 5733 24093  10479 22103 24092  11015 12167 23996  14120 15688 24103  16078 22360 24091  15692 16271 24029  12950 23905 24484  7593 24320 24548  1211 1218 24095  11563 21479 24094  17031 22223 23996  14050 23267 24568  16488 17640 24954  5558 5565 24096  7462 19631 24406  16483 24036 24154  15555 23853 24866  17077 17156 24550  21898 24533 24600  17742 17744 24101  19004 19044 24098  19701 19703 24099  22251 24243 24367  14143 23130 24667  8854 23875 24847  15378 17196 23830  7611 24438 24796  15377 16074 23830  17348 17350 24181  7667 21795 24984  19512 24083 24126  14149 24214 24480  16425 22928 24502  14091 15638 24593  19275 19286 24100  18028 18030 24856  9949 17231 24140  14159 15689 24017  18570 18573 24102  16488 24875 24954  8379 8381 24210  13564 19595 24647  7654 21785 24104  19866 19868 24049  16227 16228 24105  15645 15850 24106  9209 9210 23794  17077 23637 24550  16135 16137 24107  11135 16966 24301  405 7696 24419  2275 7437 24034  13672 13784 24097  14123 15677 23803  16478 16559 24882  18179 23910 24893  8188 8196 23804  17072 23660 23912  16245 21394 24643  19657 22721 24925  16690 16828 24810  10467 23739 24020  14628 19748 24108  1561 1568 24109  13772 16791 24926  9482 13762 23856  10469 16251 24020  15659 16852 24111  16768 24027 25086  16249 16996 24841  19426 23907 24767  16489 21509 24320  15683 16110 24112  9208 23745 24021  15377 15378 23830  23256 24355 24834  12823 12952 24114  7350 24767 24888  2296 7539 24115  16629 17186 24168  17017 23711 23967  19385 24596 24761  12221 12607 24860  12403 12590 24110  22031 24048 24167  19304 23014 24123  7404 24088 24258  18638 24447 24639  8849 23734 24168  19631 24406 24462  13636 24180 24512  8190 12166 23804  16178 16661 23803  13725 16286 23794  15660 22941 24067  13170 24013 24426  16924 24166 24753  9111 19198 24119  20975 22932 24180  14064 21865 24118  9608 24616 24775  2534 2632 24120  12062 23227 24086  15688 24103 24157  7917 8157 24190  8594 23766 24075  16422 16982 25035  14661 20592 24121  13822 21270 24122  17758 24104 24309  12478 23014 24123  16051 22998 24125  15660 16528 24067  17110 24076 24351  14255 17444 24832  15657 19512 24126  14184 14185 24664  16191 24075 24203  19868 19892 24049  16911 21361 24919  21413 21414 24994  14154 16635 24127  23437 23736 23928  18676 18677 24129  23130 23426 24667  8469 8471 24130  17097 17447 24612  14159 16254 24017  16557 24015 24488  19960 24203 24335  2219 2548 25053  23257 23633 24030  1841 24038 24251  12956 19103 24956  20000 24103 24157  17079 23714 24202  12789 12989 24132  15749 24154 24279  18920 19581 24133  16400 20583 24134  15662 16762 24135  14180 24467 24652  11093 11304 24206  15755 18916 24136  7609 23889 23952  18030 24856 24934  14628 24108 24164  21621 24775 24850  13243 13245 24137  12920 13708 24505  12791 12793 24293  17235 17236 24131  9147 21825 25060  19568 22726 24128  5565 24096 24182  10404 10406 24139  19071 19677 24138  7668 21898 24600  10370 17027 24990  23252 23253 23988  7573 23901 23983  17510 24359 24482  18983 23831 24534  15458 15694 24004  2394 2744 24141  15688 17219 24157  12047 12999 24142  20183 24001 24575  16110 24112 24177  1988 7487 24143  20389 24608 24817  16668 23993 24881  7629 19631 24462  18402 18406 24144  18772 24039 24501  16281 16282 24116  23178 23899 24892  12934 17110 24351  3360 24087 24170  14098 14181 24147  3479 3486 24148  8226 8530 23885  4207 4214 24146  15171 22251 24367  14180 23071 24467  10989 10991 23882  18736 23963 24756  18684 18696 24151  15743 20603 24150  16022 17442 24459  10465 10467 24020  19701 23749 24099  7512 23850 23939  12396 24477 24812  10991 10994 23882  12934 23621 24351  21394 24643 24723  16483 18172 24154  15657 24126 24185  18890 18898 24156  15663 19018 24160  8807 20000 24157  8808 8819 24158  3822 3990 24153  8214 8226 23885  15580 23673 23958  12997 23946 24385  16289 21394 24723  16955 23462 24418  7367 24111 25028  17236 24131 24155  7592 17019 24503  4725 7564 24971  7591 23557 24609  16268 16685 24261  9335 9717 24159  15458 24004 24059  13819 24072 24975  8383 9074 24161  17236 17238 24155  7315 7322 24162  10714 14076 23931  7482 24024 24788  12723 23502 24995  16672 23202 24659  18003 23792 24909  12730 16780 24741  15580 15611 23958  10465 10469 24020  3794 3808 24163  13564 24647 24779  7668 24600 24682  19872 19875 23936  14628 15707 24164  18840 24132 24368  15759 23802 24444  10402 10480 24165  12480 12655 24149  19734 23422 24490  19896 19897 24328  13735 20486 24166  7629 24462 24509  11959 16997 24864  18030 18031 24934  15254 22031 24167  18204 21786 24959  15672 22253 24169  10002 10669 24838  6314 7442 24266  9608 21621 24775  13025 19693 24172  18839 18840 24174  8015 8017 24173  17346 24114 24659  15702 17104 24673  23210 23633 24030  21422 24082 24900  9748 23529 24049  17078 24281 24755  15678 18959 24179  16110 16112 24177  15661 16529 23979  16092 18290 24199  3311 3360 24170  16835 24401 24686  17076 17078 24281  13672 15652 24097  17442 17444 24459  18728 18730 25084  17345 17348 24181  23257 23789 24030  14017 23099 24844  7453 23833 25051  5565 5572 24182  8214 12166 23885  2744 24141 24228  15657 18960 24185  19414 19416 24183  1631 1638 24184  10989 13762 23882  7396 17071 24313  15169 15748 24186  14064 24118 24255  18093 18094 24188  18959 24064 24179  15625 19342 24189  15763 17272 24523  16850 24823 24955  3752 3941 24191  11565 11567 24192  19723 23824 24404  13677 13686 24286  7475 24488 24559  1351 1358 24193  23426 23928 24667  6069 7464 24194  16289 24723 24802  7513 24235 25037  15737 15739 24197  16518 23886 24346  3633 7507 24198  16485 24334 25071  23376 23723 24670  14037 15698 23979  7572 23860 24069  16793 16794 24805  13649 23830 25031  7629 19636 24509  7654 24104 24309  9165 9167 24902  10993 10995 24152  16191 16193 24203  15857 17538 24329  6132 7385 24291  14221 16719 24294  18031 24934 24997  7813 9109 24204  404 405 24419  12177 19960 24335  13564 19679 24779  13630 24287 24946  14124 17538 24329  15749 16425 24279  7590 23841 24527  13679 24445 24943  16212 16285 24557  7551 24411 24948  16443 24046 24421  16112 24177 24233  7475 19634 24559  14271 23536 24067  9078 23662 24751  17364 17368 24224  19895 23502 24995  8323 12177 24582  7342 21803 24208  16558 23626 24073  7907 8151 24209  12156 12682 24078  7668 21900 24682  13803 14299 24425  18172 24154 24279  15765 16012 24213  20603 24150 24283  2072 2541 24218  9492 24473 25072  18876 18879 24215  12179 12616 24214  7406 24135 24848  9208 9619 24021  10516 10714 23931  14739 14742 24217  16653 24142 24655  19870 19872 23936  13864 14150 24625  17343 17347 24218  18820 23853 24866  7580 23617 24569  11000 11008 24507  19897 24205 24328  16415 24172 24885  5369 5376 24220  17799 24409 25029  16289 18489 24802  9190 24145 24285  10603 23576 24794  9058 23550 24321  19636 24509 24561  19877 19882 24988  16131 16133 24223  11009 11019 24353  11035 11039 24418  15527 18050 24226  13571 24068 24537  18638 18640 24639  3003 3150 24225  7611 16977 24684  2079 2744 24228  7909 7911 24564  16732 18031 24997  18602 18603 24229  12043 12045 24621  7510 23867 24440  20474 23785 24031  17350 23231 24181  19634 24559 24603  12659 23703 24207  15643 23210 24563  6279 7581 24460  16125 17835 24232  16469 17004 24930  17758 17760 24309  16450 24182 24262  2737 2772 24227  16999 17000 24888  19253 24161 24370  12073 24050 24210  2765 2828 24231  15254 24167 24297  16976 24901 24960  8862 8866 25032  16170 19197 24234  15620 23852 24051  16112 16219 24233  19870 19892 23936  15706 16981 24235  16674 24194 24698  7357 24375 25009  11982 23253 23988  16985 24546 25058  18670 18671 24610  11569 11960 24236  15210 15212 24365  16482 24079 24178  21900 24682 24747  20387 20389 24817  8015 24173 24306  16434 23901 23983  18673 22056 24238  8170 10679 24239  18094 24188 24323  16412 16664 24241  19434 23836 24862  16944 16946 24494  7493 24060 24248  1113 7472 24246  9806 10590 24358  5740 5747 24245  18127 23875 24847  8405 8407 24247  13972 13974 24249  7493 21784 24248  16650 24209 24674  15640 23150 24852  7515 24241 24493  15748 24186 24325  3941 24191 24315  1841 1848 24251  16743 24246 24846  12952 24114 24659  7386 19636 24561  13005 24399 24919  19382 21931 24432  2576 2590 24252  17037 17673 24901  15650 15754 24253  17095 17096 24713  14064 21775 24255  12924 13764 24254  18584 24492 25005  7632 19634 24603  18573 24102 24212  13792 16119 24257  5222 5229 24258  10971 24444 24838  11507 19206 24259  23248 23643 23988  18393 24254 24601  16482 23898 24025  18806 24570 25010  19886 19888 24086  16219 24233 24289  16727 16728 24803  7911 9110 24564  15703 21378 24260  13001 24073 24595  16255 20508 24527  16193 24203 24335  15611 23958 24530  18194 18196 24398  24046 24421 24894  12375 12377 24263  18673 24238 24300  16297 16450 24262  18250 18251 24265  18070 24436 24870  18050 24226 24317  16091 17098 24393  5236 7515 24264  16753 24198 24949  16912 17046 24399  17160 23755 25069  15754 24253 24287  14117 24179 24311  20359 20360 24683  23148 23149 24378  8741 8743 24268  16839 23905 24484  12674 17355 24932  17010 23193 24201  20229 20231 24269  17103 24003 24507  18773 18774 24270  16267 24094 24261  15212 15458 24059  7692 22580 24899  16669 24274 24701  15702 16467 24673  12874 12876 24271  18975 19353 24275  19914 19915 24272  14084 16996 24273  8327 8603 24274  19899 23729 24230  13676 18172 24279  8345 8347 24276  12062 24086 24451  16652 20431 25071  16576 16578 24278  12920 12922 24505  11089 11181 24612  16791 24727 24926  23665 23666 24195  18829 24299 24590  7632 24603 24663  13585 13619 24962  7301 7308 24282  18386 18389 24284  18013 24298 24605  7338 21900 24747  20266 20603 24283  19416 24183 24395  23338 23881 24371  9190 21876 24285  7526 23849 24953  19492 19493 24435  5747 24245 24330  10471 24566 24990  14114 22938 24851  3150 24225 24354  15754 16853 24287  18670 24610 24740  16167 21276 24413  17860 23919 24139  19567 22479 24280  15632 23941 24927  9805 10589 24746  23437 23928 24667  14097 24147 24736  16526 23968 24927  16219 16221 24289  9665 23380 24355  16458 24180 24512  16804 24796 24948  16483 23892 24036  7821 7823 24290  12037 12939 24472  19892 24049 24541  4837 7375 24453  23252 23643 23988  17272 23445 24752  12715 23520 24708  13723 13754 24755  11254 24575 24718  10516 23678 23931  14113 23857 25081  14090 14222 24853  18773 24270 24333  8743 24268 24331  14163 23603 24589  15655 23713 24539  20954 20960 24295  13239 13241 24296  7615 17164 24935  6076 6083 24669  23193 23194 24201  15254 16751 24297  14238 14239 25066  18735 23930 24219  18640 24639 24836  16825 18673 24300  14203 18100 25006  12783 13028 24299  9554 9556 24298  14037 20636 23979  11014 12142 24211  14063 15571 24302  7885 7887 24303  18305 18308 24305  22010 22039 24304  9608 23869 24616  7632 19639 24663  13808 17225 24468  8013 8015 24306  8323 8325 24582  15830 21553 24314  17233 24823 24955  16941 16943 24567  19031 19405 24308  7342 24208 24416  22938 23651 24851  7654 21804 24309  19263 24572 24970  16657 17483 24312  16706 23639 24200  20424 24236 24832  13491 13493 24326  17046 23995 24399  16717 16718 24734  18094 22624 24323  18835 24446 24811  14117 22185 24311  11135 24301 24944  3843 3941 24315  17972 17973 24319  18050 18051 24317  14079 14106 24679  8407 24247 24384  17186 23734 24168  15766 17016 24483  19004 24243 24367  15628 21940 24316  12681 23688 24346  16582 23331 24554  19782 19789 24307  2093 2926 24586  15661 20636 23979  21775 24255 24382  16221 24289 24352  9856 23789 24030  19603 24008 24145  3444 3451 24324  15748 16692 24325  22980 24652 24760  14106 16622 24679  20387 24817 25002  13666 23423 24427  16440 16547 24812  19186 19190 24326  11507 24259 24389  18203 23855 24084  16119 24257 24391  8187 8196 24764  23250 23729 24230  6083 7386 24669  7683 24463 24861  17760 24309 24504  2989 3101 24327  5747 5754 24330  21803 24031 24208  16995 17005 24631  22479 24280 24361  16397 20359 24683  10470 24486 24833  14189 17040 25005  8743 8745 24331  12681 23886 24346  8153 11559 24332  7462 23925 24342  18771 18773 24333  19639 24663 24717  14968 16652 24334  7368 24146 24697  16193 16459 24335  18391 18393 24338  18008 18013 24336  16484 23266 24794  17158 23635 24550  11123 11125 24339  12480 13715 24149  15610 18542 24342  23635 23637 24550  17001 24018 24964  20182 20183 24344  12876 24271 24397  7436 17088 25068  12727 23522 25050  12956 24263 24956  3668 3675 24898  16589 16591 24277  16467 23625 24673  19250 19252 24370  19183 24119 24842  16127 16129 24347  21784 24248 24447  7682 22363 24345  11444 23185 24524  16578 24278 24412  20266 24283 24408  9182 9184 24349  9702 22928 24502  2737 24227 24437  15593 16534 24318  1708 1715 24350  10993 10997 24152  16221 16275 24352  17089 22580 24899  2982 3150 24354  12043 12979 24621  16414 23931 24490  7711 7713 24356  14055 15554 24359  16597 23922 24478  15298 24841 24978  9102 18670 24740  16508 17435 24907  2401 2471 24357  13761 24704 25078  11254 21477 24718  7376 19639 24717  18826 18829 24360  16270 16588 24684  16252 23783 24519  18771 24333 24383  23267 23851 24568  14180 22980 24652  3444 24324 24402  14592 19371 24363  16497 16498 24362  16661 16662 24727  16172 16696 24730  6034 7387 25013  13976 13978 24366  16994 16995 24631  7885 24303 24434  7541 23910 24893  19003 19004 24367  12715 23665 24195  20231 24269 24479  7449 22479 24361  18542 24342 24406  18828 18831 24368  5019 5026 24369  9950 23933 25011  17082 23990 24425  7682 24262 24345  18194 24398 24584  12785 12787 24525  18880 18902 24372  16473 17110 24076  16277 16557 24373  18688 18691 24375  10916 11444 24876  1498 1505 24374  16203 16458 24512  12202 21942 24376  12390 12606 24196  15647 16455 24195  19684 19686 24379  15655 23861 24539  22363 24345 24414  11020 23445 24928  5383 5390 24380  1470 18691 25009  18002 18005 24385  3766 7336 24381  7336 24317 24381  11095 11096 24458  18243 23269 24769  18771 18772 24383  2989 24327 24423  16031 21775 24382  7677 17510 24393  8407 8409 24384  16442 16444 24386  17451 17452 24419  18071 18072 24467  13666 23674 24427  11018 11020 24928  15838 15895 24387  16698 23929 24497  16461 16669 24388  11507 19493 24389  7415 23406 24581  14882 24128 24244  13978 24366 24422  16780 24202 25073  1960 2009 24390  14047 21063 24392  19416 19418 24395  16087 16650 24394  12659 23723 24571  16119 22450 24391  20486 24166 24753  18640 18692 24836  12428 24645 25063  7287 7294 24396  15855 15857 24329  12876 12878 24397  12697 12698 24364  18203 24143 24398  16197 18708 24403  3437 3444 24402  11671 24113 24205  19894 19895 24995  21804 24309 24504  3969 4067 24405  1120 4788 24824  9841 24021 24216  15787 18542 24406  17783 17784 25045  7449 24361 24433  19709 22627 24404  20386 20387 25002  21477 24718 24843  18395 24454 24744  16738 16740 24207  20265 20266 24408  5026 24369 24448  7590 16906 24527  6020 7478 24409  4788 7376 24824  9264 9650 25076  11444 24524 24876  17345 24181 24800  16578 16775 24412  23296 23297 24216  13639 24056 24171  7340 23845 25017  6671 6678 24475  16827 16923 24753  9163 11959 24310  8473 8475 24415  9786 24222 24343  7342 21788 24416  18921 18923 24417  16177 23730 24124  19252 24370 24496  17777 17781 24424  15529 17246 25000  7400 16889 24622  9213 9611 24222  16443 19327 24421  7411 22363 24414  13593 24275 24874  13978 13980 24422  12938 24174 24293  10521 23704 25038  16809 22851 24436  7694 17005 24980  7287 24396 24455  19305 19306 24840  5390 24380 24464  15777 24098 24243  9103 24325 24553  4368 4375 25070  15960 21117 24426  16250 23574 24668  17827 17829 24428  17760 17762 24504  2989 4116 24423  17647 17986 24470  12631 16794 25026  16923 16924 24753  7593 16916 24548  15787 24406 24462  15515 18761 24429  7841 8142 24430  8747 8749 24431  16692 24430 24715  13588 21931 24432  12659 24207 24571  19382 19384 24432  7464 24698 24770  7883 7885 24434  8168 8177 24237  16523 17820 25012  1715 24350 24544  21942 24376 24506  18192 18194 24584  17720 17734 24449  15697 16733 24242  15591 18034 24440  7533 18256 24999  19925 21826 25060  7449 22278 24433  16164 18523 24443  23730 24124 24465  5257 7409 24441  9748 24049 24541  13677 14060 24286  14740 24217 24942  23294 23881 24371  2639 2737 24437  16031 24382 24511  11771 11773 24445  16251 24020 24632  2401 24357 24560  14177 16810 24721  16706 16707 24471  8568 24408 24532  16012 23724 24489  9074 24370 24496  23340 23726 24322  19404 24308 24931  7652 21784 24447  12777 13601 24446  5026 5033 24448  18302 18304 24457  14884 21443 24958  17030 24348 25023  9268 11457 24452  19252 19255 24496  7366 19130 24456  16591 24277 24520  7280 7287 24455  12729 13678 24288  7481 24046 24894  16720 22376 24454  13005 21361 24919  15787 18326 24462  14067 16022 24459  16410 21414 24463  17860 24165 24256  6993 24796 24948  7464 19652 24770  16518 16520 24346  18761 24311 24429  11300 21993 24985  9110 23949 24316  5390 5397 24464  16554 24264 24413  8749 24431 24498  19128 19750 24469  14169 23730 24465  7519 23283 24466  16465 16997 24864  16891 16893 24480  20000 24011 24103  20385 21477 24843  16215 21221 24473  13636 23762 24512  6321 6328 24535  16183 16185 24476  17073 24196 25082  16245 16597 24643  19888 24086 24451  16590 16804 24438  12967 23338 24371  7507 24949 25036  19652 24770 24818  5593 5600 24478  20231 20233 24479  7552 24646 25033  9748 23671 24541  17687 17689 24487  16814 16839 24576  7615 24585 24935  8475 24415 24552  7485 24395 24592  15298 16996 24841  16444 24386 24588  7843 7845 24553  18034 24440 24533  18326 24462 24509  10798 12723 24644  16969 16970 24793  5761 5768 24485  16819 16829 24486  17450 17452 24482  16279 16491 24488  13292 16689 24491  19595 19596 24647  14189 14190 24492  5243 5250 24493  16848 16850 24407  18071 24467 24652  19792 19793 24481  21171 22584 25079  19428 24767 24888  16705 17260 24497  12595 12597 24484  16754 23715 24460  19882 23936 24719  9074 21922 24496  18302 24457 24543  7586 16888 24620  16718 17331 24734  11033 11035 24418  16126 23355 24883  7581 23715 24460  8749 8751 24498  16411 20422 24634  15518 17004 24598  15747 16798 24499  13293 23402 25024  16972 23344 24966  7651 23963 24756  16446 18272 24501  20659 20660 24500  9950 24187 25011  16241 16497 24503  20731 24200 24471  16254 24337 24577  18833 18835 24508  7360 21804 24504  16558 24073 24595  7644 19652 24818  9058 9192 24321  16473 23986 24076  11457 24452 24580  19255 24496 24604  16474 21942 24506  4501 17137 25033  7487 24398 24584  16174 18326 24509  20908 20911 24364  12159 23035 24328  17762 24504 24700  9557 9561 24510  16031 21924 24511  16728 16731 24803  21788 24416 24608  7586 24620 24993  15633 24035 24273  16225 16653 24513  18736 24219 24410  16709 24429 24524  19259 19263 24514  18409 18413 24516  21063 24392 24687  19722 19723 24648  23671 24240 24541  23225 23671 24240  20660 24423 24500  16579 16580 24609  1225 1232 24515  14046 23712 24910  14957 21833 24517  13291 15947 24518  20385 24843 24965  18192 24584 24776  16491 24488 24559  13506 19708 24521  7695 22743 24483  16126 16489 24548  16012 23109 24489  16708 16709 24524  19291 19295 24526  7644 24818 24868  18002 23946 24385  16592 16804 24411  7587 16898 24830  7350 23907 24767  22010 24304 25018  16573 16575 24529  16239 16517 24585  23511 23726 24322  16199 18034 24533  16547 16694 25061  15694 24004 24751  16547 24812 25061  14271 23494 24795  9190 24008 24145  13982 13984 24531  7729 8568 24532  9856 23672 24563  5957 5964 24534  16208 16674 24536  16174 24509 24561  7472 24846 24921  14236 22980 24760  19904 24451 24746  16185 24476 24602  7380 19650 24642  17954 17956 24537  7652 24447 24639  20776 20930 24538  19926 24099 24813  7475 24015 24488  15636 23719 24568  12861 23054 24591  8157 24080 24190  16467 23889 23952  23376 23377 24670  18297 18302 24543  13813 14987 24542  7472 19642 24921  16808 24841 24978  5607 7681 24540  16413 20422 24711  4739 7567 24546  1715 1722 24544  13001 23596 24595  8009 8011 24547  23255 23258 24834  3395 3654 24549  8349 8351 24551  21922 24496 24604  13715 23295 24976  8475 8477 24552  21567 24122 24850  3675 7338 24898  13708 23994 24284  17096 23879 24713  16548 16695 24377  16582 21546 24554  1617 1624 24555  9806 10806 24358  15636 23851 24568  12985 18128 24726  18106 18108 24556  7644 19635 24868  2030 2401 24560  16491 16493 24559  16423 21221 25072  16174 18185 24561  16282 24116 24461  13784 13786 24337  8215 24237 24857  3402 3423 24562  19081 24544 24754  16199 24533 24600  16258 17027 24566  16593 24520 24545  13027 23930 24219  19642 24921 24972  14149 24480 24905  20233 24479 24681  7504 21899 24565  11304 24085 24206  12993 24450 24966  21924 24511 24629  12771 13647 24570  15677 23714 24202  23296 24021 24216  19255 19257 24604  8393 9082 24572  19040 19103 24892  7507 21901 25036  18697 18700 24574  19635 24868 24920  3017 3038 24573  12453 12959 24528  15736 20969 24575  24004 24059 25046  16591 16593 24520  16558 23717 24595  12861 23034 24591  19377 19386 24579  8337 9036 24578  11457 18460 24580  12399 24514 24831  20422 24634 24711  18011 24510 24815  15947 24518 24641  19893 23248 24912  16243 23406 24581  16593 16812 24545  11264 20385 24965  16493 24559 24603  16579 23557 24609  15691 24341 24495  8753 8755 24583  13293 20912 25024  7487 21799 24584  17048 24450 24966  16413 24711 24791  7630 19642 24972  18824 18832 24590  16444 16524 24588  7360 24504 24700  16835 24400 24401  1785 7485 24592  17832 17967 24623  7484 22986 24614  19384 19385 24596  16829 24624 24937  19648 19649 24597  3969 24405 25075  18387 24056 24171  16523 16762 25012  18004 18005 24999  18069 18071 24652  16975 16976 24960  16824 16826 24729  12979 24039 24501  12779 12781 24743  7480 19656 24587  16199 18061 24600  18392 18395 24601  5040 5047 24599  16185 16187 24602  7387 19635 24920  17762 17764 24700  15760 16213 24863  16501 24362 24872  12989 24360 24525  16413 20626 24791  12715 24195 24708  17366 18415 24678  1232 24515 24722  8009 24547 24695  16493 16541 24603  7630 24972 25007  23733 24371 24976  17369 24224 25077  15019 24666 24769  12399 21922 24604  18009 18011 24605  18730 24175 25084  18191 18192 24776  17024 17114 24628  8603 24701 24819  17233 17235 24823  16333 16530 24607  5404 5411 24606  7504 24500 24565  16266 22068 24610  7646 21788 24608  7429 20360 24785  17744 24726 24739  15759 15761 24444  16740 24207 24571  13051 13055 24613  8755 24583 24662  16824 24729 24783  21899 24565 24636  2695 7701 24689  19036 19038 24614  5971 7450 24615  12674 23798 24932  15600 16551 24616  17001 23645 24964  6335 7419 24855  7404 24079 24178  4781 7703 24693  2905 7704 24694  2023 2065 24618  18709 18710 24619  23739 24020 24632  7567 17154 25058  10374 10471 24624  16265 16700 24911  3017 24573 24702  14087 21926 24626  16797 17250 24721  9161 19955 24627  18803 18806 24630  18061 24600 24682  7630 19637 25007  16622 24013 24426  9689 21924 24629  18982 18983 24703  16541 24603 24663  19893 23515 24912  16274 20819 24633  16438 16439 24638  7448 17037 24960  20969 24575 24718  7435 22583 24924  18069 24652 24760  19036 22986 24614  13986 16024 24637  16272 16985 24635  5047 24599 24690  21567 24775 24850  3080 7702 24685  16545 17088 25068  16496 24080 24190  7652 21805 24639  21747 24594 24691  14115 20424 24640  15947 20927 24641  9990 23588 24852  16913 16914 24716  7671 21899 24636  7423 16918 24872  11000 12178 24507  16859 21953 24642  21747 23011 24594  19688 19692 24645  12952 23202 24659  16282 16833 24461  16821 16824 24783  12157 12935 24752  13651 23747 24964  11254 24001 24575  10514 10521 24439  16972 17048 24966  14989 14991 24649  17156 17158 24550  19253 24050 24210  16431 23710 25046  16290 17137 24646  23551 24477 24812  16259 16854 24653  18700 24574 24777  19637 25007 25049  16616 16743 24654  19896 24328 24768  16664 24441 24634  1169 1176 24650  15686 19281 24655  5411 24606 24699  12222 13702 24946  18527 24695 24816  1365 1372 24656  16708 24524 24876  8411 8413 24657  2786 2849 24658  4508 7553 24665  8847 21000 24660  19103 19104 24892  1855 1862 24661  8755 8757 24662  16541 16543 24663  16901 17111 24736  14111 15019 24666  13803 15052 24425  12030 12032 24672  12169 12171 24611  21799 24584 24776  9857 10008 24477  16283 16702 24715  16210 16655 24674  16253 18061 24682  18296 18299 24677  9700 23993 24881  16266 24610 24740  11982 23515 24912  17967 24623 24765  13601 24630 24957  20233 20235 24681  1939 1946 24680  16329 16397 24683  16505 24085 24206  16524 24588 24797  13633 21973 25048  6027 6034 25013  14128 21063 24687  11008 11009 24353  8603 21832 24819  7377 19637 25049  14991 24649 24709  16209 17746 24698  5047 5054 24690  14157 21747 24691  16925 16927 24697  19921 19925 24692  7435 24924 25079  5292 7414 24688  8007 8009 24695  18926 18928 24696  7586 16987 24993  16893 24214 24480  17232 17233 24955  7638 19630 24675  16543 24663 24717  7437 17063 24668  19703 21826 24813  17764 24700 24884  16551 24616 24775  14087 24626 24763  16286 16287 24343  7564 18396 24744  19493 24389 24435  9689 24629 24759  17235 24131 24591  18191 24776 24959  8134 19357 24735  5411 5418 24699  7360 21790 24700  14214 23387 24749  7355 23904 25084  16463 16679 24701  3017 3087 24702  7671 24636 24720  7339 17673 24869  16602 17575 24808  8463 9094 24706  16425 24336 24502  16253 24682 24747  16912 24399 24919  15763 16287 24523  15298 16533 24978  9264 9266 25076  14991 15015 24709  7553 24665 24784  9562 9567 24707  13412 13447 24710  19897 24113 24205  10368 10472 24714  15611 16509 24530  17743 17744 24726  13028 24508 24743  18299 24677 24780  19888 19890 24451  7646 24608 24817  16554 24088 24258  13694 21509 24716  16543 16614 24717  7556 18414 24731  20969 21448 24718  19492 24435 25030  14157 24691 24758  18012 18016 24815  16707 17261 24908  17746 24698 24770  7409 22364 24711  7681 24643 24723  14203 16727 25006  1232 1239 24722  18113 18115 24724  12159 24328 24768  18810 22236 25044  13337 21996 24725  16455 24195 24708  7671 21902 24720  16416 16753 24728  11496 18707 24729  21805 24639 24836  7681 22342 24723  7409 24634 24711  9171 23407 24400  21832 24819 24940  16252 16667 24519  16447 16449 24732  874 23770 24685  15689 24017 24341  18069 18070 24760  11129 11131 24733  16478 16649 24882  16244 16642 24735  8389 8391 24831  18126 18128 24739  15533 21812 24738  16266 16700 24740  6993 7000 24796  17366 24678 24781  3136 3164 24742  7465 19790 24730  13505 13819 24745  11087 11089 24612  9856 24030 24563  16253 18153 24747  19657 24637 24925  7429 22407 24785  1862 24661 24865  18115 24724 24782  2786 24658 24867  16474 24647 24779  866 23768 24693  411 23769 24694  18707 24729 24783  13337 24725 24786  14061 24947 25034  16679 24701 24819  18734 18737 24756  19080 19081 24754  16827 20486 24753  16212 16213 24557  22364 24711 24791  8830 8836 24757  7540 24027 25086  17967 17968 24765  15575 23511 24322  14157 21764 24758  16566 16568 24762  7905 8151 24761  9325 9689 24759  16964 23558 24809  19425 19428 24767  7450 24703 24778  13708 24338 24505  14087 21981 24763  7640 19645 24766  17798 17799 24771  16261 17746 24770  18178 18299 24780  8461 19692 25063  18700 18738 24777  22342 24723 24802  17170 18913 24773  16486 20750 24772  8136 19492 25030  15019 23269 24769  9567 24707 24837  18148 18151 24774  16551 21567 24775  7553 18398 24784  21448 24718 24843  16284 22730 24750  17954 24068 24537  19004 24098 24243  7666 21799 24776  7450 18863 24778  16415 16474 24779  9147 24692 25060  21790 24700 24884  16251 16666 24632  18115 18118 24782  10470 18707 24783  12159 23746 24768  21902 24720 24801  12671 13337 24786  16872 17433 24787  1589 1596 24788  2086 7575 24790  10696 21026 24789  15575 24322 24853  4725 4732 24971  15855 24329 24651  16261 24770 24818  14239 16475 25066  17764 17766 24884  10472 18964 24798  16524 18588 24797  18191 18204 24959  12030 24672 25052  17365 17366 24781  17344 17345 24800  17332 23724 24489  12443 21832 24940  21764 24758 24835  7683 22364 24791  8854 22013 24827  19297 19300 24804  7332 21902 24801  21414 24688 24994  7406 22342 24802  18805 18808 24811  11563 24094 24261  2660 2940 24822  16261 18063 24818  7627 24082 24900  7579 23997 24808  18863 24778 24856  6734 6741 25043  8836 24757 24891  18526 18527 24816  8353 8355 24814  15555 22519 24806  19568 24128 24244  16679 16681 24819  19628 22721 24925  7719 7721 24820  15017 15021 24821  17982 17984 24826  14017 24516 24844  12606 24196 25082  7646 21801 24817  23224 23511 24992  14680 14681 24879  16528 24067 24795  20012 20013 25011  7435 22584 25079  7552 18074 24870  7385 24229 24291  17725 24949 25036  5642 7513 24825  12773 12775 24957  16522 22129 24829  15677 23803 25073  10376 10378 24833  18063 24818 24868  14173 21764 24835  7357 21805 24836  16815 16817 24937  5061 5068 24839  13652 19605 24840  19185 19189 24842  15574 23617 24569  9567 9569 24837  13017 15855 24651  15798 21448 24843  7556 24731 24998  16618 16710 24846  2128 7542 24845  8763 8765 24847  21413 21415 24994  5628 5635 24848  12396 23618 25061  13651 24018 24964  14050 23719 24568  18738 24777 24974  7666 24776 24959  16189 16456 24617  5425 5432 24854  7622 18863 24856  16755 24792 24968  11175 22608 24859  7332 24801 24875  14118 16536 24862  5278 5285 24861  18588 24797 24984  17766 24884 25039  1862 1869 24865  16420 18063 24868  2786 2793 24867  17363 17367 24871  18979 18981 24874  14173 24835 24913  16681 24819 24940  11982 23988 24912  23429 24713 24947  7381 19643 24873  14228 17732 24941  1148 7699 7705  14585 18962 24877  13864 14219 24625  18399 18404 24895  16556 18177 24893  16708 22158 24876  12670 12672 24878  14091 14223 24593  14517 16526 24866  1603 7354 24880  16710 24846 24921  15639 16703 24881  16420 24868 24920  10472 24714 24798  7578 22778 24807  14958 14959 24885  18980 18981 24894  7665 21790 24884  16853 16854 24917  7332 21903 24875  9106 19355 24890  16604 17677 24923  8836 21317 24891  3248 3465 24889  7622 24856 24934  1477 7498 24896  3325 3367 24886  15210 23720 24365  15798 24843 24965  16173 16696 24900  18124 18127 24982  7439 17057 24577  7381 24873 24929  16420 17821 24920  7941 7943 24903  14585 24877 24933  10480 24165 24256  14635 23270 24908  8143 19216 24906  19896 19899 24768  11476 18584 24911  6986 6993 24948  14149 20723 24905  17095 23429 24713  16863 17097 25040  3129 3143 24909  16729 16730 24904  12221 13702 24860  19192 23971 25030  18976 24024 24788  14173 21771 24913  1806 1813 24914  16563 16564 24916  21825 21826 25060  16957 16958 24910  2240 2856 24897  21801 24817 25002  2219 7541 25053  12968 14196 24918  8767 9137 24915  7564 24635 24971  16911 16912 24919  17261 23270 24908  19035 19037 24931  16710 16713 24921  16530 20737 24922  16740 16742 24571  16919 16920 24924  7381 19779 24929  16417 17725 24949  14584 14585 24933  17970 17974 24953  13496 13501 24936  7622 18908 24934  17260 23929 24497  18372 23099 24844  16681 16870 24940  8415 8417 24939  5453 5460 24938  15593 24318 24589  21903 24875 24954  16884 17554 24943  19482 19484 24945  3325 24886 24963  21185 23398 24704  7809 8155 24950  16713 24921 24972  7665 24884 25039  18930 18932 24952  12163 20429 24951  19216 24906 25008  19779 24929 24979  19039 19040 24956  16539 17150 24958  14584 24933 24983  19734 23678 24490  16513 16768 24961  7542 24780 24845  7666 21786 24959  13647 25010 25044  16431 24059 25046  15798 20220 24965  17766 17768 25039  2478 2821 24967  19261 19264 24970  7672 21903 24954  16509 24530 24887  18908 24934 24997  16713 16776 24972  7556 18377 24998  4494 4501 25033  18588 19072 24984  18723 18738 24974  17768 22229 25039  3318 3325 24963  13818 16169 24975  7362 19005 24977  16919 24924 25079  5663 7399 24969  19779 19780 24979  12989 24132 24368  16808 16857 24978  14584 18560 24983  16485 16645 24985  14081 14083 24987  10370 10372 24990  5075 5082 24991  12163 24951 25059  24240 24541 24719  16635 18605 25022  16776 24972 25007  12886 12888 24986  14184 15581 24664  15529 18089 25000  7367 18908 24997  22044 22047 25081  16262 17040 25005  17209 17725 25036  18802 18809 25010  23377 24670 24671  4186 7452 25003  11510 19216 25008  18089 25000 25042  16776 16778 25007  14223 24593 24858  1463 1470 25009  16207 17708 25029  8459 8461 25063  19264 19266 25057  18809 25010 25044  20237 20240 25017  16584 16830 25019  13484 13489 25016  14101 16603 25015  13647 22236 25044  16627 22080 25014  15038 15040 25021  7486 21801 25002  12888 24986 25083  9137 22010 25018  16778 25007 25049  3115 7532 25020  5810 5817 25027  18809 18810 25044  18089 18090 25042  4172 4179 25028  16627 25014 25067  16926 16927 25078  16421 16422 25035  15781 23406 24737  12028 12030 25052  7873 7875 25041  17342 17346 25065  18712 18713 25048  19192 24435 25030  7458 19616 25054  10945 10946 25047  5649 5656 25037  19135 19139 25056  16778 16865 25049  7665 22229 25039  15589 16745 25051  18164 18165 25085  16514 18181 25086  12163 21242 25059  9082 22670 25057  21707 23042 25069  16188 20431 25071  16423 21738 25072  20905 20906 25074  16919 21171 25079  16627 16628 25067  2562 7343 25064  3458 3969 25075  4193 4200 25080  16506 17154 25058  10708 23422 24989  12888 12890 25083  5684 7514 25062  19266 22670 25057  16963 24016 24676  19005 24913 24977  12177 24388 24582  18840 24174 24293  3255 3283 25055  19207 24072 24975  9137 24982 25018  14635 24471 24908  17111 24147 24736  12178 24003 24507  7694 22757 24980  12999 24142 24655  16850 23034 24823  16073 23708 24944  18603 24229 24291  15593 23603 24589  17025 23798 24932  20424 24640 24832  12594 14061 25034  16672 24659 25065  9805 12062 24746  12984 23440 24686  17246 24002 25000  13017 24651 24928  23678 23931 24490  14143 23437 24667  14020 23996 25023  23210 24030 24563  16852 24111 25028  16455 16468 24708  19264 24970 25057  16925 24146 24697  9082 24970 25057  17097 17447 25040  15694 16737 24751  16762 24135 24848  18981 24421 24894  12144 24004 25046  15571 24792 24968  12993 23344 24966  9110 24394 24564  9074 24161 24370  10002 10971 24838  16509 16511 24887  13723 14018 24755  15052 23990 24425  10603 23266 24794  16511 24887 25050  14223 15519 24858  23294 24371 24976  8187 8215 24764  12723 24644 24995  7487 24143 24398  14271 24067 24795  15571 16726 24968  17017 23967 24522  17444 24236 24832  16511 16847 25050  17554 24445 24943  22043 23429 24947  11135 17014 24944  7375 24373 24453  12993 24000 24450  12939 24383 24472  14090 15575 24853  8143 24816 24906  16707 24471 24908  15554 24359 24482  18128 24726 24739  20909 20910 24996  18126 24739 25018  14230 23498 25001  7464 24194 24698  16286 24222 24343  7703 23768 24693  7704 23769 24694  7692 24638 24899  16643 16644 24981  24124 24465 24857  7702 23770 24685  12144 23710 25046  16794 24799 25026  23294 23295 24976  19626 23651 24851  19039 24263 24956  23004 24237 24857  17744 24304 24739  23387 24292 24749  16517 16519 24935  23248 23988 24912  16469 16472 24930  13585 13790 24962  13715 23733 24976  17085 24318 24589  16622 24491 24679  11018 13017 24928  10995 10998 25004  7515 24264 24413  13773 23739 24632  11095 24344 24458  19192 24234 24435  20910 20911 24809  16664 24241 24493  7507 24198 24949  17024 23962 24628  23645 23747 24964  16735 24705 24902  19877 19879 24988  16414 23722 24989  19189 24119 24842  12396 24812 25061  16706 24200 24471  8196 24764 24981  19693 24172 24885  7386 24536 24669  8151 24209 24674  12606 13020 25082  8862 8864 25032  9167 9171 24902  15530 17447 25040  9628 23402 24996  12979 24513 24621  7704 23769 24810  16239 24433 24585  16903 24217 24942  7472 24246 24846  10708 23722 24989  16854 24869 25025  16440 23551 24812  16517 24585 24935  20183 24344 24458  23054 24131 24591  17005 24127 24980  18979 24275 24874  13764 24254 24601  24869 24901 25025  16557 24373 24453  7387 24771 25013  19703 24099 24813  16725 24122 24850  12062 24451 24746  9171 24705 24902  16981 24235 25037  18772 24383 24472  18013 24336 24502  13028 24299 24590  18393 24338 24505  8136 23971 25030  17575 23997 24808  13702 24340 24860  17368 23967 24807  19035 24308 24931  9650 24774 25076  8603 24274 24701  16853 24287 24946  19104 23899 24892  23803 24741 25073  18829 24360 24525  7697 23768 25077  7376 24654 24824  19892 23936 24719  16692 24325 24553  9556 24298 24605  19596 24506 24647  13702 24340 24917  16597 24540 24643  22278 24433 24585  16650 24394 24564  16839 24528 24576  16051 24125 24799  7355 24175 25084  19723 24521 24648  7445 24341 24495  16669 24388 24582  17057 24337 24577  20911 24676 24809  16662 23927 24926  20012 23933 25011  18728 23904 25084  16731 24613 24803  17331 24660 24734  19882 24240 24719  16904 24474 24942  12959 24528 24576  16804 24411 24948  16850 24407 24955  8215 24124 24857  9171 24400 24705  19892 24541 24719  7409 24441 24634  16927 24704 25078  16950 24340 24860  7697 24224 25077  16652 24334 25071  15571 24302 24792  16653 24513 24621  7338 24728 24898  16074 23830 25031  16474 24506 24647  13506 24521 24648  16689 24491 24679  16742 24670 24671  7681 24540 24643  8142 24430 24715  16842 24292 24749  16674 24536 24669  7423 24362 24872  7478 24409 25029  18983 24615 24703  13601 24446 24811  16720 24454 24744  20013 24187 25011  16762 24825 25012  21414 24463 24861  17031 23996 25023  16964 24676 24809  18691 24375 25009  18835 24508 24743  7339 24653 24869  16829 24486 24833  16809 24436 24870  23004 24465 24857  7450 24615 24703  16804 24438 24796  23297 24216 24992  18413 24516 24844  9665 24355 24834  16529 24442 24973  11959 24310 24864  9561 24510 24815  8847 24660 24734  16976 24340 25025  19263 24514 24831  17346 24659 25065  20360 24607 24785  15677 24202 25073  16649 24745 24882  13055 24613 24803  21221 24473 25072  14189 24492 25005  16727 24829 25006  14020 24348 25023  14740 24474 24942  16743 24654 24824  17027 24566 24990  22013 24782 24827  16854 24653 24869  17043 24442 24973  16643 24764 24981  16439 24638 24899  13647 24570 25010  14681 24805 24879  16475 24891 25066  18118 24782 24827  7567 24546 25058  9082 24572 24970  16024 24637 24925  10471 24624 24937  13819 24745 24882  16747 24799 25026  16753 24728 24898  18806 24630 24957  16794 24805 24879  16421 24558 25035  16985 24635 24971  17673 24869 24901  10521 24439 25038  16854 24917 25025  7414 24688 24994  18127 24915 24982  17137 24646 25033  24340 24917 25025  19692 24645 25063  7541 24961 25053  19925 24692 25060  17799 24771 25013  16522 24829 25006  7513 24825 25012  9137 24915 24982  18151 24774 25076  16976 24901 25025  16780 24741 25073  21317 24891 25066  16768 24961 25053  403 2695 24689  411 2905 24694  866 4781 24693  874 3080 24685  966 3234 6818  973 1155 6286  1155 6286 7699  3234 6818 7700  6286 6293 7699  6811 6818 7700  8 3858 4033  7 8 4033  3858 3859 4034  3858 4033 4034  3859 3860 4035  3859 4034 4035  3860 3861 4036  3860 4035 4036  3862 4036 4037  3861 3862 4036  3862 3863 4038  3862 4037 4038  3863 3864 4039  3863 4038 4039  33 2997 3144  32 33 2997  2997 2998 3145  2997 3144 3145  2999 3145 3146  2998 2999 3145  3000 3146 3147  2999 3000 3146  3001 3147 3148  3000 3001 3147  3002 3148 3149  3001 3002 3148  3003 3149 3150  3002 3003 3149  12 3053 3578  11 12 3053  3053 3054 3579  3053 3578 3579  3054 3055 3580  3054 3579 3580  3056 3580 3581  3055 3056 3580  3057 3581 3582  3056 3057 3581  3058 3582 3583  3057 3058 3582  3059 3583 3584  3058 3059 3583  15 3746 3935  14 15 3746  3747 3935 3936  3746 3747 3935  3748 3936 3937  3747 3748 3936  3749 3937 3938  3748 3749 3937  3750 3938 3939  3749 3750 3938  3751 3939 3940  3750 3751 3939  3752 3940 3941  3751 3752 3940  6 881 3074  0 6 881  880 3074 3075  880 881 3074  879 3075 3076  879 880 3075  878 3076 3077  878 879 3076  877 3077 3078  877 878 3077  876 877 3079  877 3078 3079  875 3079 3080  875 876 3079  7 3074 4033  6 7 3074  3075 4033 4034  3074 3075 4033  3075 3076 4035  3075 4034 4035  3077 4035 4036  3076 3077 4035  3078 4036 4037  3077 3078 4036  3078 3079 4038  3078 4037 4038  3080 4038 4039  3079 3080 4038  15 3837 3935  15 16 3837  3837 3838 3936  3837 3935 3936  3838 3839 3937  3838 3936 3937  3839 3840 3938  3839 3937 3938  3840 3841 3939  3840 3938 3939  3841 3842 3940  3841 3939 3940  3843 3940 3941  3842 3843 3940  29 3515 3830  28 29 3830  3515 3516 3831  3515 3830 3831  3516 3517 3832  3516 3831 3832  3517 3518 3833  3517 3832 3833  3518 3519 3834  3518 3833 3834  3519 3520 3835  3519 3834 3835  3521 3835 3836  3520 3521 3835  32 2997 3067  31 32 3067  2997 2998 3068  2997 3067 3068  2998 2999 3069  2998 3068 3069  3000 3069 3070  2999 3000 3069  3001 3070 3071  3000 3001 3070  3001 3002 3072  3001 3071 3072  3002 3003 3073  3002 3072 3073  30 3515 3893  29 30 3515  3516 3893 3894  3515 3516 3893  3517 3894 3895  3516 3517 3894  3518 3895 3896  3517 3518 3895  3519 3896 3897  3518 3519 3896  3520 3897 3898  3519 3520 3897  3521 3898 3899  3520 3521 3898  11 3053 3739  10 11 3739  3054 3739 3740  3053 3054 3739  3054 3055 3741  3054 3740 3741  3055 3056 3742  3055 3741 3742  3056 3057 3743  3056 3742 3743  3057 3058 3744  3057 3743 3744  3059 3744 3745  3058 3059 3744  9 3858 4117  8 9 3858  3859 4117 4118  3858 3859 4117  3859 3860 4119  3859 4118 4119  3861 4119 4120  3860 3861 4119  3861 3862 4121  3861 4120 4121  3863 4121 4122  3862 3863 4121  3863 3864 4123  3863 4122 4123  16 3648 3837  16 17 3648  3648 3649 3838  3648 3837 3838  3649 3650 3839  3649 3838 3839  3651 3839 3840  3650 3651 3839  3651 3652 3841  3651 3840 3841  3652 3653 3842  3652 3841 3842  3653 3654 3843  3653 3842 3843  10 3739 4117  9 10 4117  3740 4117 4118  3739 3740 4117  3740 3741 4119  3740 4118 4119  3741 3742 4120  3741 4119 4120  3742 3743 4121  3742 4120 4121  3743 3744 4122  3743 4121 4122  3745 4122 4123  3744 3745 4122  31 3067 3893  30 31 3893  3068 3893 3894  3067 3068 3893  3068 3069 3895  3068 3894 3895  3069 3070 3896  3069 3895 3896  3070 3071 3897  3070 3896 3897  3071 3072 3898  3071 3897 3898  3072 3073 3899  3072 3898 3899  28 3088 3830  27 28 3088  3089 3830 3831  3088 3089 3830  3090 3831 3832  3089 3090 3831  3091 3832 3833  3090 3091 3832  3092 3833 3834  3091 3092 3833  3093 3834 3835  3092 3093 3834  3094 3835 3836  3093 3094 3835  13 3550 3578  12 13 3578  3551 3578 3579  3550 3551 3578  3552 3579 3580  3551 3552 3579  3553 3580 3581  3552 3553 3580  3553 3554 3582  3553 3581 3582  3554 3555 3583  3554 3582 3583  3555 3556 3584  3555 3583 3584  14 3550 3746  13 14 3550  3551 3746 3747  3550 3551 3746  3552 3747 3748  3551 3552 3747  3553 3748 3749  3552 3553 3748  3554 3749 3750  3553 3554 3749  3555 3750 3751  3554 3555 3750  3555 3556 3752  3555 3751 3752  51 2990 3585  50 51 2990  2990 2991 3586  2990 3585 3586  2991 2992 3587  2991 3586 3587  2993 3587 3588  2992 2993 3587  2994 3588 3589  2993 2994 3588  2994 2995 3590  2994 3589 3590  2996 3590 3591  2995 2996 3590  46 3046 3102  45 46 3102  3047 3102 3103  3046 3047 3102  3047 3048 3104  3047 3103 3104  3048 3049 3105  3048 3104 3105  3049 3050 3106  3049 3105 3106  3050 3051 3107  3050 3106 3107  3051 3052 3108  3051 3107 3108  38 3081 3123  37 38 3081  3081 3082 3124  3081 3123 3124  3083 3124 3125  3082 3083 3124  3084 3125 3126  3083 3084 3125  3084 3085 3127  3084 3126 3127  3086 3127 3128  3085 3086 3127  3087 3128 3129  3086 3087 3128  42 3158 3172  41 42 3172  3159 3172 3173  3158 3159 3172  3159 3160 3174  3159 3173 3174  3160 3161 3175  3160 3174 3175  3162 3175 3176  3161 3162 3175  3162 3163 3177  3162 3176 3177  3163 3164 3178  3163 3177 3178  49 3018 4124  48 49 3018  3019 4124 4125  3018 3019 4124  3020 4125 4126  3019 3020 4125  3021 4126 4127  3020 3021 4126  3022 4127 4128  3021 3022 4127  3023 4128 4129  3022 3023 4128  3023 3024 4130  3023 4129 4130  56 3214 3270  55 56 3214  3215 3270 3271  3214 3215 3270  3216 3271 3272  3215 3216 3271  3217 3272 3273  3216 3217 3272  3218 3273 3274  3217 3218 3273  3219 3274 3275  3218 3219 3274  3219 3220 3276  3219 3275 3276  35 2976 3032  34 35 2976  2977 3032 3033  2976 2977 3032  2978 3033 3034  2977 2978 3033  2979 3034 3035  2978 2979 3034  2979 2980 3036  2979 3035 3036  2981 3036 3037  2980 2981 3036  2982 3037 3038  2981 2982 3037  52 3585 3704  51 52 3585  3586 3704 3705  3585 3586 3704  3587 3705 3706  3586 3587 3705  3588 3706 3707  3587 3588 3706  3588 3589 3708  3588 3707 3708  3590 3708 3709  3589 3590 3708  3590 3591 3710  3590 3709 3710  39 3123 3137  38 39 3123  3124 3137 3138  3123 3124 3137  3125 3138 3139  3124 3125 3138  3126 3139 3140  3125 3126 3139  3126 3127 3141  3126 3140 3141  3128 3141 3142  3127 3128 3141  3129 3142 3143  3128 3129 3142  34 2976 3144  33 34 3144  2976 2977 3145  2976 3144 3145  2977 2978 3146  2977 3145 3146  2978 2979 3147  2978 3146 3147  2979 2980 3148  2979 3147 3148  2980 2981 3149  2980 3148 3149  2981 2982 3150  2981 3149 3150  54 3767 4089  53 54 3767  3768 4089 4090  3767 3768 4089  3769 4090 4091  3768 3769 4090  3770 4091 4092  3769 3770 4091  3771 4092 4093  3770 3771 4092  3772 4093 4094  3771 3772 4093  3772 3773 4095  3772 4094 4095  37 3011 3081  36 37 3011  3012 3081 3082  3011 3012 3081  3013 3082 3083  3012 3013 3082  3014 3083 3084  3013 3014 3083  3015 3084 3085  3014 3015 3084  3016 3085 3086  3015 3016 3085  3017 3086 3087  3016 3017 3086  49 2990 4124  49 50 2990  2990 2991 4125  2990 4124 4125  2991 2992 4126  2991 4125 4126  2993 4126 4127  2992 2993 4126  2993 2994 4128  2993 4127 4128  2994 2995 4129  2994 4128 4129  2995 2996 4130  2995 4129 4130  36 3011 3032  35 36 3032  3011 3012 3033  3011 3032 3033  3012 3013 3034  3012 3033 3034  3013 3014 3035  3013 3034 3035  3015 3035 3036  3014 3015 3035  3015 3016 3037  3015 3036 3037  3016 3017 3038  3016 3037 3038  44 3116 3130  43 44 3130  3117 3130 3131  3116 3117 3130  3117 3118 3132  3117 3131 3132  3118 3119 3133  3118 3132 3133  3119 3120 3134  3119 3133 3134  3120 3121 3135  3120 3134 3135  3121 3122 3136  3121 3135 3136  40 3109 3137  39 40 3137  3109 3110 3138  3109 3137 3138  3111 3138 3139  3110 3111 3138  3111 3112 3140  3111 3139 3140  3112 3113 3141  3112 3140 3141  3113 3114 3142  3113 3141 3142  3114 3115 3143  3114 3142 3143  53 3704 3767  52 53 3704  3704 3705 3768  3704 3767 3768  3706 3768 3769  3705 3706 3768  3707 3769 3770  3706 3707 3769  3708 3770 3771  3707 3708 3770  3709 3771 3772  3708 3709 3771  3709 3710 3773  3709 3772 3773  55 3214 4089  54 55 4089  3214 3215 4090  3214 4089 4090  3215 3216 4091  3215 4090 4091  3217 4091 4092  3216 3217 4091  3217 3218 4093  3217 4092 4093  3218 3219 4094  3218 4093 4094  3220 4094 4095  3219 3220 4094  41 3109 3172  40 41 3109  3110 3172 3173  3109 3110 3172  3111 3173 3174  3110 3111 3173  3112 3174 3175  3111 3112 3174  3112 3113 3176  3112 3175 3176  3114 3176 3177  3113 3114 3176  3115 3177 3178  3114 3115 3177  47 3046 3060  46 47 3046  3047 3060 3061  3046 3047 3060  3048 3061 3062  3047 3048 3061  3049 3062 3063  3048 3049 3062  3050 3063 3064  3049 3050 3063  3051 3064 3065  3050 3051 3064  3052 3065 3066  3051 3052 3065  45 3102 3116  44 45 3116  3102 3103 3117  3102 3116 3117  3103 3104 3118  3103 3117 3118  3105 3118 3119  3104 3105 3118  3105 3106 3120  3105 3119 3120  3106 3107 3121  3106 3120 3121  3108 3121 3122  3107 3108 3121  43 3130 3158  42 43 3158  3130 3131 3159  3130 3158 3159  3132 3159 3160  3131 3132 3159  3133 3160 3161  3132 3133 3160  3134 3161 3162  3133 3134 3161  3134 3135 3163  3134 3162 3163  3136 3163 3164  3135 3136 3163  48 3018 3060  47 48 3060  3018 3019 3061  3018 3060 3061  3020 3061 3062  3019 3020 3061  3021 3062 3063  3020 3021 3062  3021 3022 3064  3021 3063 3064  3022 3023 3065  3022 3064 3065  3024 3065 3066  3023 3024 3065  942 943 6700  942 6693 6700  6693 6700 6701  6693 6694 6701  6694 6701 6702  6694 6695 6702  6695 6702 6703  6695 6696 6703  6696 6703 6704  6696 6697 6704  6697 6704 6705  6697 6698 6705  6698 6705 6706  6698 6699 6706  938 939 6672  938 6665 6672  6665 6672 6673  6665 6666 6673  6666 6673 6674  6666 6667 6674  6667 6674 6675  6667 6668 6675  6668 6675 6676  6668 6669 6676  6669 6676 6677  6669 6670 6677  6670 6677 6678  6670 6671 6678  945 946 6721  945 6714 6721  6714 6721 6722  6714 6715 6722  6715 6722 6723  6715 6716 6723  6716 6723 6724  6716 6717 6724  6717 6724 6725  6717 6718 6725  6718 6725 6726  6718 6719 6726  6719 6726 6727  6719 6720 6727  939 940 6679  939 6672 6679  6672 6679 6680  6672 6673 6680  6673 6680 6681  6673 6674 6681  6674 6681 6682  6674 6675 6682  6675 6682 6683  6675 6676 6683  6676 6683 6684  6676 6677 6684  6677 6684 6685  6677 6678 6685  950 951 6756  950 6749 6756  6749 6756 6757  6749 6750 6757  6750 6757 6758  6750 6751 6758  6751 6758 6759  6751 6752 6759  6752 6759 6760  6752 6753 6760  6753 6760 6761  6753 6754 6761  6754 6761 6762  6754 6755 6762  937 938 6665  937 6658 6665  6658 6665 6666  6658 6659 6666  6659 6666 6667  6659 6660 6667  6660 6667 6668  6660 6661 6668  6661 6668 6669  6661 6662 6669  6662 6669 6670  6662 6663 6670  6663 6670 6671  6663 6664 6671  935 936 6651  935 6644 6651  6644 6651 6652  6644 6645 6652  6645 6652 6653  6645 6646 6653  6646 6653 6654  6646 6647 6654  6647 6654 6655  6647 6648 6655  6648 6655 6656  6648 6649 6656  6649 6656 6657  6649 6650 6657  946 947 6728  946 6721 6728  6721 6728 6729  6721 6722 6729  6722 6729 6730  6722 6723 6730  6723 6730 6731  6723 6724 6731  6724 6731 6732  6724 6725 6732  6725 6732 6733  6725 6726 6733  6726 6733 6734  6726 6727 6734  947 948 6735  947 6728 6735  6728 6735 6736  6728 6729 6736  6729 6736 6737  6729 6730 6737  6730 6737 6738  6730 6731 6738  6731 6738 6739  6731 6732 6739  6732 6739 6740  6732 6733 6740  6733 6740 6741  6733 6734 6741  936 937 6658  936 6651 6658  6651 6658 6659  6651 6652 6659  6652 6659 6660  6652 6653 6660  6653 6660 6661  6653 6654 6661  6654 6661 6662  6654 6655 6662  6655 6662 6663  6655 6656 6663  6656 6663 6664  6656 6657 6664  951 952 6763  951 6756 6763  6756 6763 6764  6756 6757 6764  6757 6764 6765  6757 6758 6765  6758 6765 6766  6758 6759 6766  6759 6766 6767  6759 6760 6767  6760 6767 6768  6760 6761 6768  6761 6768 6769  6761 6762 6769  940 941 6686  940 6679 6686  6679 6686 6687  6679 6680 6687  6680 6687 6688  6680 6681 6688  6681 6688 6689  6681 6682 6689  6682 6689 6690  6682 6683 6690  6683 6690 6691  6683 6684 6691  6684 6691 6692  6684 6685 6692  934 935 6644  934 6637 6644  6637 6644 6645  6637 6638 6645  6638 6645 6646  6638 6639 6646  6639 6646 6647  6639 6640 6647  6640 6647 6648  6640 6641 6648  6641 6648 6649  6641 6642 6649  6642 6649 6650  6642 6643 6650  943 944 6707  943 6700 6707  6700 6707 6708  6700 6701 6708  6701 6708 6709  6701 6702 6709  6702 6709 6710  6702 6703 6710  6703 6710 6711  6703 6704 6711  6704 6711 6712  6704 6705 6712  6705 6712 6713  6705 6706 6713  948 949 6742  948 6735 6742  6735 6742 6743  6735 6736 6743  6736 6743 6744  6736 6737 6744  6737 6744 6745  6737 6738 6745  6738 6745 6746  6738 6739 6746  6739 6746 6747  6739 6740 6747  6740 6747 6748  6740 6741 6748  941 942 6693  941 6686 6693  6686 6693 6694  6686 6687 6694  6687 6694 6695  6687 6688 6695  6688 6695 6696  6688 6689 6696  6689 6696 6697  6689 6690 6697  6690 6697 6698  6690 6691 6698  6691 6698 6699  6691 6692 6699  944 945 6714  944 6707 6714  6707 6714 6715  6707 6708 6715  6708 6715 6716  6708 6709 6716  6709 6716 6717  6709 6710 6717  6710 6717 6718  6710 6711 6718  6711 6718 6719  6711 6712 6719  6712 6719 6720  6712 6713 6720  949 950 6749  949 6742 6749  6742 6749 6750  6742 6743 6750  6743 6750 6751  6743 6744 6751  6744 6751 6752  6744 6745 6752  6745 6752 6753  6745 6746 6753  6746 6753 6754  6746 6747 6754  6747 6754 6755  6747 6748 6755  658 5202 5209  657 658 5202  5203 5209 5210  5202 5203 5209  5204 5210 5211  5203 5204 5210  5205 5211 5212  5204 5205 5211  5206 5212 5213  5205 5206 5212  5207 5213 5214  5206 5207 5213  5208 5214 5215  5207 5208 5214  661 5223 5230  660 661 5223  5224 5230 5231  5223 5224 5230  5225 5231 5232  5224 5225 5231  5226 5232 5233  5225 5226 5232  5227 5233 5234  5226 5227 5233  5228 5234 5235  5227 5228 5234  5229 5235 5236  5228 5229 5235  660 5216 5223  659 660 5216  5217 5223 5224  5216 5217 5223  5218 5224 5225  5217 5218 5224  5219 5225 5226  5218 5219 5225  5220 5226 5227  5219 5220 5226  5221 5227 5228  5220 5221 5227  5222 5228 5229  5221 5222 5228  659 5209 5216  658 659 5209  5210 5216 5217  5209 5210 5216  5211 5217 5218  5210 5211 5217  5212 5218 5219  5211 5212 5218  5213 5219 5220  5212 5213 5219  5214 5220 5221  5213 5214 5220  5215 5221 5222  5214 5215 5221  662 5230 5237  661 662 5230  5231 5237 5238  5230 5231 5237  5232 5238 5239  5231 5232 5238  5233 5239 5240  5232 5233 5239  5234 5240 5241  5233 5234 5240  5235 5241 5242  5234 5235 5241  5236 5242 5243  5235 5236 5242  933 934 6637  933 6630 6637  6630 6637 6638  6630 6631 6638  6631 6638 6639  6631 6632 6639  6632 6639 6640  6632 6633 6640  6633 6640 6641  6633 6634 6641  6634 6641 6642  6634 6635 6642  6635 6642 6643  6635 6636 6643  919 920 6539  919 6532 6539  6532 6539 6540  6532 6533 6540  6533 6540 6541  6533 6534 6541  6534 6541 6542  6534 6535 6542  6535 6542 6543  6535 6536 6543  6536 6543 6544  6536 6537 6544  6537 6544 6545  6537 6538 6545  932 933 6630  932 6623 6630  6623 6630 6631  6623 6624 6631  6624 6631 6632  6624 6625 6632  6625 6632 6633  6625 6626 6633  6626 6633 6634  6626 6627 6634  6627 6634 6635  6627 6628 6635  6628 6635 6636  6628 6629 6636  927 928 6595  927 6588 6595  6588 6595 6596  6588 6589 6596  6589 6596 6597  6589 6590 6597  6590 6597 6598  6590 6591 6598  6591 6598 6599  6591 6592 6599  6592 6599 6600  6592 6593 6600  6593 6600 6601  6593 6594 6601  929 930 6609  929 6602 6609  6602 6609 6610  6602 6603 6610  6603 6610 6611  6603 6604 6611  6604 6611 6612  6604 6605 6612  6605 6612 6613  6605 6606 6613  6606 6613 6614  6606 6607 6614  6607 6614 6615  6607 6608 6615  924 925 6574  924 6567 6574  6567 6574 6575  6567 6568 6575  6568 6575 6576  6568 6569 6576  6569 6576 6577  6569 6570 6577  6570 6577 6578  6570 6571 6578  6571 6578 6579  6571 6572 6579  6572 6579 6580  6572 6573 6580  917 918 6525  917 6518 6525  6518 6525 6526  6518 6519 6526  6519 6526 6527  6519 6520 6527  6520 6527 6528  6520 6521 6528  6521 6528 6529  6521 6522 6529  6522 6529 6530  6522 6523 6530  6523 6530 6531  6523 6524 6531  928 929 6602  928 6595 6602  6595 6602 6603  6595 6596 6603  6596 6603 6604  6596 6597 6604  6597 6604 6605  6597 6598 6605  6598 6605 6606  6598 6599 6606  6599 6606 6607  6599 6600 6607  6600 6607 6608  6600 6601 6608  931 932 6623  931 6616 6623  6616 6623 6624  6616 6617 6624  6617 6624 6625  6617 6618 6625  6618 6625 6626  6618 6619 6626  6619 6626 6627  6619 6620 6627  6620 6627 6628  6620 6621 6628  6621 6628 6629  6621 6622 6629  918 919 6532  918 6525 6532  6525 6532 6533  6525 6526 6533  6526 6533 6534  6526 6527 6534  6527 6534 6535  6527 6528 6535  6528 6535 6536  6528 6529 6536  6529 6536 6537  6529 6530 6537  6530 6537 6538  6530 6531 6538  921 922 6553  921 6546 6553  6546 6553 6554  6546 6547 6554  6547 6554 6555  6547 6548 6555  6548 6555 6556  6548 6549 6556  6549 6556 6557  6549 6550 6557  6550 6557 6558  6550 6551 6558  6551 6558 6559  6551 6552 6559  923 924 6567  923 6560 6567  6560 6567 6568  6560 6561 6568  6561 6568 6569  6561 6562 6569  6562 6569 6570  6562 6563 6570  6563 6570 6571  6563 6564 6571  6564 6571 6572  6564 6565 6572  6565 6572 6573  6565 6566 6573  910 911 6476  910 6469 6476  6469 6476 6477  6469 6470 6477  6470 6477 6478  6470 6471 6478  6471 6478 6479  6471 6472 6479  6472 6479 6480  6472 6473 6480  6473 6480 6481  6473 6474 6481  6474 6481 6482  6474 6475 6482  925 926 6581  925 6574 6581  6574 6581 6582  6574 6575 6582  6575 6582 6583  6575 6576 6583  6576 6583 6584  6576 6577 6584  6577 6584 6585  6577 6578 6585  6578 6585 6586  6578 6579 6586  6579 6586 6587  6579 6580 6587  909 910 6469  909 6462 6469  6462 6469 6470  6462 6463 6470  6463 6470 6471  6463 6464 6471  6464 6471 6472  6464 6465 6472  6465 6472 6473  6465 6466 6473  6466 6473 6474  6466 6467 6474  6467 6474 6475  6467 6468 6475  930 931 6616  930 6609 6616  6609 6616 6617  6609 6610 6617  6610 6617 6618  6610 6611 6618  6611 6618 6619  6611 6612 6619  6612 6619 6620  6612 6613 6620  6613 6620 6621  6613 6614 6621  6614 6621 6622  6614 6615 6622  922 923 6560  922 6553 6560  6553 6560 6561  6553 6554 6561  6554 6561 6562  6554 6555 6562  6555 6562 6563  6555 6556 6563  6556 6563 6564  6556 6557 6564  6557 6564 6565  6557 6558 6565  6558 6565 6566  6558 6559 6566  926 927 6588  926 6581 6588  6581 6588 6589  6581 6582 6589  6582 6589 6590  6582 6583 6590  6583 6590 6591  6583 6584 6591  6584 6591 6592  6584 6585 6592  6585 6592 6593  6585 6586 6593  6586 6593 6594  6586 6587 6594  920 921 6546  920 6539 6546  6539 6546 6547  6539 6540 6547  6540 6547 6548  6540 6541 6548  6541 6548 6549  6541 6542 6549  6542 6549 6550  6542 6543 6550  6543 6550 6551  6543 6544 6551  6544 6551 6552  6544 6545 6552  480 7078 7085  479 480 7078  7079 7085 7086  7078 7079 7085  7080 7086 7087  7079 7080 7086  7081 7087 7088  7080 7081 7087  7082 7088 7089  7081 7082 7088  7083 7089 7090  7082 7083 7089  7084 7090 7091  7083 7084 7090  442 4131 6819  441 442 4131  4132 6819 6820  4131 4132 6819  4132 4133 6821  4132 6820 6821  4134 6821 6822  4133 4134 6821  4135 6822 6823  4134 4135 6822  4136 6823 6824  4135 4136 6823  4137 6824 6825  4136 4137 6824  469 7008 7015  469 470 7015  7009 7015 7016  7008 7009 7015  7009 7010 7017  7009 7016 7017  7011 7017 7018  7010 7011 7017  7012 7018 7019  7011 7012 7018  7013 7019 7020  7012 7013 7019  7013 7014 7021  7013 7020 7021  478 7064 7071  477 478 7064  7065 7071 7072  7064 7065 7071  7066 7072 7073  7065 7066 7072  7067 7073 7074  7066 7067 7073  7068 7074 7075  7067 7068 7074  7069 7075 7076  7068 7069 7075  7070 7076 7077  7069 7070 7076  481 7085 7092  480 481 7085  7086 7092 7093  7085 7086 7092  7087 7093 7094  7086 7087 7093  7087 7088 7095  7087 7094 7095  7089 7095 7096  7088 7089 7095  7090 7096 7097  7089 7090 7096  7091 7097 7098  7090 7091 7097  471 7015 7022  470 471 7015  7016 7022 7023  7015 7016 7022  7017 7023 7024  7016 7017 7023  7017 7018 7025  7017 7024 7025  7019 7025 7026  7018 7019 7025  7020 7026 7027  7019 7020 7026  7021 7027 7028  7020 7021 7027  481 7092 7099  481 482 7099  7093 7099 7100  7092 7093 7099  7094 7100 7101  7093 7094 7100  7095 7101 7102  7094 7095 7101  7096 7102 7103  7095 7096 7102  7096 7097 7104  7096 7103 7104  7097 7098 7105  7097 7104 7105  484 7106 7113  483 484 7106  7107 7113 7114  7106 7107 7113  7108 7114 7115  7107 7108 7114  7109 7115 7116  7108 7109 7115  7110 7116 7117  7109 7110 7116  7111 7117 7118  7110 7111 7117  7112 7118 7119  7111 7112 7118  469 7001 7008  468 469 7001  7002 7008 7009  7001 7002 7008  7003 7009 7010  7002 7003 7009  7004 7010 7011  7003 7004 7010  7005 7011 7012  7004 7005 7011  7006 7012 7013  7005 7006 7012  7007 7013 7014  7006 7007 7013  476 7050 7057  475 476 7050  7051 7057 7058  7050 7051 7057  7052 7058 7059  7051 7052 7058  7053 7059 7060  7052 7053 7059  7054 7060 7061  7053 7054 7060  7055 7061 7062  7054 7055 7061  7056 7062 7063  7055 7056 7062  468 6994 7001  467 468 6994  6995 7001 7002  6994 6995 7001  6996 7002 7003  6995 6996 7002  6997 7003 7004  6996 6997 7003  6998 7004 7005  6997 6998 7004  6999 7005 7006  6998 6999 7005  6999 7000 7007  6999 7006 7007  485 7113 7120  484 485 7113  7113 7114 7121  7113 7120 7121  7115 7121 7122  7114 7115 7121  7116 7122 7123  7115 7116 7122  7117 7123 7124  7116 7117 7123  7118 7124 7125  7117 7118 7124  7119 7125 7126  7118 7119 7125  472 7022 7029  471 472 7022  7023 7029 7030  7022 7023 7029  7024 7030 7031  7023 7024 7030  7025 7031 7032  7024 7025 7031  7026 7032 7033  7025 7026 7032  7026 7027 7034  7026 7033 7034  7027 7028 7035  7027 7034 7035  477 7057 7064  476 477 7057  7058 7064 7065  7057 7058 7064  7058 7059 7066  7058 7065 7066  7060 7066 7067  7059 7060 7066  7061 7067 7068  7060 7061 7067  7062 7068 7069  7061 7062 7068  7063 7069 7070  7062 7063 7069  475 7043 7050  474 475 7043  7044 7050 7051  7043 7044 7050  7045 7051 7052  7044 7045 7051  7046 7052 7053  7045 7046 7052  7047 7053 7054  7046 7047 7053  7048 7054 7055  7047 7048 7054  7049 7055 7056  7048 7049 7055  479 7071 7078  478 479 7071  7071 7072 7079  7071 7078 7079  7073 7079 7080  7072 7073 7079  7074 7080 7081  7073 7074 7080  7074 7075 7082  7074 7081 7082  7076 7082 7083  7075 7076 7082  7077 7083 7084  7076 7077 7083  483 7099 7106  482 483 7099  7100 7106 7107  7099 7100 7106  7101 7107 7108  7100 7101 7107  7102 7108 7109  7101 7102 7108  7103 7109 7110  7102 7103 7109  7104 7110 7111  7103 7104 7110  7105 7111 7112  7104 7105 7111  473 7029 7036  472 473 7029  7029 7030 7037  7029 7036 7037  7031 7037 7038  7030 7031 7037  7032 7038 7039  7031 7032 7038  7033 7039 7040  7032 7033 7039  7034 7040 7041  7033 7034 7040  7035 7041 7042  7034 7035 7041  474 7036 7043  473 474 7036  7037 7043 7044  7036 7037 7043  7038 7044 7045  7037 7038 7044  7039 7045 7046  7038 7039 7045  7040 7046 7047  7039 7040 7046  7041 7047 7048  7040 7041 7047  7041 7042 7049  7041 7048 7049  567 7246 7253  566 567 7246  7247 7253 7254  7246 7247 7253  7248 7254 7255  7247 7248 7254  7249 7255 7256  7248 7249 7255  7250 7256 7257  7249 7250 7256  7251 7257 7258  7250 7251 7257  7252 7258 7259  7251 7252 7258  569 7260 7267  568 569 7260  7261 7267 7268  7260 7261 7267  7262 7268 7269  7261 7262 7268  7263 7269 7270  7262 7263 7269  7264 7270 7271  7263 7264 7270  7264 7265 7272  7264 7271 7272  7266 7272 7273  7265 7266 7272  649 5139 5146  648 649 5139  5140 5146 5147  5139 5140 5146  5141 5147 5148  5140 5141 5147  5142 5148 5149  5141 5142 5148  5143 5149 5150  5142 5143 5149  5144 5150 5151  5143 5144 5150  5145 5151 5152  5144 5145 5151  652 5160 5167  651 652 5160  5161 5167 5168  5160 5161 5167  5162 5168 5169  5161 5162 5168  5163 5169 5170  5162 5163 5169  5164 5170 5171  5163 5164 5170  5165 5171 5172  5164 5165 5171  5166 5172 5173  5165 5166 5172  653 5167 5174  652 653 5167  5168 5174 5175  5167 5168 5174  5169 5175 5176  5168 5169 5175  5170 5176 5177  5169 5170 5176  5171 5177 5178  5170 5171 5177  5172 5178 5179  5171 5172 5178  5173 5179 5180  5172 5173 5179  654 5174 5181  653 654 5174  5175 5181 5182  5174 5175 5181  5176 5182 5183  5175 5176 5182  5177 5183 5184  5176 5177 5183  5178 5184 5185  5177 5178 5184  5179 5185 5186  5178 5179 5185  5180 5186 5187  5179 5180 5186  643 5097 5104  642 643 5097  5098 5104 5105  5097 5098 5104  5099 5105 5106  5098 5099 5105  5100 5106 5107  5099 5100 5106  5101 5107 5108  5100 5101 5107  5102 5108 5109  5101 5102 5108  5103 5109 5110  5102 5103 5109  645 5111 5118  644 645 5111  5111 5112 5119  5111 5118 5119  5113 5119 5120  5112 5113 5119  5114 5120 5121  5113 5114 5120  5115 5121 5122  5114 5115 5121  5116 5122 5123  5115 5116 5122  5117 5123 5124  5116 5117 5123  646 5118 5125  645 646 5118  5119 5125 5126  5118 5119 5125  5120 5126 5127  5119 5120 5126  5121 5127 5128  5120 5121 5127  5122 5128 5129  5121 5122 5128  5123 5129 5130  5122 5123 5129  5124 5130 5131  5123 5124 5130  647 5125 5132  646 647 5125  5126 5132 5133  5125 5126 5132  5127 5133 5134  5126 5127 5133  5128 5134 5135  5127 5128 5134  5129 5135 5136  5128 5129 5135  5130 5136 5137  5129 5130 5136  5131 5137 5138  5130 5131 5137  568 7253 7260  567 568 7253  7254 7260 7261  7253 7254 7260  7255 7261 7262  7254 7255 7261  7256 7262 7263  7255 7256 7262  7257 7263 7264  7256 7257 7263  7258 7264 7265  7257 7258 7264  7259 7265 7266  7258 7259 7265  644 5104 5111  643 644 5104  5105 5111 5112  5104 5105 5111  5106 5112 5113  5105 5106 5112  5107 5113 5114  5106 5107 5113  5108 5114 5115  5107 5108 5114  5109 5115 5116  5108 5109 5115  5110 5116 5117  5109 5110 5116  539 6154 6161  538 539 6154  6155 6161 6162  6154 6155 6161  6156 6162 6163  6155 6156 6162  6157 6163 6164  6156 6157 6163  6158 6164 6165  6157 6158 6164  6159 6165 6166  6158 6159 6165  6160 6166 6167  6159 6160 6166  656 5188 5195  655 656 5188  5189 5195 5196  5188 5189 5195  5190 5196 5197  5189 5190 5196  5191 5197 5198  5190 5191 5197  5192 5198 5199  5191 5192 5198  5193 5199 5200  5192 5193 5199  5194 5200 5201  5193 5194 5200  570 7267 7274  569 570 7267  7268 7274 7275  7267 7268 7274  7269 7275 7276  7268 7269 7275  7270 7276 7277  7269 7270 7276  7271 7277 7278  7270 7271 7277  7271 7272 7279  7271 7278 7279  7273 7279 7280  7272 7273 7279  651 5153 5160  650 651 5153  5154 5160 5161  5153 5154 5160  5155 5161 5162  5154 5155 5161  5156 5162 5163  5155 5156 5162  5157 5163 5164  5156 5157 5163  5158 5164 5165  5157 5158 5164  5159 5165 5166  5158 5159 5165  655 5181 5188  654 655 5181  5182 5188 5189  5181 5182 5188  5183 5189 5190  5182 5183 5189  5184 5190 5191  5183 5184 5190  5185 5191 5192  5184 5185 5191  5186 5192 5193  5185 5186 5192  5187 5193 5194  5186 5187 5193  566 7239 7246  565 566 7239  7240 7246 7247  7239 7240 7246  7241 7247 7248  7240 7241 7247  7242 7248 7249  7241 7242 7248  7243 7249 7250  7242 7243 7249  7244 7250 7251  7243 7244 7250  7245 7251 7252  7244 7245 7251  538 6147 6154  537 538 6147  6147 6148 6155  6147 6154 6155  6149 6155 6156  6148 6149 6155  6150 6156 6157  6149 6150 6156  6151 6157 6158  6150 6151 6157  6152 6158 6159  6151 6152 6158  6152 6153 6160  6152 6159 6160  650 5146 5153  649 650 5146  5147 5153 5154  5146 5147 5153  5148 5154 5155  5147 5148 5154  5149 5155 5156  5148 5149 5155  5150 5156 5157  5149 5150 5156  5151 5157 5158  5150 5151 5157  5152 5158 5159  5151 5152 5158  648 5132 5139  647 648 5132  5133 5139 5140  5132 5133 5139  5134 5140 5141  5133 5134 5140  5135 5141 5142  5134 5135 5141  5136 5142 5143  5135 5136 5142  5137 5143 5144  5136 5137 5143  5138 5144 5145  5137 5138 5144  905 906 6441  905 6434 6441  6434 6441 6442  6434 6435 6442  6435 6442 6443  6435 6436 6443  6436 6443 6444  6436 6437 6444  6437 6444 6445  6437 6438 6445  6438 6445 6446  6438 6439 6446  6439 6446 6447  6439 6440 6447  891 892 6343  891 6336 6343  6336 6343 6344  6336 6337 6344  6337 6344 6345  6337 6338 6345  6338 6345 6346  6338 6339 6346  6339 6346 6347  6339 6340 6347  6340 6347 6348  6340 6341 6348  6341 6348 6349  6341 6342 6349  898 899 6392  898 6385 6392  6385 6392 6393  6385 6386 6393  6386 6393 6394  6386 6387 6394  6387 6394 6395  6387 6388 6395  6388 6395 6396  6388 6389 6396  6389 6396 6397  6389 6390 6397  6390 6397 6398  6390 6391 6398  904 905 6434  904 6427 6434  6427 6434 6435  6427 6428 6435  6428 6435 6436  6428 6429 6436  6429 6436 6437  6429 6430 6437  6430 6437 6438  6430 6431 6438  6431 6438 6439  6431 6432 6439  6432 6439 6440  6432 6433 6440  902 903 6420  902 6413 6420  6413 6420 6421  6413 6414 6421  6414 6421 6422  6414 6415 6422  6415 6422 6423  6415 6416 6423  6416 6423 6424  6416 6417 6424  6417 6424 6425  6417 6418 6425  6418 6425 6426  6418 6419 6426  897 898 6385  897 6378 6385  6378 6385 6386  6378 6379 6386  6379 6386 6387  6379 6380 6387  6380 6387 6388  6380 6381 6388  6381 6388 6389  6381 6382 6389  6382 6389 6390  6382 6383 6390  6383 6390 6391  6383 6384 6391  900 901 6406  900 6399 6406  6399 6406 6407  6399 6400 6407  6400 6407 6408  6400 6401 6408  6401 6408 6409  6401 6402 6409  6402 6409 6410  6402 6403 6410  6403 6410 6411  6403 6404 6411  6404 6411 6412  6404 6405 6412  901 902 6413  901 6406 6413  6406 6413 6414  6406 6407 6414  6407 6414 6415  6407 6408 6415  6408 6415 6416  6408 6409 6416  6409 6416 6417  6409 6410 6417  6410 6417 6418  6410 6411 6418  6411 6418 6419  6411 6412 6419  895 896 6371  895 6364 6371  6364 6371 6372  6364 6365 6372  6365 6372 6373  6365 6366 6373  6366 6373 6374  6366 6367 6374  6367 6374 6375  6367 6368 6375  6368 6375 6376  6368 6369 6376  6369 6376 6377  6369 6370 6377  899 900 6399  899 6392 6399  6392 6399 6400  6392 6393 6400  6393 6400 6401  6393 6394 6401  6394 6401 6402  6394 6395 6402  6395 6402 6403  6395 6396 6403  6396 6403 6404  6396 6397 6404  6397 6404 6405  6397 6398 6405  892 893 6350  892 6343 6350  6343 6350 6351  6343 6344 6351  6344 6351 6352  6344 6345 6352  6345 6352 6353  6345 6346 6353  6346 6353 6354  6346 6347 6354  6347 6354 6355  6347 6348 6355  6348 6355 6356  6348 6349 6356  894 895 6364  894 6357 6364  6357 6364 6365  6357 6358 6365  6358 6365 6366  6358 6359 6366  6359 6366 6367  6359 6360 6367  6360 6367 6368  6360 6361 6368  6361 6368 6369  6361 6362 6369  6362 6369 6370  6362 6363 6370  903 904 6427  903 6420 6427  6420 6427 6428  6420 6421 6428  6421 6428 6429  6421 6422 6429  6422 6429 6430  6422 6423 6430  6423 6430 6431  6423 6424 6431  6424 6431 6432  6424 6425 6432  6425 6432 6433  6425 6426 6433  896 897 6378  896 6371 6378  6371 6378 6379  6371 6372 6379  6372 6379 6380  6372 6373 6380  6373 6380 6381  6373 6374 6381  6374 6381 6382  6374 6375 6382  6375 6382 6383  6375 6376 6383  6376 6383 6384  6376 6377 6384  906 907 6448  906 6441 6448  6441 6448 6449  6441 6442 6449  6442 6449 6450  6442 6443 6450  6443 6450 6451  6443 6444 6451  6444 6451 6452  6444 6445 6452  6445 6452 6453  6445 6446 6453  6446 6453 6454  6446 6447 6454  893 894 6357  893 6350 6357  6350 6357 6358  6350 6351 6358  6351 6358 6359  6351 6352 6359  6352 6359 6360  6352 6353 6360  6353 6360 6361  6353 6354 6361  6354 6361 6362  6354 6355 6362  6355 6362 6363  6355 6356 6363  907 908 6455  907 6448 6455  6448 6455 6456  6448 6449 6456  6449 6456 6457  6449 6450 6457  6450 6457 6458  6450 6451 6458  6451 6458 6459  6451 6452 6459  6452 6459 6460  6452 6453 6460  6453 6460 6461  6453 6454 6461  908 909 6462  908 6455 6462  6455 6462 6463  6455 6456 6463  6456 6463 6464  6456 6457 6464  6457 6464 6465  6457 6458 6465  6458 6465 6466  6458 6459 6466  6459 6466 6467  6459 6460 6467  6460 6467 6468  6460 6461 6468  890 891 6336  890 6329 6336  6329 6336 6337  6329 6330 6337  6330 6337 6338  6330 6331 6338  6331 6338 6339  6331 6332 6339  6332 6339 6340  6332 6333 6340  6333 6340 6341  6333 6334 6341  6334 6341 6342  6334 6335 6342  885 886 6301  885 6273 6301  6273 6301 6302  6273 6274 6302  6274 6302 6303  6274 6275 6303  6275 6303 6304  6275 6276 6304  6276 6304 6305  6276 6277 6305  6277 6305 6306  6277 6278 6306  6278 6306 6307  6278 6279 6307  889 890 6329  889 6322 6329  6322 6329 6330  6322 6323 6330  6323 6330 6331  6323 6324 6331  6324 6331 6332  6324 6325 6332  6325 6332 6333  6325 6326 6333  6326 6333 6334  6326 6327 6334  6327 6334 6335  6327 6328 6335  887 888 6315  887 6308 6315  6308 6315 6316  6308 6309 6316  6309 6316 6317  6309 6310 6317  6310 6317 6318  6310 6311 6318  6311 6318 6319  6311 6312 6319  6312 6319 6320  6312 6313 6320  6313 6320 6321  6313 6314 6321  888 889 6322  888 6315 6322  6315 6322 6323  6315 6316 6323  6316 6323 6324  6316 6317 6324  6317 6324 6325  6317 6318 6325  6318 6325 6326  6318 6319 6326  6319 6326 6327  6319 6320 6327  6320 6327 6328  6320 6321 6328  886 887 6308  886 6301 6308  6301 6308 6309  6301 6302 6309  6302 6309 6310  6302 6303 6310  6303 6310 6311  6303 6304 6311  6304 6311 6312  6304 6305 6312  6305 6312 6313  6305 6306 6313  6306 6313 6314  6306 6307 6314  220 1597 1604  219 220 1597  1598 1604 1605  1597 1598 1604  1599 1605 1606  1598 1599 1605  1600 1606 1607  1599 1600 1606  1601 1607 1608  1600 1601 1607  1601 1602 1609  1601 1608 1609  1603 1609 1610  1602 1603 1609  537 6140 6147  536 537 6140  6141 6147 6148  6140 6141 6147  6142 6148 6149  6141 6142 6148  6143 6149 6150  6142 6143 6149  6144 6150 6151  6143 6144 6150  6145 6151 6152  6144 6145 6151  6146 6152 6153  6145 6146 6152  521 6028 6035  520 521 6028  6028 6029 6036  6028 6035 6036  6030 6036 6037  6029 6030 6036  6031 6037 6038  6030 6031 6037  6032 6038 6039  6031 6032 6038  6033 6039 6040  6032 6033 6039  6034 6040 6041  6033 6034 6040  218 1590 1597  218 219 1597  1591 1597 1598  1590 1591 1597  1592 1598 1599  1591 1592 1598  1593 1599 1600  1592 1593 1599  1594 1600 1601  1593 1594 1600  1595 1601 1602  1594 1595 1601  1596 1602 1603  1595 1596 1602  534 6119 6126  533 534 6119  6120 6126 6127  6119 6120 6126  6121 6127 6128  6120 6121 6127  6122 6128 6129  6121 6122 6128  6123 6129 6130  6122 6123 6129  6123 6124 6131  6123 6130 6131  6125 6131 6132  6124 6125 6131  533 6112 6119  532 533 6112  6113 6119 6120  6112 6113 6119  6114 6120 6121  6113 6114 6120  6115 6121 6122  6114 6115 6121  6116 6122 6123  6115 6116 6122  6117 6123 6124  6116 6117 6123  6118 6124 6125  6117 6118 6124  520 6021 6028  519 520 6021  6022 6028 6029  6021 6022 6028  6023 6029 6030  6022 6023 6029  6024 6030 6031  6023 6024 6030  6025 6031 6032  6024 6025 6031  6026 6032 6033  6025 6026 6032  6027 6033 6034  6026 6027 6033  519 6014 6021  518 519 6014  6015 6021 6022  6014 6015 6021  6016 6022 6023  6015 6016 6022  6017 6023 6024  6016 6017 6023  6018 6024 6025  6017 6018 6024  6019 6025 6026  6018 6019 6025  6020 6026 6027  6019 6020 6026  522 6035 6042  521 522 6035  6036 6042 6043  6035 6036 6042  6037 6043 6044  6036 6037 6043  6038 6044 6045  6037 6038 6044  6039 6045 6046  6038 6039 6045  6040 6046 6047  6039 6040 6046  6041 6047 6048  6040 6041 6047  499 3179 3466  498 499 3179  3180 3466 3467  3179 3180 3466  3181 3467 3468  3180 3181 3467  3182 3468 3469  3181 3182 3468  3183 3469 3470  3182 3183 3469  3184 3470 3471  3183 3184 3470  3185 3471 3472  3184 3185 3471  220 1604 1611  220 221 1611  1605 1611 1612  1604 1605 1611  1606 1612 1613  1605 1606 1612  1607 1613 1614  1606 1607 1613  1608 1614 1615  1607 1608 1614  1608 1609 1616  1608 1615 1616  1609 1610 1617  1609 1616 1617  214 1555 1562  213 214 1555  1556 1562 1563  1555 1556 1562  1557 1563 1564  1556 1557 1563  1558 1564 1565  1557 1558 1564  1559 1565 1566  1558 1559 1565  1560 1566 1567  1559 1560 1566  1560 1561 1568  1560 1567 1568  536 6133 6140  535 536 6133  6134 6140 6141  6133 6134 6140  6135 6141 6142  6134 6135 6141  6136 6142 6143  6135 6136 6142  6137 6143 6144  6136 6137 6143  6138 6144 6145  6137 6138 6144  6139 6145 6146  6138 6139 6145  218 1583 1590  217 218 1583  1584 1590 1591  1583 1584 1590  1585 1591 1592  1584 1585 1591  1586 1592 1593  1585 1586 1592  1587 1593 1594  1586 1587 1593  1588 1594 1595  1587 1588 1594  1589 1595 1596  1588 1589 1595  222 1611 1618  221 222 1611  1612 1618 1619  1611 1612 1618  1613 1619 1620  1612 1613 1619  1614 1620 1621  1613 1614 1620  1615 1621 1622  1614 1615 1621  1616 1622 1623  1615 1616 1622  1617 1623 1624  1616 1617 1623  214 1562 1569  214 215 1569  1562 1563 1570  1562 1569 1570  1564 1570 1571  1563 1564 1570  1564 1565 1572  1564 1571 1572  1566 1572 1573  1565 1566 1572  1567 1573 1574  1566 1567 1573  1568 1574 1575  1567 1568 1574  212 1548 1555  212 213 1555  1549 1555 1556  1548 1549 1555  1550 1556 1557  1549 1550 1556  1551 1557 1558  1550 1551 1557  1552 1558 1559  1551 1552 1558  1553 1559 1560  1552 1553 1559  1554 1560 1561  1553 1554 1560  216 1576 1583  216 217 1583  1576 1577 1584  1576 1583 1584  1578 1584 1585  1577 1578 1584  1579 1585 1586  1578 1579 1585  1580 1586 1587  1579 1580 1586  1581 1587 1588  1580 1581 1587  1582 1588 1589  1581 1582 1588  215 1569 1576  215 216 1576  1570 1576 1577  1569 1570 1576  1571 1577 1578  1570 1571 1577  1571 1572 1579  1571 1578 1579  1573 1579 1580  1572 1573 1579  1574 1580 1581  1573 1574 1580  1575 1581 1582  1574 1575 1581  523 6042 6049  522 523 6042  6042 6043 6050  6042 6049 6050  6044 6050 6051  6043 6044 6050  6045 6051 6052  6044 6045 6051  6046 6052 6053  6045 6046 6052  6047 6053 6054  6046 6047 6053  6048 6054 6055  6047 6048 6054  535 6126 6133  534 535 6126  6127 6133 6134  6126 6127 6133  6128 6134 6135  6127 6128 6134  6129 6135 6136  6128 6129 6135  6130 6136 6137  6129 6130 6136  6130 6131 6138  6130 6137 6138  6132 6138 6139  6131 6132 6138  524 6049 6056  523 524 6049  6050 6056 6057  6049 6050 6056  6051 6057 6058  6050 6051 6057  6052 6058 6059  6051 6052 6058  6053 6059 6060  6052 6053 6059  6054 6060 6061  6053 6054 6060  6055 6061 6062  6054 6055 6061  61 3200 3494  61 62 3494  3201 3494 3495  3200 3201 3494  3201 3202 3496  3201 3495 3496  3203 3496 3497  3202 3203 3496  3203 3204 3498  3203 3497 3498  3205 3498 3499  3204 3205 3498  3206 3499 3500  3205 3206 3499  74 3907 4012  73 74 3907  3907 3908 4013  3907 4012 4013  3908 3909 4014  3908 4013 4014  3910 4014 4015  3909 3910 4014  3910 3911 4016  3910 4015 4016  3912 4016 4017  3911 3912 4016  3913 4017 4018  3912 3913 4017  59 3851 4075  58 59 4075  3852 4075 4076  3851 3852 4075  3852 3853 4077  3852 4076 4077  3854 4077 4078  3853 3854 4077  3855 4078 4079  3854 3855 4078  3855 3856 4080  3855 4079 4080  3856 3857 4081  3856 4080 4081  61 3039 3200  60 61 3039  3040 3200 3201  3039 3040 3200  3041 3201 3202  3040 3041 3201  3042 3202 3203  3041 3042 3202  3043 3203 3204  3042 3043 3203  3044 3204 3205  3043 3044 3204  3044 3045 3206  3044 3205 3206  71 3263 3424  70 71 3424  3263 3264 3425  3263 3424 3425  3264 3265 3426  3264 3425 3426  3265 3266 3427  3265 3426 3427  3266 3267 3428  3266 3427 3428  3267 3268 3429  3267 3428 3429  3268 3269 3430  3268 3429 3430  73 3186 3907  72 73 3186  3187 3907 3908  3186 3187 3907  3188 3908 3909  3187 3188 3908  3189 3909 3910  3188 3189 3909  3189 3190 3911  3189 3910 3911  3191 3911 3912  3190 3191 3911  3192 3912 3913  3191 3192 3912  64 3781 3928  63 64 3781  3782 3928 3929  3781 3782 3928  3783 3929 3930  3782 3783 3929  3784 3930 3931  3783 3784 3930  3785 3931 3932  3784 3785 3931  3786 3932 3933  3785 3786 3932  3787 3933 3934  3786 3787 3933  66 3641 3711  65 66 3641  3642 3711 3712  3641 3642 3711  3642 3643 3713  3642 3712 3713  3644 3713 3714  3643 3644 3713  3645 3714 3715  3644 3645 3714  3646 3715 3716  3645 3646 3715  3647 3716 3717  3646 3647 3716  70 3347 3424  69 70 3347  3348 3424 3425  3347 3348 3424  3348 3349 3426  3348 3425 3426  3349 3350 3427  3349 3426 3427  3351 3427 3428  3350 3351 3427  3351 3352 3429  3351 3428 3429  3352 3353 3430  3352 3429 3430  69 3333 3347  68 69 3333  3334 3347 3348  3333 3334 3347  3335 3348 3349  3334 3335 3348  3335 3336 3350  3335 3349 3350  3337 3350 3351  3336 3337 3350  3338 3351 3352  3337 3338 3351  3339 3352 3353  3338 3339 3352  60 3039 3851  59 60 3851  3039 3040 3852  3039 3851 3852  3040 3041 3853  3040 3852 3853  3041 3042 3854  3041 3853 3854  3043 3854 3855  3042 3043 3854  3043 3044 3856  3043 3855 3856  3044 3045 3857  3044 3856 3857  67 3564 3711  66 67 3711  3564 3565 3712  3564 3711 3712  3565 3566 3713  3565 3712 3713  3566 3567 3714  3566 3713 3714  3567 3568 3715  3567 3714 3715  3568 3569 3716  3568 3715 3716  3570 3716 3717  3569 3570 3716  68 3333 3564  67 68 3564  3333 3334 3565  3333 3564 3565  3334 3335 3566  3334 3565 3566  3335 3336 3567  3335 3566 3567  3336 3337 3568  3336 3567 3568  3338 3568 3569  3337 3338 3568  3338 3339 3570  3338 3569 3570  63 3494 3781  62 63 3494  3494 3495 3782  3494 3781 3782  3496 3782 3783  3495 3496 3782  3496 3497 3784  3496 3783 3784  3498 3784 3785  3497 3498 3784  3499 3785 3786  3498 3499 3785  3500 3786 3787  3499 3500 3786  64 3641 3928  64 65 3641  3642 3928 3929  3641 3642 3928  3643 3929 3930  3642 3643 3929  3644 3930 3931  3643 3644 3930  3644 3645 3932  3644 3931 3932  3645 3646 3933  3645 3932 3933  3646 3647 3934  3646 3933 3934  75 4012 4068  74 75 4012  4013 4068 4069  4012 4013 4068  4013 4014 4070  4013 4069 4070  4015 4070 4071  4014 4015 4070  4016 4071 4072  4015 4016 4071  4017 4072 4073  4016 4017 4072  4017 4018 4074  4017 4073 4074  71 3186 3263  71 72 3186  3186 3187 3264  3186 3263 3264  3187 3188 3265  3187 3264 3265  3188 3189 3266  3188 3265 3266  3189 3190 3267  3189 3266 3267  3190 3191 3268  3190 3267 3268  3191 3192 3269  3191 3268 3269  143 3312 3319  143 144 3312  3312 3313 3320  3312 3319 3320  3313 3314 3321  3313 3320 3321  3314 3315 3322  3314 3321 3322  3315 3316 3323  3315 3322 3323  3316 3317 3324  3316 3323 3324  3317 3318 3325  3317 3324 3325  147 3277 3284  146 147 3284  3277 3278 3285  3277 3284 3285  3279 3285 3286  3278 3279 3285  3279 3280 3287  3279 3286 3287  3280 3281 3288  3280 3287 3288  3281 3282 3289  3281 3288 3289  3282 3283 3290  3282 3289 3290  148 3249 3277  147 148 3277  3249 3250 3278  3249 3277 3278  3251 3278 3279  3250 3251 3278  3251 3252 3280  3251 3279 3280  3252 3253 3281  3252 3280 3281  3253 3254 3282  3253 3281 3282  3254 3255 3283  3254 3282 3283  146 3284 3291  145 146 3291  3285 3291 3292  3284 3285 3291  3285 3286 3293  3285 3292 3293  3286 3287 3294  3286 3293 3294  3287 3288 3295  3287 3294 3295  3288 3289 3296  3288 3295 3296  3289 3290 3297  3289 3296 3297  145 3291 3312  144 145 3312  3291 3292 3313  3291 3312 3313  3293 3313 3314  3292 3293 3313  3293 3294 3315  3293 3314 3315  3294 3295 3316  3294 3315 3316  3295 3296 3317  3295 3316 3317  3297 3317 3318  3296 3297 3317  149 3228 3235  149 150 3228  3228 3229 3236  3228 3235 3236  3229 3230 3237  3229 3236 3237  3230 3231 3238  3230 3237 3238  3231 3232 3239  3231 3238 3239  3232 3233 3240  3232 3239 3240  3233 3234 3241  3233 3240 3241  882 967 6280  2 882 967  968 6280 6281  967 968 6280  969 6281 6282  968 969 6281  970 6282 6283  969 970 6282  971 6283 6284  970 971 6283  972 6284 6285  971 972 6284  973 6285 6286  972 973 6285  150 960 3228  1 150 960  961 3228 3229  960 961 3228  962 3229 3230  961 962 3229  963 3230 3231  962 963 3230  964 3231 3232  963 964 3231  965 3232 3233  964 965 3232  966 3233 3234  965 966 3233  883 884 6294  883 6287 6294  6287 6294 6295  6287 6288 6295  6288 6295 6296  6288 6289 6296  6289 6296 6297  6289 6290 6297  6290 6297 6298  6290 6291 6298  6291 6298 6299  6291 6292 6299  6292 6299 6300  6292 6293 6300  882 883 6287  882 6280 6287  6280 6287 6288  6280 6281 6288  6281 6288 6289  6281 6282 6289  6282 6289 6290  6282 6283 6290  6283 6290 6291  6283 6284 6291  6284 6291 6292  6284 6285 6292  6285 6292 6293  6285 6286 6293  149 3235 3249  148 149 3249  3235 3236 3250  3235 3249 3250  3237 3250 3251  3236 3237 3250  3237 3238 3252  3237 3251 3252  3238 3239 3253  3238 3252 3253  3239 3240 3254  3239 3253 3254  3240 3241 3255  3240 3254 3255  884 885 6273  884 6273 6294  6273 6274 6294  6274 6294 6295  6274 6275 6295  6275 6295 6296  6275 6276 6296  6276 6296 6297  6276 6277 6297  6277 6297 6298  6277 6278 6298  6278 6298 6299  6278 6279 6299  6279 6299 6300  204 1485 1492  203 204 1485  1486 1492 1493  1485 1486 1492  1487 1493 1494  1486 1487 1493  1487 1488 1495  1487 1494 1495  1489 1495 1496  1488 1489 1495  1490 1496 1497  1489 1490 1496  1491 1497 1498  1490 1491 1497  211 1541 1548  211 212 1548  1541 1542 1549  1541 1548 1549  1543 1549 1550  1542 1543 1549  1544 1550 1551  1543 1544 1550  1545 1551 1552  1544 1545 1551  1546 1552 1553  1545 1546 1552  1547 1553 1554  1546 1547 1553  916 917 6518  916 6511 6518  6511 6518 6519  6511 6512 6519  6512 6519 6520  6512 6513 6520  6513 6520 6521  6513 6514 6521  6514 6521 6522  6514 6515 6522  6515 6522 6523  6515 6516 6523  6516 6523 6524  6516 6517 6524  209 1520 1527  208 209 1520  1521 1527 1528  1520 1521 1527  1522 1528 1529  1521 1522 1528  1523 1529 1530  1522 1523 1529  1524 1530 1531  1523 1524 1530  1525 1531 1532  1524 1525 1531  1526 1532 1533  1525 1526 1532  191 1394 1401  190 191 1394  1395 1401 1402  1394 1395 1401  1395 1396 1403  1395 1402 1403  1397 1403 1404  1396 1397 1403  1398 1404 1405  1397 1398 1404  1399 1405 1406  1398 1399 1405  1399 1400 1407  1399 1406 1407  210 1534 1541  210 211 1541  1534 1535 1542  1534 1541 1542  1536 1542 1543  1535 1536 1542  1537 1543 1544  1536 1537 1543  1538 1544 1545  1537 1538 1544  1539 1545 1546  1538 1539 1545  1540 1546 1547  1539 1540 1546  203 1478 1485  202 203 1478  1479 1485 1486  1478 1479 1485  1480 1486 1487  1479 1480 1486  1481 1487 1488  1480 1481 1487  1482 1488 1489  1481 1482 1488  1483 1489 1490  1482 1483 1489  1484 1490 1491  1483 1484 1490  196 1429 1436  195 196 1429  1430 1436 1437  1429 1430 1436  1431 1437 1438  1430 1431 1437  1432 1438 1439  1431 1432 1438  1433 1439 1440  1432 1433 1439  1434 1440 1441  1433 1434 1440  1435 1441 1442  1434 1435 1441  195 1422 1429  194 195 1422  1423 1429 1430  1422 1423 1429  1424 1430 1431  1423 1424 1430  1424 1425 1432  1424 1431 1432  1426 1432 1433  1425 1426 1432  1427 1433 1434  1426 1427 1433  1428 1434 1435  1427 1428 1434  197 1436 1443  196 197 1436  1437 1443 1444  1436 1437 1443  1438 1444 1445  1437 1438 1444  1439 1445 1446  1438 1439 1445  1440 1446 1447  1439 1440 1446  1441 1447 1448  1440 1441 1447  1442 1448 1449  1441 1442 1448  198 1443 1450  197 198 1443  1444 1450 1451  1443 1444 1450  1444 1445 1452  1444 1451 1452  1446 1452 1453  1445 1446 1452  1447 1453 1454  1446 1447 1453  1448 1454 1455  1447 1448 1454  1448 1449 1456  1448 1455 1456  199 1450 1457  198 199 1450  1451 1457 1458  1450 1451 1457  1452 1458 1459  1451 1452 1458  1453 1459 1460  1452 1453 1459  1454 1460 1461  1453 1454 1460  1455 1461 1462  1454 1455 1461  1456 1462 1463  1455 1456 1462  208 1513 1520  207 208 1513  1514 1520 1521  1513 1514 1520  1515 1521 1522  1514 1515 1521  1516 1522 1523  1515 1516 1522  1517 1523 1524  1516 1517 1523  1518 1524 1525  1517 1518 1524  1519 1525 1526  1518 1519 1525  193 1408 1415  192 193 1408  1409 1415 1416  1408 1409 1415  1410 1416 1417  1409 1410 1416  1411 1417 1418  1410 1411 1417  1412 1418 1419  1411 1412 1418  1413 1419 1420  1412 1413 1419  1414 1420 1421  1413 1414 1420  205 1492 1499  204 205 1492  1493 1499 1500  1492 1493 1499  1494 1500 1501  1493 1494 1500  1495 1501 1502  1494 1495 1501  1496 1502 1503  1495 1496 1502  1497 1503 1504  1496 1497 1503  1498 1504 1505  1497 1498 1504  209 1527 1534  209 210 1534  1528 1534 1535  1527 1528 1534  1528 1529 1536  1528 1535 1536  1530 1536 1537  1529 1530 1536  1531 1537 1538  1530 1531 1537  1532 1538 1539  1531 1532 1538  1532 1533 1540  1532 1539 1540  206 1499 1506  205 206 1499  1500 1506 1507  1499 1500 1506  1501 1507 1508  1500 1501 1507  1502 1508 1509  1501 1502 1508  1502 1503 1510  1502 1509 1510  1503 1504 1511  1503 1510 1511  1504 1505 1512  1504 1511 1512  200 1457 1464  199 200 1457  1458 1464 1465  1457 1458 1464  1459 1465 1466  1458 1459 1465  1459 1460 1467  1459 1466 1467  1461 1467 1468  1460 1461 1467  1462 1468 1469  1461 1462 1468  1463 1469 1470  1462 1463 1469  194 1415 1422  193 194 1415  1416 1422 1423  1415 1416 1422  1417 1423 1424  1416 1417 1423  1418 1424 1425  1417 1418 1424  1419 1425 1426  1418 1419 1425  1420 1426 1427  1419 1420 1426  1421 1427 1428  1420 1421 1427  202 1471 1478  201 202 1471  1472 1478 1479  1471 1472 1478  1472 1473 1480  1472 1479 1480  1474 1480 1481  1473 1474 1480  1475 1481 1482  1474 1475 1481  1476 1482 1483  1475 1476 1482  1476 1477 1484  1476 1483 1484  192 1401 1408  191 192 1401  1402 1408 1409  1401 1402 1408  1403 1409 1410  1402 1403 1409  1404 1410 1411  1403 1404 1410  1405 1411 1412  1404 1405 1411  1406 1412 1413  1405 1406 1412  1407 1413 1414  1406 1407 1413  207 1506 1513  206 207 1506  1507 1513 1514  1506 1507 1513  1507 1508 1515  1507 1514 1515  1509 1515 1516  1508 1509 1515  1510 1516 1517  1509 1510 1516  1511 1517 1518  1510 1511 1517  1511 1512 1519  1511 1518 1519  201 1464 1471  200 201 1464  1465 1471 1472  1464 1465 1471  1466 1472 1473  1465 1466 1472  1467 1473 1474  1466 1467 1473  1467 1468 1475  1467 1474 1475  1468 1469 1476  1468 1475 1476  1469 1470 1477  1469 1476 1477  911 912 6483  911 6476 6483  6476 6483 6484  6476 6477 6484  6477 6484 6485  6477 6478 6485  6478 6485 6486  6478 6479 6486  6479 6486 6487  6479 6480 6487  6480 6487 6488  6480 6481 6488  6481 6488 6489  6481 6482 6489  914 915 6504  914 6497 6504  6497 6504 6505  6497 6498 6505  6498 6505 6506  6498 6499 6506  6499 6506 6507  6499 6500 6507  6500 6507 6508  6500 6501 6508  6501 6508 6509  6501 6502 6509  6502 6509 6510  6502 6503 6510  912 913 6490  912 6483 6490  6483 6490 6491  6483 6484 6491  6484 6491 6492  6484 6485 6492  6485 6492 6493  6485 6486 6493  6486 6493 6494  6486 6487 6494  6487 6494 6495  6487 6488 6495  6488 6495 6496  6488 6489 6496  58 3025 4075  57 58 3025  3026 4075 4076  3025 3026 4075  3027 4076 4077  3026 3027 4076  3028 4077 4078  3027 3028 4077  3029 4078 4079  3028 3029 4078  3030 4079 4080  3029 3030 4079  3031 4080 4081  3030 3031 4080  913 914 6497  913 6490 6497  6490 6497 6498  6490 6491 6498  6491 6498 6499  6491 6492 6499  6492 6499 6500  6492 6493 6500  6493 6500 6501  6493 6494 6501  6494 6501 6502  6494 6495 6502  6495 6502 6503  6495 6496 6503  57 3025 3270  56 57 3270  3025 3026 3271  3025 3270 3271  3027 3271 3272  3026 3027 3271  3027 3028 3273  3027 3272 3273  3029 3273 3274  3028 3029 3273  3029 3030 3275  3029 3274 3275  3030 3031 3276  3030 3275 3276  915 916 6511  915 6504 6511  6504 6511 6512  6504 6505 6512  6505 6512 6513  6505 6506 6513  6506 6513 6514  6506 6507 6514  6507 6514 6515  6507 6508 6515  6508 6515 6516  6508 6509 6516  6509 6516 6517  6509 6510 6517  750 5846 5853  749 750 5846  5847 5853 5854  5846 5847 5853  5848 5854 5855  5847 5848 5854  5849 5855 5856  5848 5849 5855  5850 5856 5857  5849 5850 5856  5851 5857 5858  5850 5851 5857  5852 5858 5859  5851 5852 5858  746 5818 5825  745 746 5818  5819 5825 5826  5818 5819 5825  5820 5826 5827  5819 5820 5826  5821 5827 5828  5820 5821 5827  5822 5828 5829  5821 5822 5828  5823 5829 5830  5822 5823 5829  5824 5830 5831  5823 5824 5830  751 5853 5860  750 751 5853  5854 5860 5861  5853 5854 5860  5855 5861 5862  5854 5855 5861  5856 5862 5863  5855 5856 5862  5857 5863 5864  5856 5857 5863  5858 5864 5865  5857 5858 5864  5859 5865 5866  5858 5859 5865  744 5804 5811  743 744 5804  5805 5811 5812  5804 5805 5811  5806 5812 5813  5805 5806 5812  5807 5813 5814  5806 5807 5813  5808 5814 5815  5807 5808 5814  5809 5815 5816  5808 5809 5815  5810 5816 5817  5809 5810 5816  749 5839 5846  748 749 5839  5840 5846 5847  5839 5840 5846  5841 5847 5848  5840 5841 5847  5842 5848 5849  5841 5842 5848  5843 5849 5850  5842 5843 5849  5844 5850 5851  5843 5844 5850  5845 5851 5852  5844 5845 5851  740 5776 5783  739 740 5776  5777 5783 5784  5776 5777 5783  5778 5784 5785  5777 5778 5784  5779 5785 5786  5778 5779 5785  5780 5786 5787  5779 5780 5786  5781 5787 5788  5780 5781 5787  5782 5788 5789  5781 5782 5788  741 5783 5790  740 741 5783  5784 5790 5791  5783 5784 5790  5785 5791 5792  5784 5785 5791  5786 5792 5793  5785 5786 5792  5787 5793 5794  5786 5787 5793  5788 5794 5795  5787 5788 5794  5789 5795 5796  5788 5789 5795  739 5769 5776  738 739 5769  5770 5776 5777  5769 5770 5776  5771 5777 5778  5770 5771 5777  5772 5778 5779  5771 5772 5778  5773 5779 5780  5772 5773 5779  5774 5780 5781  5773 5774 5780  5775 5781 5782  5774 5775 5781  745 5811 5818  744 745 5811  5812 5818 5819  5811 5812 5818  5813 5819 5820  5812 5813 5819  5814 5820 5821  5813 5814 5820  5815 5821 5822  5814 5815 5821  5816 5822 5823  5815 5816 5822  5817 5823 5824  5816 5817 5823  748 5832 5839  747 748 5832  5833 5839 5840  5832 5833 5839  5834 5840 5841  5833 5834 5840  5835 5841 5842  5834 5835 5841  5836 5842 5843  5835 5836 5842  5837 5843 5844  5836 5837 5843  5838 5844 5845  5837 5838 5844  743 5797 5804  742 743 5797  5798 5804 5805  5797 5798 5804  5799 5805 5806  5798 5799 5805  5800 5806 5807  5799 5800 5806  5801 5807 5808  5800 5801 5807  5802 5808 5809  5801 5802 5808  5803 5809 5810  5802 5803 5809  738 5762 5769  737 738 5762  5763 5769 5770  5762 5763 5769  5764 5770 5771  5763 5764 5770  5765 5771 5772  5764 5765 5771  5766 5772 5773  5765 5766 5772  5767 5773 5774  5766 5767 5773  5768 5774 5775  5767 5768 5774  742 5790 5797  741 742 5790  5791 5797 5798  5790 5791 5797  5792 5798 5799  5791 5792 5798  5793 5799 5800  5792 5793 5799  5794 5800 5801  5793 5794 5800  5795 5801 5802  5794 5795 5801  5796 5802 5803  5795 5796 5802  747 5825 5832  746 747 5825  5826 5832 5833  5825 5826 5832  5827 5833 5834  5826 5827 5833  5828 5834 5835  5827 5828 5834  5829 5835 5836  5828 5829 5835  5830 5836 5837  5829 5830 5836  5831 5837 5838  5830 5831 5837  752 5860 5867  751 752 5860  5861 5867 5868  5860 5861 5867  5862 5868 5869  5861 5862 5868  5863 5869 5870  5862 5863 5869  5864 5870 5871  5863 5864 5870  5865 5871 5872  5864 5865 5871  5866 5872 5873  5865 5866 5872  755 5881 5888  754 755 5881  5882 5888 5889  5881 5882 5888  5883 5889 5890  5882 5883 5889  5884 5890 5891  5883 5884 5890  5885 5891 5892  5884 5885 5891  5886 5892 5893  5885 5886 5892  5887 5893 5894  5886 5887 5893  758 5902 5909  757 758 5902  5903 5909 5910  5902 5903 5909  5904 5910 5911  5903 5904 5910  5905 5911 5912  5904 5905 5911  5906 5912 5913  5905 5906 5912  5907 5913 5914  5906 5907 5913  5908 5914 5915  5907 5908 5914  765 5958 5965  765 766 5965  5959 5965 5966  5958 5959 5965  5959 5960 5967  5959 5966 5967  5961 5967 5968  5960 5961 5967  5962 5968 5969  5961 5962 5968  5963 5969 5970  5962 5963 5969  5964 5970 5971  5963 5964 5970  768 4138 4145  767 768 4138  4139 4145 4146  4138 4139 4145  4140 4146 4147  4139 4140 4146  4141 4147 4148  4140 4141 4147  4142 4148 4149  4141 4142 4148  4143 4149 4150  4142 4143 4149  4144 4150 4151  4143 4144 4150  756 5888 5895  755 756 5888  5889 5895 5896  5888 5889 5895  5890 5896 5897  5889 5890 5896  5891 5897 5898  5890 5891 5897  5892 5898 5899  5891 5892 5898  5893 5899 5900  5892 5893 5899  5894 5900 5901  5893 5894 5900  765 5951 5958  764 765 5951  5952 5958 5959  5951 5952 5958  5953 5959 5960  5952 5953 5959  5954 5960 5961  5953 5954 5960  5955 5961 5962  5954 5955 5961  5956 5962 5963  5955 5956 5962  5957 5963 5964  5956 5957 5963  767 4138 5965  766 767 5965  4138 4139 5966  4138 5965 5966  4139 4140 5967  4139 5966 5967  4140 4141 5968  4140 5967 5968  4141 4142 5969  4141 5968 5969  4142 4143 5970  4142 5969 5970  4143 4144 5971  4143 5970 5971  762 5930 5937  761 762 5930  5931 5937 5938  5930 5931 5937  5932 5938 5939  5931 5932 5938  5933 5939 5940  5932 5933 5939  5934 5940 5941  5933 5934 5940  5935 5941 5942  5934 5935 5941  5936 5942 5943  5935 5936 5942  753 5867 5874  752 753 5867  5868 5874 5875  5867 5868 5874  5869 5875 5876  5868 5869 5875  5870 5876 5877  5869 5870 5876  5871 5877 5878  5870 5871 5877  5872 5878 5879  5871 5872 5878  5873 5879 5880  5872 5873 5879  764 5944 5951  763 764 5944  5945 5951 5952  5944 5945 5951  5946 5952 5953  5945 5946 5952  5947 5953 5954  5946 5947 5953  5948 5954 5955  5947 5948 5954  5949 5955 5956  5948 5949 5955  5950 5956 5957  5949 5950 5956  760 5916 5923  759 760 5916  5917 5923 5924  5916 5917 5923  5918 5924 5925  5917 5918 5924  5919 5925 5926  5918 5919 5925  5920 5926 5927  5919 5920 5926  5921 5927 5928  5920 5921 5927  5922 5928 5929  5921 5922 5928  754 5874 5881  753 754 5874  5875 5881 5882  5874 5875 5881  5876 5882 5883  5875 5876 5882  5877 5883 5884  5876 5877 5883  5878 5884 5885  5877 5878 5884  5879 5885 5886  5878 5879 5885  5880 5886 5887  5879 5880 5886  757 5895 5902  756 757 5895  5896 5902 5903  5895 5896 5902  5897 5903 5904  5896 5897 5903  5898 5904 5905  5897 5898 5904  5899 5905 5906  5898 5899 5905  5900 5906 5907  5899 5900 5906  5901 5907 5908  5900 5901 5907  769 4145 4152  768 769 4145  4146 4152 4153  4145 4146 4152  4147 4153 4154  4146 4147 4153  4148 4154 4155  4147 4148 4154  4149 4155 4156  4148 4149 4155  4150 4156 4157  4149 4150 4156  4151 4157 4158  4150 4151 4157  763 5937 5944  762 763 5937  5938 5944 5945  5937 5938 5944  5939 5945 5946  5938 5939 5945  5940 5946 5947  5939 5940 5946  5941 5947 5948  5940 5941 5947  5942 5948 5949  5941 5942 5948  5943 5949 5950  5942 5943 5949  758 5909 5916  758 759 5916  5909 5910 5917  5909 5916 5917  5911 5917 5918  5910 5911 5917  5912 5918 5919  5911 5912 5918  5913 5919 5920  5912 5913 5919  5913 5914 5921  5913 5920 5921  5915 5921 5922  5914 5915 5921  761 5923 5930  760 761 5923  5924 5930 5931  5923 5924 5930  5925 5931 5932  5924 5925 5931  5926 5932 5933  5925 5926 5932  5927 5933 5934  5926 5927 5933  5928 5934 5935  5927 5928 5934  5929 5935 5936  5928 5929 5935  771 4159 4166  770 771 4159  4160 4166 4167  4159 4160 4166  4161 4167 4168  4160 4161 4167  4162 4168 4169  4161 4162 4168  4163 4169 4170  4162 4163 4169  4164 4170 4171  4163 4164 4170  4165 4171 4172  4164 4165 4171  776 4194 4201  775 776 4194  4195 4201 4202  4194 4195 4201  4196 4202 4203  4195 4196 4202  4197 4203 4204  4196 4197 4203  4198 4204 4205  4197 4198 4204  4199 4205 4206  4198 4199 4205  4200 4206 4207  4199 4200 4206  774 4180 4187  773 774 4180  4181 4187 4188  4180 4181 4187  4182 4188 4189  4181 4182 4188  4183 4189 4190  4182 4183 4189  4184 4190 4191  4183 4184 4190  4185 4191 4192  4184 4185 4191  4186 4192 4193  4185 4186 4192  773 4173 4180  772 773 4173  4174 4180 4181  4173 4174 4180  4175 4181 4182  4174 4175 4181  4176 4182 4183  4175 4176 4182  4177 4183 4184  4176 4177 4183  4178 4184 4185  4177 4178 4184  4179 4185 4186  4178 4179 4185  772 4166 4173  771 772 4166  4167 4173 4174  4166 4167 4173  4168 4174 4175  4167 4168 4174  4169 4175 4176  4168 4169 4175  4170 4176 4177  4169 4170 4176  4171 4177 4178  4170 4171 4177  4172 4178 4179  4171 4172 4178  775 4187 4194  774 775 4187  4188 4194 4195  4187 4188 4194  4189 4195 4196  4188 4189 4195  4190 4196 4197  4189 4190 4196  4191 4197 4198  4190 4191 4197  4192 4198 4199  4191 4192 4198  4193 4199 4200  4192 4193 4199  770 4152 4159  769 770 4152  4153 4159 4160  4152 4153 4159  4154 4160 4161  4153 4154 4160  4155 4161 4162  4154 4155 4161  4156 4162 4163  4155 4156 4162  4157 4163 4164  4156 4157 4163  4158 4164 4165  4157 4158 4164  683 5377 5384  682 683 5377  5378 5384 5385  5377 5378 5384  5379 5385 5386  5378 5379 5385  5380 5386 5387  5379 5380 5386  5381 5387 5388  5380 5381 5387  5382 5388 5389  5381 5382 5388  5383 5389 5390  5382 5383 5389  682 5370 5377  681 682 5370  5371 5377 5378  5370 5371 5377  5372 5378 5379  5371 5372 5378  5373 5379 5380  5372 5373 5379  5374 5380 5381  5373 5374 5380  5375 5381 5382  5374 5375 5381  5376 5382 5383  5375 5376 5382  679 5349 5356  678 679 5349  5350 5356 5357  5349 5350 5356  5351 5357 5358  5350 5351 5357  5352 5358 5359  5351 5352 5358  5353 5359 5360  5352 5353 5359  5354 5360 5361  5353 5354 5360  5355 5361 5362  5354 5355 5361  684 5384 5391  683 684 5384  5385 5391 5392  5384 5385 5391  5386 5392 5393  5385 5386 5392  5387 5393 5394  5386 5387 5393  5388 5394 5395  5387 5388 5394  5389 5395 5396  5388 5389 5395  5390 5396 5397  5389 5390 5396  680 5356 5363  679 680 5356  5357 5363 5364  5356 5357 5363  5358 5364 5365  5357 5358 5364  5359 5365 5366  5358 5359 5365  5360 5366 5367  5359 5360 5366  5361 5367 5368  5360 5361 5367  5362 5368 5369  5361 5362 5368  681 5363 5370  680 681 5363  5363 5364 5371  5363 5370 5371  5364 5365 5372  5364 5371 5372  5365 5366 5373  5365 5372 5373  5367 5373 5374  5366 5367 5373  5368 5374 5375  5367 5368 5374  5369 5375 5376  5368 5369 5375  678 5342 5349  677 678 5342  5343 5349 5350  5342 5343 5349  5344 5350 5351  5343 5344 5350  5345 5351 5352  5344 5345 5351  5346 5352 5353  5345 5346 5352  5347 5353 5354  5346 5347 5353  5348 5354 5355  5347 5348 5354  677 5335 5342  676 677 5335  5336 5342 5343  5335 5336 5342  5337 5343 5344  5336 5337 5343  5338 5344 5345  5337 5338 5344  5339 5345 5346  5338 5339 5345  5339 5340 5347  5339 5346 5347  5341 5347 5348  5340 5341 5347  701 5503 5510  700 701 5503  5504 5510 5511  5503 5504 5510  5505 5511 5512  5504 5505 5511  5506 5512 5513  5505 5506 5512  5507 5513 5514  5506 5507 5513  5508 5514 5515  5507 5508 5514  5509 5515 5516  5508 5509 5515  711 5573 5580  710 711 5573  5574 5580 5581  5573 5574 5580  5575 5581 5582  5574 5575 5581  5576 5582 5583  5575 5576 5582  5577 5583 5584  5576 5577 5583  5578 5584 5585  5577 5578 5584  5579 5585 5586  5578 5579 5585  685 5391 5398  684 685 5391  5392 5398 5399  5391 5392 5398  5393 5399 5400  5392 5393 5399  5394 5400 5401  5393 5394 5400  5395 5401 5402  5394 5395 5401  5396 5402 5403  5395 5396 5402  5397 5403 5404  5396 5397 5403  706 5538 5545  705 706 5538  5539 5545 5546  5538 5539 5545  5540 5546 5547  5539 5540 5546  5541 5547 5548  5540 5541 5547  5542 5548 5549  5541 5542 5548  5543 5549 5550  5542 5543 5549  5544 5550 5551  5543 5544 5550  705 5531 5538  704 705 5531  5532 5538 5539  5531 5532 5538  5533 5539 5540  5532 5533 5539  5534 5540 5541  5533 5534 5540  5535 5541 5542  5534 5535 5541  5536 5542 5543  5535 5536 5542  5537 5543 5544  5536 5537 5543  704 5524 5531  703 704 5524  5525 5531 5532  5524 5525 5531  5526 5532 5533  5525 5526 5532  5527 5533 5534  5526 5527 5533  5528 5534 5535  5527 5528 5534  5529 5535 5536  5528 5529 5535  5530 5536 5537  5529 5530 5536  707 5545 5552  706 707 5545  5546 5552 5553  5545 5546 5552  5547 5553 5554  5546 5547 5553  5548 5554 5555  5547 5548 5554  5549 5555 5556  5548 5549 5555  5550 5556 5557  5549 5550 5556  5551 5557 5558  5550 5551 5557  712 5580 5587  711 712 5580  5581 5587 5588  5580 5581 5587  5582 5588 5589  5581 5582 5588  5583 5589 5590  5582 5583 5589  5584 5590 5591  5583 5584 5590  5585 5591 5592  5584 5585 5591  5586 5592 5593  5585 5586 5592  702 5510 5517  701 702 5510  5511 5517 5518  5510 5511 5517  5512 5518 5519  5511 5512 5518  5513 5519 5520  5512 5513 5519  5514 5520 5521  5513 5514 5520  5515 5521 5522  5514 5515 5521  5516 5522 5523  5515 5516 5522  703 5517 5524  702 703 5517  5518 5524 5525  5517 5518 5524  5519 5525 5526  5518 5519 5525  5520 5526 5527  5519 5520 5526  5521 5527 5528  5520 5521 5527  5522 5528 5529  5521 5522 5528  5523 5529 5530  5522 5523 5529  700 5496 5503  699 700 5496  5497 5503 5504  5496 5497 5503  5498 5504 5505  5497 5498 5504  5499 5505 5506  5498 5499 5505  5500 5506 5507  5499 5500 5506  5501 5507 5508  5500 5501 5507  5502 5508 5509  5501 5502 5508  709 5559 5566  708 709 5559  5560 5566 5567  5559 5560 5566  5561 5567 5568  5560 5561 5567  5562 5568 5569  5561 5562 5568  5563 5569 5570  5562 5563 5569  5564 5570 5571  5563 5564 5570  5565 5571 5572  5564 5565 5571  721 5643 5650  720 721 5643  5644 5650 5651  5643 5644 5650  5645 5651 5652  5644 5645 5651  5646 5652 5653  5645 5646 5652  5647 5653 5654  5646 5647 5653  5648 5654 5655  5647 5648 5654  5649 5655 5656  5648 5649 5655  708 5552 5559  707 708 5552  5553 5559 5560  5552 5553 5559  5554 5560 5561  5553 5554 5560  5555 5561 5562  5554 5555 5561  5556 5562 5563  5555 5556 5562  5557 5563 5564  5556 5557 5563  5558 5564 5565  5557 5558 5564  692 5440 5447  691 692 5440  5441 5447 5448  5440 5441 5447  5442 5448 5449  5441 5442 5448  5443 5449 5450  5442 5443 5449  5444 5450 5451  5443 5444 5450  5444 5445 5452  5444 5451 5452  5446 5452 5453  5445 5446 5452  691 5433 5440  690 691 5433  5434 5440 5441  5433 5434 5440  5435 5441 5442  5434 5435 5441  5436 5442 5443  5435 5436 5442  5437 5443 5444  5436 5437 5443  5437 5438 5445  5437 5444 5445  5439 5445 5446  5438 5439 5445  731 5713 5720  730 731 5713  5714 5720 5721  5713 5714 5720  5715 5721 5722  5714 5715 5721  5716 5722 5723  5715 5716 5722  5717 5723 5724  5716 5717 5723  5718 5724 5725  5717 5718 5724  5719 5725 5726  5718 5719 5725  725 5671 5678  724 725 5671  5672 5678 5679  5671 5672 5678  5673 5679 5680  5672 5673 5679  5674 5680 5681  5673 5674 5680  5675 5681 5682  5674 5675 5681  5676 5682 5683  5675 5676 5682  5677 5683 5684  5676 5677 5683  726 5678 5685  725 726 5678  5679 5685 5686  5678 5679 5685  5680 5686 5687  5679 5680 5686  5681 5687 5688  5680 5681 5687  5682 5688 5689  5681 5682 5688  5683 5689 5690  5682 5683 5689  5684 5690 5691  5683 5684 5690  729 5699 5706  728 729 5699  5700 5706 5707  5699 5700 5706  5701 5707 5708  5700 5701 5707  5702 5708 5709  5701 5702 5708  5703 5709 5710  5702 5703 5709  5704 5710 5711  5703 5704 5710  5705 5711 5712  5704 5705 5711  722 5650 5657  721 722 5650  5651 5657 5658  5650 5651 5657  5652 5658 5659  5651 5652 5658  5653 5659 5660  5652 5653 5659  5654 5660 5661  5653 5654 5660  5655 5661 5662  5654 5655 5661  5656 5662 5663  5655 5656 5662  713 5587 5594  712 713 5587  5588 5594 5595  5587 5588 5594  5589 5595 5596  5588 5589 5595  5590 5596 5597  5589 5590 5596  5591 5597 5598  5590 5591 5597  5592 5598 5599  5591 5592 5598  5593 5599 5600  5592 5593 5599  732 5720 5727  731 732 5720  5721 5727 5728  5720 5721 5727  5722 5728 5729  5721 5722 5728  5723 5729 5730  5722 5723 5729  5724 5730 5731  5723 5724 5730  5725 5731 5732  5724 5725 5731  5726 5732 5733  5725 5726 5732  734 5734 5741  733 734 5734  5735 5741 5742  5734 5735 5741  5736 5742 5743  5735 5736 5742  5737 5743 5744  5736 5737 5743  5738 5744 5745  5737 5738 5744  5739 5745 5746  5738 5739 5745  5740 5746 5747  5739 5740 5746  728 5692 5699  727 728 5692  5693 5699 5700  5692 5693 5699  5694 5700 5701  5693 5694 5700  5695 5701 5702  5694 5695 5701  5696 5702 5703  5695 5696 5702  5697 5703 5704  5696 5697 5703  5698 5704 5705  5697 5698 5704  727 5685 5692  726 727 5685  5686 5692 5693  5685 5686 5692  5687 5693 5694  5686 5687 5693  5688 5694 5695  5687 5688 5694  5689 5695 5696  5688 5689 5695  5690 5696 5697  5689 5690 5696  5691 5697 5698  5690 5691 5697  730 5706 5713  729 730 5706  5707 5713 5714  5706 5707 5713  5708 5714 5715  5707 5708 5714  5709 5715 5716  5708 5709 5715  5710 5716 5717  5709 5710 5716  5711 5717 5718  5710 5711 5717  5712 5718 5719  5711 5712 5718  735 5741 5748  734 735 5741  5742 5748 5749  5741 5742 5748  5743 5749 5750  5742 5743 5749  5744 5750 5751  5743 5744 5750  5745 5751 5752  5744 5745 5751  5746 5752 5753  5745 5746 5752  5747 5753 5754  5746 5747 5753  733 5727 5734  732 733 5727  5728 5734 5735  5727 5728 5734  5729 5735 5736  5728 5729 5735  5730 5736 5737  5729 5730 5736  5731 5737 5738  5730 5731 5737  5732 5738 5739  5731 5732 5738  5733 5739 5740  5732 5733 5739  724 5664 5671  723 724 5664  5665 5671 5672  5664 5665 5671  5666 5672 5673  5665 5666 5672  5667 5673 5674  5666 5667 5673  5668 5674 5675  5667 5668 5674  5669 5675 5676  5668 5669 5675  5670 5676 5677  5669 5670 5676  723 5657 5664  722 723 5657  5658 5664 5665  5657 5658 5664  5659 5665 5666  5658 5659 5665  5660 5666 5667  5659 5660 5666  5661 5667 5668  5660 5661 5667  5662 5668 5669  5661 5662 5668  5663 5669 5670  5662 5663 5669  592 1079 1086  591 592 1079  1079 1080 1087  1079 1086 1087  1081 1087 1088  1080 1081 1087  1081 1082 1089  1081 1088 1089  1082 1083 1090  1082 1089 1090  1084 1090 1091  1083 1084 1090  1084 1085 1092  1084 1091 1092  594 1093 1100  593 594 1093  1094 1100 1101  1093 1094 1100  1095 1101 1102  1094 1095 1101  1096 1102 1103  1095 1096 1102  1097 1103 1104  1096 1097 1103  1098 1104 1105  1097 1098 1104  1099 1105 1106  1098 1099 1105  589 1051 1065  588 589 1051  1052 1065 1066  1051 1052 1065  1053 1066 1067  1052 1053 1066  1054 1067 1068  1053 1054 1067  1055 1068 1069  1054 1055 1068  1056 1069 1070  1055 1056 1069  1057 1070 1071  1056 1057 1070  593 1086 1093  592 593 1086  1086 1087 1094  1086 1093 1094  1088 1094 1095  1087 1088 1094  1088 1089 1096  1088 1095 1096  1089 1090 1097  1089 1096 1097  1091 1097 1098  1090 1091 1097  1091 1092 1099  1091 1098 1099  595 1100 1107  594 595 1100  1101 1107 1108  1100 1101 1107  1102 1108 1109  1101 1102 1108  1103 1109 1110  1102 1103 1109  1104 1110 1111  1103 1104 1110  1105 1111 1112  1104 1105 1111  1106 1112 1113  1105 1106 1112  590 1065 1072  589 590 1065  1066 1072 1073  1065 1066 1072  1067 1073 1074  1066 1067 1073  1068 1074 1075  1067 1068 1074  1069 1075 1076  1068 1069 1075  1070 1076 1077  1069 1070 1076  1071 1077 1078  1070 1071 1077  587 1030 1044  586 587 1030  1031 1044 1045  1030 1031 1044  1032 1045 1046  1031 1032 1045  1033 1046 1047  1032 1033 1046  1034 1047 1048  1033 1034 1047  1035 1048 1049  1034 1035 1048  1036 1049 1050  1035 1036 1049  591 1072 1079  590 591 1072  1072 1073 1080  1072 1079 1080  1074 1080 1081  1073 1074 1080  1074 1075 1082  1074 1081 1082  1075 1076 1083  1075 1082 1083  1077 1083 1084  1076 1077 1083  1077 1078 1085  1077 1084 1085  586 1023 1030  585 586 1023  1024 1030 1031  1023 1024 1030  1025 1031 1032  1024 1025 1031  1026 1032 1033  1025 1026 1032  1027 1033 1034  1026 1027 1033  1028 1034 1035  1027 1028 1034  1029 1035 1036  1028 1029 1035  588 1044 1051  587 588 1044  1045 1051 1052  1044 1045 1051  1046 1052 1053  1045 1046 1052  1047 1053 1054  1046 1047 1053  1048 1054 1055  1047 1048 1054  1048 1049 1056  1048 1055 1056  1050 1056 1057  1049 1050 1056  603 4817 4824  602 603 4817  4817 4818 4825  4817 4824 4825  4819 4825 4826  4818 4819 4825  4819 4820 4827  4819 4826 4827  4820 4821 4828  4820 4827 4828  4822 4828 4829  4821 4822 4828  4822 4823 4830  4822 4829 4830  604 4824 4831  603 604 4824  4824 4825 4832  4824 4831 4832  4826 4832 4833  4825 4826 4832  4826 4827 4834  4826 4833 4834  4827 4828 4835  4827 4834 4835  4829 4835 4836  4828 4829 4835  4829 4830 4837  4829 4836 4837  602 4810 4817  601 602 4810  4810 4811 4818  4810 4817 4818  4812 4818 4819  4811 4812 4818  4812 4813 4820  4812 4819 4820  4813 4814 4821  4813 4820 4821  4815 4821 4822  4814 4815 4821  4815 4816 4823  4815 4822 4823  601 4803 4810  600 601 4803  4803 4804 4811  4803 4810 4811  4805 4811 4812  4804 4805 4811  4805 4806 4813  4805 4812 4813  4806 4807 4814  4806 4813 4814  4808 4814 4815  4807 4808 4814  4808 4809 4816  4808 4815 4816  596 1107 1114  595 596 1107  1107 1108 1115  1107 1114 1115  1109 1115 1116  1108 1109 1115  1109 1110 1117  1109 1116 1117  1110 1111 1118  1110 1117 1118  1112 1118 1119  1111 1112 1118  1112 1113 1120  1112 1119 1120  605 4831 4838  604 605 4831  4832 4838 4839  4831 4832 4838  4833 4839 4840  4832 4833 4839  4834 4840 4841  4833 4834 4840  4835 4841 4842  4834 4835 4841  4836 4842 4843  4835 4836 4842  4837 4843 4844  4836 4837 4843  598 4782 4789  597 598 4782  4782 4783 4790  4782 4789 4790  4784 4790 4791  4783 4784 4790  4784 4785 4792  4784 4791 4792  4785 4786 4793  4785 4792 4793  4787 4793 4794  4786 4787 4793  4787 4788 4795  4787 4794 4795  597 1114 4782  596 597 1114  1114 1115 4783  1114 4782 4783  1116 4783 4784  1115 1116 4783  1116 1117 4785  1116 4784 4785  1117 1118 4786  1117 4785 4786  1119 4786 4787  1118 1119 4786  1119 1120 4788  1119 4787 4788  599 4789 4796  598 599 4789  4790 4796 4797  4789 4790 4796  4791 4797 4798  4790 4791 4797  4792 4798 4799  4791 4792 4798  4793 4799 4800  4792 4793 4799  4794 4800 4801  4793 4794 4800  4795 4801 4802  4794 4795 4801  600 4796 4803  599 600 4796  4797 4803 4804  4796 4797 4803  4798 4804 4805  4797 4798 4804  4799 4805 4806  4798 4799 4805  4800 4806 4807  4799 4800 4806  4801 4807 4808  4800 4801 4807  4802 4808 4809  4801 4802 4808  615 4901 4908  614 615 4901  4902 4908 4909  4901 4902 4908  4903 4909 4910  4902 4903 4909  4904 4910 4911  4903 4904 4910  4905 4911 4912  4904 4905 4911  4906 4912 4913  4905 4906 4912  4907 4913 4914  4906 4907 4913  613 4887 4894  612 613 4887  4887 4888 4895  4887 4894 4895  4889 4895 4896  4888 4889 4895  4889 4890 4897  4889 4896 4897  4890 4891 4898  4890 4897 4898  4892 4898 4899  4891 4892 4898  4892 4893 4900  4892 4899 4900  606 4838 4845  605 606 4838  4839 4845 4846  4838 4839 4845  4840 4846 4847  4839 4840 4846  4841 4847 4848  4840 4841 4847  4842 4848 4849  4841 4842 4848  4843 4849 4850  4842 4843 4849  4844 4850 4851  4843 4844 4850  608 4852 4859  607 608 4852  4852 4853 4860  4852 4859 4860  4854 4860 4861  4853 4854 4860  4854 4855 4862  4854 4861 4862  4855 4856 4863  4855 4862 4863  4857 4863 4864  4856 4857 4863  4857 4858 4865  4857 4864 4865  612 4880 4887  611 612 4880  4880 4881 4888  4880 4887 4888  4882 4888 4889  4881 4882 4888  4882 4883 4890  4882 4889 4890  4883 4884 4891  4883 4890 4891  4885 4891 4892  4884 4885 4891  4885 4886 4893  4885 4892 4893  607 4845 4852  606 607 4845  4845 4846 4853  4845 4852 4853  4847 4853 4854  4846 4847 4853  4847 4848 4855  4847 4854 4855  4848 4849 4856  4848 4855 4856  4850 4856 4857  4849 4850 4856  4850 4851 4858  4850 4857 4858  610 4866 4873  609 610 4866  4866 4867 4874  4866 4873 4874  4868 4874 4875  4867 4868 4874  4868 4869 4876  4868 4875 4876  4869 4870 4877  4869 4876 4877  4871 4877 4878  4870 4871 4877  4871 4872 4879  4871 4878 4879  611 4873 4880  610 611 4873  4874 4880 4881  4873 4874 4880  4875 4881 4882  4874 4875 4881  4876 4882 4883  4875 4876 4882  4877 4883 4884  4876 4877 4883  4878 4884 4885  4877 4878 4884  4879 4885 4886  4878 4879 4885  614 4894 4901  613 614 4894  4894 4895 4902  4894 4901 4902  4896 4902 4903  4895 4896 4902  4896 4897 4904  4896 4903 4904  4897 4898 4905  4897 4904 4905  4899 4905 4906  4898 4899 4905  4899 4900 4907  4899 4906 4907  609 4859 4866  608 609 4859  4860 4866 4867  4859 4860 4866  4861 4867 4868  4860 4861 4867  4862 4868 4869  4861 4862 4868  4863 4869 4870  4862 4863 4869  4864 4870 4871  4863 4864 4870  4865 4871 4872  4864 4865 4871  623 4957 4964  622 623 4957  4957 4958 4965  4957 4964 4965  4959 4965 4966  4958 4959 4965  4959 4960 4967  4959 4966 4967  4960 4961 4968  4960 4967 4968  4962 4968 4969  4961 4962 4968  4962 4963 4970  4962 4969 4970  617 4915 4922  616 617 4915  4916 4922 4923  4915 4916 4922  4917 4923 4924  4916 4917 4923  4918 4924 4925  4917 4918 4924  4919 4925 4926  4918 4919 4925  4920 4926 4927  4919 4920 4926  4921 4927 4928  4920 4921 4927  619 4929 4936  618 619 4929  4929 4930 4937  4929 4936 4937  4931 4937 4938  4930 4931 4937  4931 4932 4939  4931 4938 4939  4932 4933 4940  4932 4939 4940  4934 4940 4941  4933 4934 4940  4934 4935 4942  4934 4941 4942  622 4950 4957  621 622 4950  4951 4957 4958  4950 4951 4957  4952 4958 4959  4951 4952 4958  4953 4959 4960  4952 4953 4959  4954 4960 4961  4953 4954 4960  4955 4961 4962  4954 4955 4961  4956 4962 4963  4955 4956 4962  736 5748 5755  735 736 5748  5749 5755 5756  5748 5749 5755  5750 5756 5757  5749 5750 5756  5751 5757 5758  5750 5751 5757  5752 5758 5759  5751 5752 5758  5753 5759 5760  5752 5753 5759  5754 5760 5761  5753 5754 5760  737 5755 5762  736 737 5755  5756 5762 5763  5755 5756 5762  5757 5763 5764  5756 5757 5763  5758 5764 5765  5757 5758 5764  5759 5765 5766  5758 5759 5765  5760 5766 5767  5759 5760 5766  5761 5767 5768  5760 5761 5767  620 4936 4943  619 620 4936  4936 4937 4944  4936 4943 4944  4938 4944 4945  4937 4938 4944  4938 4939 4946  4938 4945 4946  4939 4940 4947  4939 4946 4947  4941 4947 4948  4940 4941 4947  4941 4942 4949  4941 4948 4949  616 4908 4915  615 616 4908  4908 4909 4916  4908 4915 4916  4910 4916 4917  4909 4910 4916  4910 4911 4918  4910 4917 4918  4911 4912 4919  4911 4918 4919  4913 4919 4920  4912 4913 4919  4913 4914 4921  4913 4920 4921  621 4943 4950  620 621 4943  4944 4950 4951  4943 4944 4950  4945 4951 4952  4944 4945 4951  4946 4952 4953  4945 4946 4952  4947 4953 4954  4946 4947 4953  4948 4954 4955  4947 4948 4954  4949 4955 4956  4948 4949 4955  618 4922 4929  617 618 4922  4922 4923 4930  4922 4929 4930  4924 4930 4931  4923 4924 4930  4924 4925 4932  4924 4931 4932  4925 4926 4933  4925 4932 4933  4927 4933 4934  4926 4927 4933  4927 4928 4935  4927 4934 4935  676 5328 5335  675 676 5328  5329 5335 5336  5328 5329 5335  5330 5336 5337  5329 5330 5336  5331 5337 5338  5330 5331 5337  5332 5338 5339  5331 5332 5338  5333 5339 5340  5332 5333 5339  5334 5340 5341  5333 5334 5340  531 6098 6105  530 531 6098  6099 6105 6106  6098 6099 6105  6100 6106 6107  6099 6100 6106  6101 6107 6108  6100 6101 6107  6102 6108 6109  6101 6102 6108  6103 6109 6110  6102 6103 6109  6104 6110 6111  6103 6104 6110  557 7176 7183  556 557 7176  7177 7183 7184  7176 7177 7183  7178 7184 7185  7177 7178 7184  7179 7185 7186  7178 7179 7185  7180 7186 7187  7179 7180 7186  7181 7187 7188  7180 7181 7187  7182 7188 7189  7181 7182 7188  675 5321 5328  674 675 5321  5322 5328 5329  5321 5322 5328  5323 5329 5330  5322 5323 5329  5324 5330 5331  5323 5324 5330  5325 5331 5332  5324 5325 5331  5326 5332 5333  5325 5326 5332  5327 5333 5334  5326 5327 5333  528 6077 6084  527 528 6077  6078 6084 6085  6077 6078 6084  6079 6085 6086  6078 6079 6085  6080 6086 6087  6079 6080 6086  6081 6087 6088  6080 6081 6087  6082 6088 6089  6081 6082 6088  6083 6089 6090  6082 6083 6089  532 6105 6112  531 532 6105  6106 6112 6113  6105 6106 6112  6107 6113 6114  6106 6107 6113  6108 6114 6115  6107 6108 6114  6109 6115 6116  6108 6109 6115  6110 6116 6117  6109 6110 6116  6111 6117 6118  6110 6111 6117  556 7169 7176  555 556 7169  7169 7170 7177  7169 7176 7177  7171 7177 7178  7170 7171 7177  7172 7178 7179  7171 7172 7178  7173 7179 7180  7172 7173 7179  7174 7180 7181  7173 7174 7180  7175 7181 7182  7174 7175 7181  555 6266 7169  554 555 6266  6267 7169 7170  6266 6267 7169  6268 7170 7171  6267 6268 7170  6269 7171 7172  6268 6269 7171  6270 7172 7173  6269 6270 7172  6271 7173 7174  6270 6271 7173  6272 7174 7175  6271 6272 7174  530 6091 6098  529 530 6091  6091 6092 6099  6091 6098 6099  6093 6099 6100  6092 6093 6099  6093 6094 6101  6093 6100 6101  6094 6095 6102  6094 6101 6102  6096 6102 6103  6095 6096 6102  6096 6097 6104  6096 6103 6104  529 6084 6091  528 529 6084  6084 6085 6092  6084 6091 6092  6086 6092 6093  6085 6086 6092  6086 6087 6094  6086 6093 6094  6087 6088 6095  6087 6094 6095  6089 6095 6096  6088 6089 6095  6089 6090 6097  6089 6096 6097  527 6070 6077  526 527 6070  6071 6077 6078  6070 6071 6077  6072 6078 6079  6071 6072 6078  6073 6079 6080  6072 6073 6079  6074 6080 6081  6073 6074 6080  6075 6081 6082  6074 6075 6081  6076 6082 6083  6075 6076 6082  548 6217 6224  547 548 6217  6218 6224 6225  6217 6218 6224  6219 6225 6226  6218 6219 6225  6220 6226 6227  6219 6220 6226  6221 6227 6228  6220 6221 6227  6222 6228 6229  6221 6222 6228  6223 6229 6230  6222 6223 6229  542 6175 6182  541 542 6175  6176 6182 6183  6175 6176 6182  6177 6183 6184  6176 6177 6183  6178 6184 6185  6177 6178 6184  6179 6185 6186  6178 6179 6185  6179 6180 6187  6179 6186 6187  6181 6187 6188  6180 6181 6187  547 6210 6217  546 547 6210  6211 6217 6218  6210 6211 6217  6212 6218 6219  6211 6212 6218  6213 6219 6220  6212 6213 6219  6214 6220 6221  6213 6214 6220  6215 6221 6222  6214 6215 6221  6216 6222 6223  6215 6216 6222  544 6189 6196  543 544 6189  6190 6196 6197  6189 6190 6196  6191 6197 6198  6190 6191 6197  6192 6198 6199  6191 6192 6198  6193 6199 6200  6192 6193 6199  6193 6194 6201  6193 6200 6201  6195 6201 6202  6194 6195 6201  540 6161 6168  539 540 6161  6162 6168 6169  6161 6162 6168  6163 6169 6170  6162 6163 6169  6164 6170 6171  6163 6164 6170  6165 6171 6172  6164 6165 6171  6166 6172 6173  6165 6166 6172  6167 6173 6174  6166 6167 6173  545 6196 6203  544 545 6196  6197 6203 6204  6196 6197 6203  6198 6204 6205  6197 6198 6204  6199 6205 6206  6198 6199 6205  6200 6206 6207  6199 6200 6206  6201 6207 6208  6200 6201 6207  6202 6208 6209  6201 6202 6208  546 6203 6210  545 546 6203  6204 6210 6211  6203 6204 6210  6205 6211 6212  6204 6205 6211  6206 6212 6213  6205 6206 6212  6207 6213 6214  6206 6207 6213  6207 6208 6215  6207 6214 6215  6209 6215 6216  6208 6209 6215  541 6168 6175  540 541 6168  6169 6175 6176  6168 6169 6175  6170 6176 6177  6169 6170 6176  6171 6177 6178  6170 6171 6177  6172 6178 6179  6171 6172 6178  6172 6173 6180  6172 6179 6180  6174 6180 6181  6173 6174 6180  543 6182 6189  542 543 6182  6183 6189 6190  6182 6183 6189  6184 6190 6191  6183 6184 6190  6185 6191 6192  6184 6185 6191  6186 6192 6193  6185 6186 6192  6187 6193 6194  6186 6187 6193  6188 6194 6195  6187 6188 6194  553 6252 6259  552 553 6252  6253 6259 6260  6252 6253 6259  6254 6260 6261  6253 6254 6260  6255 6261 6262  6254 6255 6261  6256 6262 6263  6255 6256 6262  6257 6263 6264  6256 6257 6263  6258 6264 6265  6257 6258 6264  550 6231 6238  549 550 6231  6231 6232 6239  6231 6238 6239  6233 6239 6240  6232 6233 6239  6233 6234 6241  6233 6240 6241  6234 6235 6242  6234 6241 6242  6236 6242 6243  6235 6236 6242  6236 6237 6244  6236 6243 6244  549 6224 6231  548 549 6224  6225 6231 6232  6224 6225 6231  6226 6232 6233  6225 6226 6232  6227 6233 6234  6226 6227 6233  6228 6234 6235  6227 6228 6234  6229 6235 6236  6228 6229 6235  6230 6236 6237  6229 6230 6236  574 7295 7302  573 574 7295  7296 7302 7303  7295 7296 7302  7297 7303 7304  7296 7297 7303  7298 7304 7305  7297 7298 7304  7299 7305 7306  7298 7299 7305  7299 7300 7307  7299 7306 7307  7301 7307 7308  7300 7301 7307  575 7302 7309  574 575 7302  7303 7309 7310  7302 7303 7309  7304 7310 7311  7303 7304 7310  7305 7311 7312  7304 7305 7311  7306 7312 7313  7305 7306 7312  7307 7313 7314  7306 7307 7313  7308 7314 7315  7307 7308 7314  554 6259 6266  553 554 6259  6260 6266 6267  6259 6260 6266  6261 6267 6268  6260 6261 6267  6262 6268 6269  6261 6262 6268  6263 6269 6270  6262 6263 6269  6264 6270 6271  6263 6264 6270  6265 6271 6272  6264 6265 6271  565 7232 7239  564 565 7232  7232 7233 7240  7232 7239 7240  7234 7240 7241  7233 7234 7240  7234 7235 7242  7234 7241 7242  7235 7236 7243  7235 7242 7243  7237 7243 7244  7236 7237 7243  7237 7238 7245  7237 7244 7245  552 6245 6252  551 552 6245  6246 6252 6253  6245 6246 6252  6247 6253 6254  6246 6247 6253  6248 6254 6255  6247 6248 6254  6249 6255 6256  6248 6249 6255  6250 6256 6257  6249 6250 6256  6251 6257 6258  6250 6251 6257  551 6238 6245  550 551 6238  6238 6239 6246  6238 6245 6246  6240 6246 6247  6239 6240 6246  6240 6241 6248  6240 6247 6248  6241 6242 6249  6241 6248 6249  6243 6249 6250  6242 6243 6249  6243 6244 6251  6243 6250 6251  573 7288 7295  572 573 7288  7289 7295 7296  7288 7289 7295  7290 7296 7297  7289 7290 7296  7291 7297 7298  7290 7291 7297  7292 7298 7299  7291 7292 7298  7293 7299 7300  7292 7293 7299  7294 7300 7301  7293 7294 7300  577 7316 7323  576 577 7316  7317 7323 7324  7316 7317 7323  7318 7324 7325  7317 7318 7324  7319 7325 7326  7318 7319 7325  7320 7326 7327  7319 7320 7326  7320 7321 7328  7320 7327 7328  7322 7328 7329  7321 7322 7328  582 995 1037  581 582 1037  995 996 1038  995 1037 1038  996 997 1039  996 1038 1039  997 998 1040  997 1039 1040  998 999 1041  998 1040 1041  999 1000 1042  999 1041 1042  1000 1001 1043  1000 1042 1043  585 1016 1023  584 585 1016  1017 1023 1024  1016 1017 1023  1018 1024 1025  1017 1018 1024  1019 1025 1026  1018 1019 1025  1020 1026 1027  1019 1020 1026  1020 1021 1028  1020 1027 1028  1022 1028 1029  1021 1022 1028  576 7309 7316  575 576 7309  7310 7316 7317  7309 7310 7316  7311 7317 7318  7310 7311 7317  7312 7318 7319  7311 7312 7318  7313 7319 7320  7312 7313 7319  7313 7314 7321  7313 7320 7321  7315 7321 7322  7314 7315 7321  578 1002 7323  577 578 7323  1002 1003 7324  1002 7323 7324  1003 1004 7325  1003 7324 7325  1004 1005 7326  1004 7325 7326  1005 1006 7327  1005 7326 7327  1006 1007 7328  1006 7327 7328  1007 1008 7329  1007 7328 7329  583 988 995  582 583 995  988 989 996  988 995 996  989 990 997  989 996 997  990 991 998  990 997 998  991 992 999  991 998 999  992 993 1000  992 999 1000  993 994 1001  993 1000 1001  580 1009 1058  579 580 1058  1009 1010 1059  1009 1058 1059  1010 1011 1060  1010 1059 1060  1011 1012 1061  1011 1060 1061  1012 1013 1062  1012 1061 1062  1014 1062 1063  1013 1014 1062  1014 1015 1064  1014 1063 1064  581 1009 1037  580 581 1009  1010 1037 1038  1009 1010 1037  1011 1038 1039  1010 1011 1038  1012 1039 1040  1011 1012 1039  1013 1040 1041  1012 1013 1040  1013 1014 1042  1013 1041 1042  1015 1042 1043  1014 1015 1042  584 988 1016  583 584 988  989 1016 1017  988 989 1016  990 1017 1018  989 990 1017  991 1018 1019  990 991 1018  992 1019 1020  991 992 1019  993 1020 1021  992 993 1020  994 1021 1022  993 994 1021  579 1002 1058  578 579 1002  1003 1058 1059  1002 1003 1058  1004 1059 1060  1003 1004 1059  1005 1060 1061  1004 1005 1060  1006 1061 1062  1005 1006 1061  1007 1062 1063  1006 1007 1062  1008 1063 1064  1007 1008 1063  379 2311 2402  378 379 2402  2311 2312 2403  2311 2402 2403  2313 2403 2404  2312 2313 2403  2313 2314 2405  2313 2404 2405  2314 2315 2406  2314 2405 2406  2316 2406 2407  2315 2316 2406  2316 2317 2408  2316 2407 2408  381 2276 2290  380 381 2276  2277 2290 2291  2276 2277 2290  2277 2278 2292  2277 2291 2292  2279 2292 2293  2278 2279 2292  2280 2293 2294  2279 2280 2293  2281 2294 2295  2280 2281 2294  2281 2282 2296  2281 2295 2296  383 2353 2374  382 383 2353  2354 2374 2375  2353 2354 2374  2355 2375 2376  2354 2355 2375  2355 2356 2377  2355 2376 2377  2357 2377 2378  2356 2357 2377  2358 2378 2379  2357 2358 2378  2359 2379 2380  2358 2359 2379  382 2290 2353  381 382 2290  2291 2353 2354  2290 2291 2353  2292 2354 2355  2291 2292 2354  2293 2355 2356  2292 2293 2355  2294 2356 2357  2293 2294 2356  2295 2357 2358  2294 2295 2357  2296 2358 2359  2295 2296 2358  378 2402 2542  377 378 2542  2402 2403 2543  2402 2542 2543  2403 2404 2544  2403 2543 2544  2404 2405 2545  2404 2544 2545  2405 2406 2546  2405 2545 2546  2406 2407 2547  2406 2546 2547  2407 2408 2548  2407 2547 2548  388 2493 2514  387 388 2514  2493 2494 2515  2493 2514 2515  2494 2495 2516  2494 2515 2516  2495 2496 2517  2495 2516 2517  2496 2497 2518  2496 2517 2518  2497 2498 2519  2497 2518 2519  2498 2499 2520  2498 2519 2520  389 2493 2528  388 389 2493  2493 2494 2529  2493 2528 2529  2495 2529 2530  2494 2495 2529  2496 2530 2531  2495 2496 2530  2496 2497 2532  2496 2531 2532  2498 2532 2533  2497 2498 2532  2498 2499 2534  2498 2533 2534  391 2584 2626  390 391 2626  2584 2585 2627  2584 2626 2627  2586 2627 2628  2585 2586 2627  2586 2587 2629  2586 2628 2629  2587 2588 2630  2587 2629 2630  2588 2589 2631  2588 2630 2631  2589 2590 2632  2589 2631 2632  387 2416 2514  386 387 2416  2417 2514 2515  2416 2417 2514  2417 2418 2516  2417 2515 2516  2419 2516 2517  2418 2419 2516  2420 2517 2518  2419 2420 2517  2421 2518 2519  2420 2421 2518  2422 2519 2520  2421 2422 2519  377 2213 2542  376 377 2213  2214 2542 2543  2213 2214 2542  2215 2543 2544  2214 2215 2543  2216 2544 2545  2215 2216 2544  2216 2217 2546  2216 2545 2546  2218 2546 2547  2217 2218 2546  2218 2219 2548  2218 2547 2548  393 2570 2668  392 393 2570  2571 2668 2669  2570 2571 2668  2572 2669 2670  2571 2572 2669  2572 2573 2671  2572 2670 2671  2574 2671 2672  2573 2574 2671  2575 2672 2673  2574 2575 2672  2576 2673 2674  2575 2576 2673  379 2276 2311  379 380 2276  2277 2311 2312  2276 2277 2311  2278 2312 2313  2277 2278 2312  2279 2313 2314  2278 2279 2313  2279 2280 2315  2279 2314 2315  2280 2281 2316  2280 2315 2316  2281 2282 2317  2281 2316 2317  384 2374 2479  383 384 2374  2375 2479 2480  2374 2375 2479  2375 2376 2481  2375 2480 2481  2377 2481 2482  2376 2377 2481  2377 2378 2483  2377 2482 2483  2379 2483 2484  2378 2379 2483  2380 2484 2485  2379 2380 2484  385 2430 2479  384 385 2479  2431 2479 2480  2430 2431 2479  2431 2432 2481  2431 2480 2481  2432 2433 2482  2432 2481 2482  2433 2434 2483  2433 2482 2483  2435 2483 2484  2434 2435 2483  2435 2436 2485  2435 2484 2485  392 2570 2584  391 392 2584  2570 2571 2585  2570 2584 2585  2572 2585 2586  2571 2572 2585  2572 2573 2587  2572 2586 2587  2573 2574 2588  2573 2587 2588  2575 2588 2589  2574 2575 2588  2575 2576 2590  2575 2589 2590  386 2416 2430  385 386 2430  2416 2417 2431  2416 2430 2431  2418 2431 2432  2417 2418 2431  2418 2419 2433  2418 2432 2433  2419 2420 2434  2419 2433 2434  2421 2434 2435  2420 2421 2434  2421 2422 2436  2421 2435 2436  390 2528 2626  389 390 2528  2529 2626 2627  2528 2529 2626  2530 2627 2628  2529 2530 2627  2531 2628 2629  2530 2531 2628  2532 2629 2630  2531 2532 2629  2533 2630 2631  2532 2533 2630  2534 2631 2632  2533 2534 2631  426 2696 2717  425 426 2717  2696 2697 2718  2696 2717 2718  2697 2698 2719  2697 2718 2719  2699 2719 2720  2698 2699 2719  2699 2700 2721  2699 2720 2721  2700 2701 2722  2700 2721 2722  2701 2702 2723  2701 2722 2723  420 2654 2934  420 421 2654  2654 2655 2935  2654 2934 2935  2655 2656 2936  2655 2935 2936  2656 2657 2937  2656 2936 2937  2657 2658 2938  2657 2937 2938  2658 2659 2939  2658 2938 2939  2659 2660 2940  2659 2939 2940  422 1989 2724  422 423 2724  1990 2724 2725  1989 1990 2724  1991 2725 2726  1990 1991 2725  1992 2726 2727  1991 1992 2726  1993 2727 2728  1992 1993 2727  1994 2728 2729  1993 1994 2728  1995 2729 2730  1994 1995 2729  394 2640 2668  393 394 2668  2640 2641 2669  2640 2668 2669  2641 2642 2670  2641 2669 2670  2642 2643 2671  2642 2670 2671  2643 2644 2672  2643 2671 2672  2644 2645 2673  2644 2672 2673  2645 2646 2674  2645 2673 2674  395 2640 2689  394 395 2640  2641 2689 2690  2640 2641 2689  2642 2690 2691  2641 2642 2690  2643 2691 2692  2642 2643 2691  2643 2644 2693  2643 2692 2693  2645 2693 2694  2644 2645 2693  2645 2646 2695  2645 2694 2695  418 419 2899  4 418 419  417 2899 2900  417 418 2899  416 2900 2901  416 417 2900  415 416 2902  416 2901 2902  414 2902 2903  414 415 2902  413 2903 2904  413 414 2903  412 2904 2905  412 413 2904  427 2346 2696  426 427 2696  2346 2347 2697  2346 2696 2697  2347 2348 2698  2347 2697 2698  2348 2349 2699  2348 2698 2699  2350 2699 2700  2349 2350 2699  2350 2351 2701  2350 2700 2701  2351 2352 2702  2351 2701 2702  424 2724 2913  423 424 2724  2725 2913 2914  2724 2725 2913  2725 2726 2915  2725 2914 2915  2727 2915 2916  2726 2727 2915  2728 2916 2917  2727 2728 2916  2729 2917 2918  2728 2729 2917  2729 2730 2919  2729 2918 2919  3 396 2689  3 395 2689  396 397 2690  396 2689 2690  397 398 2691  397 2690 2691  399 2691 2692  398 399 2691  399 400 2693  399 2692 2693  400 401 2694  400 2693 2694  401 402 2695  401 2694 2695  425 2717 2913  424 425 2913  2717 2718 2914  2717 2913 2914  2718 2719 2915  2718 2914 2915  2720 2915 2916  2719 2720 2915  2720 2721 2917  2720 2916 2917  2721 2722 2918  2721 2917 2918  2722 2723 2919  2722 2918 2919  429 2066 2535  428 429 2535  2066 2067 2536  2066 2535 2536  2068 2536 2537  2067 2068 2536  2068 2069 2538  2068 2537 2538  2069 2070 2539  2069 2538 2539  2070 2071 2540  2070 2539 2540  2071 2072 2541  2071 2540 2541  422 1989 2654  421 422 2654  1989 1990 2655  1989 2654 2655  1991 2655 2656  1990 1991 2655  1991 1992 2657  1991 2656 2657  1992 1993 2658  1992 2657 2658  1993 1994 2659  1993 2658 2659  1994 1995 2660  1994 2659 2660  427 2346 2535  427 428 2535  2347 2535 2536  2346 2347 2535  2348 2536 2537  2347 2348 2536  2349 2537 2538  2348 2349 2537  2350 2538 2539  2349 2350 2538  2351 2539 2540  2350 2351 2539  2352 2540 2541  2351 2352 2540  420 2899 2934  419 420 2899  2900 2934 2935  2899 2900 2934  2901 2935 2936  2900 2901 2935  2902 2936 2937  2901 2902 2936  2903 2937 2938  2902 2903 2937  2904 2938 2939  2903 2904 2938  2904 2905 2940  2904 2939 2940  525 6056 6063  524 525 6056  6057 6063 6064  6056 6057 6063  6058 6064 6065  6057 6058 6064  6059 6065 6066  6058 6059 6065  6060 6066 6067  6059 6060 6066  6061 6067 6068  6060 6061 6067  6062 6068 6069  6061 6062 6068  429 2066 2080  429 430 2080  2067 2080 2081  2066 2067 2080  2068 2081 2082  2067 2068 2081  2069 2082 2083  2068 2069 2082  2070 2083 2084  2069 2070 2083  2071 2084 2085  2070 2071 2084  2072 2085 2086  2071 2072 2085  433 2136 2451  432 433 2136  2137 2451 2452  2136 2137 2451  2138 2452 2453  2137 2138 2452  2138 2139 2454  2138 2453 2454  2140 2454 2455  2139 2140 2454  2141 2455 2456  2140 2141 2455  2142 2456 2457  2141 2142 2456  438 2605 2871  437 438 2871  2605 2606 2872  2605 2871 2872  2606 2607 2873  2606 2872 2873  2607 2608 2874  2607 2873 2874  2608 2609 2875  2608 2874 2875  2609 2610 2876  2609 2875 2876  2610 2611 2877  2610 2876 2877  437 2094 2871  436 437 2094  2095 2871 2872  2094 2095 2871  2095 2096 2873  2095 2872 2873  2097 2873 2874  2096 2097 2873  2098 2874 2875  2097 2098 2874  2099 2875 2876  2098 2099 2875  2100 2876 2877  2099 2100 2876  432 2136 2878  431 432 2878  2136 2137 2879  2136 2878 2879  2137 2138 2880  2137 2879 2880  2139 2880 2881  2138 2139 2880  2139 2140 2882  2139 2881 2882  2140 2141 2883  2140 2882 2883  2141 2142 2884  2141 2883 2884  440 2458 2808  439 440 2458  2459 2808 2809  2458 2459 2808  2460 2809 2810  2459 2460 2809  2460 2461 2811  2460 2810 2811  2462 2811 2812  2461 2462 2811  2463 2812 2813  2462 2463 2812  2464 2813 2814  2463 2464 2813  439 2458 2605  438 439 2605  2458 2459 2606  2458 2605 2606  2459 2460 2607  2459 2606 2607  2461 2607 2608  2460 2461 2607  2461 2462 2609  2461 2608 2609  2462 2463 2610  2462 2609 2610  2463 2464 2611  2463 2610 2611  517 6000 6007  516 517 6000  6001 6007 6008  6000 6001 6007  6002 6008 6009  6001 6002 6008  6003 6009 6010  6002 6003 6009  6004 6010 6011  6003 6004 6010  6005 6011 6012  6004 6005 6011  6006 6012 6013  6005 6006 6012  435 2255 2801  434 435 2255  2256 2801 2802  2255 2256 2801  2256 2257 2803  2256 2802 2803  2258 2803 2804  2257 2258 2803  2259 2804 2805  2258 2259 2804  2260 2805 2806  2259 2260 2805  2261 2806 2807  2260 2261 2806  441 2808 4131  440 441 2808  2809 4131 4132  2808 2809 4131  2810 4132 4133  2809 2810 4132  2811 4133 4134  2810 2811 4133  2811 2812 4135  2811 4134 4135  2813 4135 4136  2812 2813 4135  2814 4136 4137  2813 2814 4136  435 2094 2801  435 436 2094  2094 2095 2802  2094 2801 2802  2095 2096 2803  2095 2802 2803  2096 2097 2804  2096 2803 2804  2097 2098 2805  2097 2804 2805  2098 2099 2806  2098 2805 2806  2099 2100 2807  2099 2806 2807  518 6007 6014  517 518 6007  6007 6008 6015  6007 6014 6015  6009 6015 6016  6008 6009 6015  6009 6010 6017  6009 6016 6017  6010 6011 6018  6010 6017 6018  6012 6018 6019  6011 6012 6018  6012 6013 6020  6012 6019 6020  430 2080 2878  430 431 2878  2080 2081 2879  2080 2878 2879  2082 2879 2880  2081 2082 2879  2082 2083 2881  2082 2880 2881  2084 2881 2882  2083 2084 2881  2085 2882 2883  2084 2085 2882  2086 2883 2884  2085 2086 2883  526 6063 6070  525 526 6063  6064 6070 6071  6063 6064 6070  6065 6071 6072  6064 6065 6071  6066 6072 6073  6065 6066 6072  6067 6073 6074  6066 6067 6073  6068 6074 6075  6067 6068 6074  6068 6069 6076  6068 6075 6076  434 2255 2451  433 434 2451  2255 2256 2452  2255 2451 2452  2256 2257 2453  2256 2452 2453  2257 2258 2454  2257 2453 2454  2258 2259 2455  2258 2454 2455  2260 2455 2456  2259 2260 2455  2260 2261 2457  2260 2456 2457  513 5972 5979  512 513 5972  5972 5973 5980  5972 5979 5980  5974 5980 5981  5973 5974 5980  5974 5975 5982  5974 5981 5982  5975 5976 5983  5975 5982 5983  5977 5983 5984  5976 5977 5983  5977 5978 5985  5977 5984 5985  516 5993 6000  515 516 5993  5994 6000 6001  5993 5994 6000  5995 6001 6002  5994 5995 6001  5996 6002 6003  5995 5996 6002  5997 6003 6004  5996 5997 6003  5998 6004 6005  5997 5998 6004  5999 6005 6006  5998 5999 6005  515 5986 5993  514 515 5986  5987 5993 5994  5986 5987 5993  5988 5994 5995  5987 5988 5994  5989 5995 5996  5988 5989 5995  5990 5996 5997  5989 5990 5996  5991 5997 5998  5990 5991 5997  5992 5998 5999  5991 5992 5998  514 5979 5986  513 514 5979  5979 5980 5987  5979 5986 5987  5981 5987 5988  5980 5981 5987  5981 5982 5989  5981 5988 5989  5982 5983 5990  5982 5989 5990  5984 5990 5991  5983 5984 5990  5984 5985 5992  5984 5991 5992  502 3004 3340  501 502 3340  3004 3005 3341  3004 3340 3341  3005 3006 3342  3005 3341 3342  3006 3007 3343  3006 3342 3343  3007 3008 3344  3007 3343 3344  3008 3009 3345  3008 3344 3345  3009 3010 3346  3009 3345 3346  507 3732 3900  506 507 3732  3733 3900 3901  3732 3733 3900  3734 3901 3902  3733 3734 3901  3735 3902 3903  3734 3735 3902  3736 3903 3904  3735 3736 3903  3736 3737 3905  3736 3904 3905  3738 3905 3906  3737 3738 3905  503 3004 3984  502 503 3004  3005 3984 3985  3004 3005 3984  3006 3985 3986  3005 3006 3985  3007 3986 3987  3006 3007 3986  3008 3987 3988  3007 3008 3987  3009 3988 3989  3008 3009 3988  3010 3989 3990  3009 3010 3989  486 7120 7127  485 486 7120  7121 7127 7128  7120 7121 7127  7122 7128 7129  7121 7122 7128  7123 7129 7130  7122 7123 7129  7124 7130 7131  7123 7124 7130  7125 7131 7132  7124 7125 7131  7126 7132 7133  7125 7126 7132  508 3487 3900  507 508 3900  3487 3488 3901  3487 3900 3901  3488 3489 3902  3488 3901 3902  3489 3490 3903  3489 3902 3903  3490 3491 3904  3490 3903 3904  3492 3904 3905  3491 3492 3904  3492 3493 3906  3492 3905 3906  506 3655 3732  505 506 3655  3656 3732 3733  3655 3656 3732  3657 3733 3734  3656 3657 3733  3658 3734 3735  3657 3658 3734  3659 3735 3736  3658 3659 3735  3660 3736 3737  3659 3660 3736  3661 3737 3738  3660 3661 3737  512 3571 5972  511 512 3571  3572 5972 5973  3571 3572 5972  3573 5973 5974  3572 3573 5973  3574 5974 5975  3573 3574 5974  3575 5975 5976  3574 3575 5975  3576 5976 5977  3575 3576 5976  3577 5977 5978  3576 3577 5977  509 3298 3487  508 509 3487  3298 3299 3488  3298 3487 3488  3299 3300 3489  3299 3488 3489  3300 3301 3490  3300 3489 3490  3301 3302 3491  3301 3490 3491  3302 3303 3492  3302 3491 3492  3303 3304 3493  3303 3492 3493  504 3816 3984  503 504 3984  3817 3984 3985  3816 3817 3984  3817 3818 3986  3817 3985 3986  3818 3819 3987  3818 3986 3987  3819 3820 3988  3819 3987 3988  3820 3821 3989  3820 3988 3989  3822 3989 3990  3821 3822 3989  505 3655 3816  504 505 3816  3655 3656 3817  3655 3816 3817  3656 3657 3818  3656 3817 3818  3657 3658 3819  3657 3818 3819  3658 3659 3820  3658 3819 3820  3659 3660 3821  3659 3820 3821  3660 3661 3822  3660 3821 3822  510 3298 3403  509 510 3298  3299 3403 3404  3298 3299 3403  3300 3404 3405  3299 3300 3404  3301 3405 3406  3300 3301 3405  3302 3406 3407  3301 3302 3406  3302 3303 3408  3302 3407 3408  3304 3408 3409  3303 3304 3408  511 3403 3571  510 511 3403  3404 3571 3572  3403 3404 3571  3405 3572 3573  3404 3405 3572  3406 3573 3574  3405 3406 3573  3407 3574 3575  3406 3407 3574  3407 3408 3576  3407 3575 3576  3409 3576 3577  3408 3409 3576  500 3410 3466  499 500 3466  3410 3411 3467  3410 3466 3467  3411 3412 3468  3411 3467 3468  3412 3413 3469  3412 3468 3469  3413 3414 3470  3413 3469 3470  3415 3470 3471  3414 3415 3470  3415 3416 3472  3415 3471 3472  501 3340 3410  500 501 3410  3340 3341 3411  3340 3410 3411  3341 3342 3412  3341 3411 3412  3342 3343 3413  3342 3412 3413  3343 3344 3414  3343 3413 3414  3345 3414 3415  3344 3345 3414  3345 3346 3416  3345 3415 3416  336 2332 2367  335 336 2332  2332 2333 2368  2332 2367 2368  2333 2334 2369  2333 2368 2369  2334 2335 2370  2334 2369 2370  2336 2370 2371  2335 2336 2370  2336 2337 2372  2336 2371 2372  2337 2338 2373  2337 2372 2373  337 2367 2381  336 337 2367  2368 2381 2382  2367 2368 2381  2369 2382 2383  2368 2369 2382  2370 2383 2384  2369 2370 2383  2371 2384 2385  2370 2371 2384  2371 2372 2386  2371 2385 2386  2372 2373 2387  2372 2386 2387  343 2171 2220  343 344 2220  2171 2172 2221  2171 2220 2221  2173 2221 2222  2172 2173 2221  2174 2222 2223  2173 2174 2222  2175 2223 2224  2174 2175 2223  2176 2224 2225  2175 2176 2224  2177 2225 2226  2176 2177 2225  339 2269 2297  339 340 2269  2270 2297 2298  2269 2270 2297  2271 2298 2299  2270 2271 2298  2271 2272 2300  2271 2299 2300  2272 2273 2301  2272 2300 2301  2274 2301 2302  2273 2274 2301  2274 2275 2303  2274 2302 2303  346 2129 2185  345 346 2185  2129 2130 2186  2129 2185 2186  2130 2131 2187  2130 2186 2187  2131 2132 2188  2131 2187 2188  2132 2133 2189  2132 2188 2189  2134 2189 2190  2133 2134 2189  2134 2135 2191  2134 2190 2191  347 2010 2157  347 348 2010  2010 2011 2158  2010 2157 2158  2011 2012 2159  2011 2158 2159  2012 2013 2160  2012 2159 2160  2013 2014 2161  2013 2160 2161  2014 2015 2162  2014 2161 2162  2016 2162 2163  2015 2016 2162  339 2283 2297  338 339 2283  2284 2297 2298  2283 2284 2297  2285 2298 2299  2284 2285 2298  2286 2299 2300  2285 2286 2299  2287 2300 2301  2286 2287 2300  2288 2301 2302  2287 2288 2301  2288 2289 2303  2288 2302 2303  342 2087 2920  341 342 2920  2087 2088 2921  2087 2920 2921  2089 2921 2922  2088 2089 2921  2089 2090 2923  2089 2922 2923  2091 2923 2924  2090 2091 2923  2092 2924 2925  2091 2092 2924  2092 2093 2926  2092 2925 2926  347 2129 2157  346 347 2129  2130 2157 2158  2129 2130 2157  2131 2158 2159  2130 2131 2158  2132 2159 2160  2131 2132 2159  2132 2133 2161  2132 2160 2161  2134 2161 2162  2133 2134 2161  2135 2162 2163  2134 2135 2162  349 2010 2052  348 349 2010  2011 2052 2053  2010 2011 2052  2012 2053 2054  2011 2012 2053  2012 2013 2055  2012 2054 2055  2014 2055 2056  2013 2014 2055  2015 2056 2057  2014 2015 2056  2016 2057 2058  2015 2016 2057  341 2269 2920  340 341 2269  2270 2920 2921  2269 2270 2920  2271 2921 2922  2270 2271 2921  2272 2922 2923  2271 2272 2922  2273 2923 2924  2272 2273 2923  2274 2924 2925  2273 2274 2924  2275 2925 2926  2274 2275 2925  345 2185 2220  344 345 2220  2185 2186 2221  2185 2220 2221  2187 2221 2222  2186 2187 2221  2188 2222 2223  2187 2188 2222  2189 2223 2224  2188 2189 2223  2189 2190 2225  2189 2224 2225  2191 2225 2226  2190 2191 2225  342 2087 2171  342 343 2171  2088 2171 2172  2087 2088 2171  2089 2172 2173  2088 2089 2172  2090 2173 2174  2089 2090 2173  2091 2174 2175  2090 2091 2174  2092 2175 2176  2091 2092 2175  2093 2176 2177  2092 2093 2176  350 2031 2052  349 350 2052  2031 2032 2053  2031 2052 2053  2033 2053 2054  2032 2033 2053  2033 2034 2055  2033 2054 2055  2035 2055 2056  2034 2035 2055  2035 2036 2057  2035 2056 2057  2036 2037 2058  2036 2057 2058  338 2283 2381  337 338 2381  2283 2284 2382  2283 2381 2382  2284 2285 2383  2284 2382 2383  2285 2286 2384  2285 2383 2384  2286 2287 2385  2286 2384 2385  2287 2288 2386  2287 2385 2386  2288 2289 2387  2288 2386 2387  358 2199 2262  357 358 2199  2200 2262 2263  2199 2200 2262  2201 2263 2264  2200 2201 2263  2202 2264 2265  2201 2202 2264  2203 2265 2266  2202 2203 2265  2204 2266 2267  2203 2204 2266  2205 2267 2268  2204 2205 2267  352 1996 2360  352 353 2360  1996 1997 2361  1996 2360 2361  1998 2361 2362  1997 1998 2361  1999 2362 2363  1998 1999 2362  2000 2363 2364  1999 2000 2363  2001 2364 2365  2000 2001 2364  2002 2365 2366  2001 2002 2365  359 1961 2262  358 359 2262  1961 1962 2263  1961 2262 2263  1963 2263 2264  1962 1963 2263  1964 2264 2265  1963 1964 2264  1964 1965 2266  1964 2265 2266  1965 1966 2267  1965 2266 2267  1967 2267 2268  1966 1967 2267  356 2199 2507  356 357 2199  2199 2200 2508  2199 2507 2508  2201 2508 2509  2200 2201 2508  2202 2509 2510  2201 2202 2509  2202 2203 2511  2202 2510 2511  2203 2204 2512  2203 2511 2512  2204 2205 2513  2204 2512 2513  356 2507 2619  355 356 2619  2508 2619 2620  2507 2508 2619  2509 2620 2621  2508 2509 2620  2509 2510 2622  2509 2621 2622  2510 2511 2623  2510 2622 2623  2511 2512 2624  2511 2623 2624  2512 2513 2625  2512 2624 2625  353 2325 2360  353 354 2325  2325 2326 2361  2325 2360 2361  2327 2361 2362  2326 2327 2361  2327 2328 2363  2327 2362 2363  2328 2329 2364  2328 2363 2364  2329 2330 2365  2329 2364 2365  2331 2365 2366  2330 2331 2365  351 1968 2031  350 351 2031  1968 1969 2032  1968 2031 2032  1969 1970 2033  1969 2032 2033  1970 1971 2034  1970 2033 2034  1971 1972 2035  1971 2034 2035  1972 1973 2036  1972 2035 2036  1973 1974 2037  1973 2036 2037  354 2325 2619  354 355 2619  2325 2326 2620  2325 2619 2620  2327 2620 2621  2326 2327 2620  2328 2621 2622  2327 2328 2621  2329 2622 2623  2328 2329 2622  2330 2623 2624  2329 2330 2623  2331 2624 2625  2330 2331 2624  352 1968 1996  351 352 1968  1969 1996 1997  1968 1969 1996  1969 1970 1998  1969 1997 1998  1970 1971 1999  1970 1998 1999  1972 1999 2000  1971 1972 1999  1973 2000 2001  1972 1973 2000  1974 2001 2002  1973 1974 2001  690 5426 5433  689 690 5426  5427 5433 5434  5426 5427 5433  5428 5434 5435  5427 5428 5434  5429 5435 5436  5428 5429 5435  5430 5436 5437  5429 5430 5436  5430 5431 5438  5430 5437 5438  5432 5438 5439  5431 5432 5438  689 5419 5426  688 689 5419  5420 5426 5427  5419 5420 5426  5421 5427 5428  5420 5421 5427  5422 5428 5429  5421 5422 5428  5423 5429 5430  5422 5423 5429  5423 5424 5431  5423 5430 5431  5425 5431 5432  5424 5425 5431  361 2143 2563  361 362 2143  2143 2144 2564  2143 2563 2564  2144 2145 2565  2144 2564 2565  2145 2146 2566  2145 2565 2566  2147 2566 2567  2146 2147 2566  2148 2567 2568  2147 2148 2567  2149 2568 2569  2148 2149 2568  376 2192 2213  375 376 2192  2193 2213 2214  2192 2193 2213  2194 2214 2215  2193 2194 2214  2194 2195 2216  2194 2215 2216  2196 2216 2217  2195 2196 2216  2197 2217 2218  2196 2197 2217  2198 2218 2219  2197 2198 2218  364 2388 2738  364 365 2738  2388 2389 2739  2388 2738 2739  2389 2390 2740  2389 2739 2740  2390 2391 2741  2390 2740 2741  2392 2741 2742  2391 2392 2741  2393 2742 2743  2392 2393 2742  2394 2743 2744  2393 2394 2743  369 1954 2038  368 369 1954  1955 2038 2039  1954 1955 2038  1956 2039 2040  1955 1956 2039  1957 2040 2041  1956 1957 2040  1957 1958 2042  1957 2041 2042  1959 2042 2043  1958 1959 2042  1960 2043 2044  1959 1960 2043  364 2388 2682  363 364 2682  2388 2389 2683  2388 2682 2683  2389 2390 2684  2389 2683 2684  2390 2391 2685  2390 2684 2685  2392 2685 2686  2391 2392 2685  2392 2393 2687  2392 2686 2687  2394 2687 2688  2393 2394 2687  372 2122 2164  372 373 2122  2123 2164 2165  2122 2123 2164  2124 2165 2166  2123 2124 2165  2125 2166 2167  2124 2125 2166  2125 2126 2168  2125 2167 2168  2126 2127 2169  2126 2168 2169  2127 2128 2170  2127 2169 2170  365 2073 2738  365 366 2073  2073 2074 2739  2073 2738 2739  2075 2739 2740  2074 2075 2739  2076 2740 2741  2075 2076 2740  2076 2077 2742  2076 2741 2742  2078 2742 2743  2077 2078 2742  2079 2743 2744  2078 2079 2743  367 1954 2003  367 368 1954  1954 1955 2004  1954 2003 2004  1955 1956 2005  1955 2004 2005  1956 1957 2006  1956 2005 2006  1957 1958 2007  1957 2006 2007  1959 2007 2008  1958 1959 2007  1959 1960 2009  1959 2008 2009  370 2017 2038  369 370 2038  2018 2038 2039  2017 2018 2038  2019 2039 2040  2018 2019 2039  2019 2020 2041  2019 2040 2041  2020 2021 2042  2020 2041 2042  2022 2042 2043  2021 2022 2042  2023 2043 2044  2022 2023 2043  360 1961 2829  359 360 1961  1961 1962 2830  1961 2829 2830  1962 1963 2831  1962 2830 2831  1964 2831 2832  1963 1964 2831  1965 2832 2833  1964 1965 2832  1966 2833 2834  1965 1966 2833  1967 2834 2835  1966 1967 2834  372 2059 2164  371 372 2059  2060 2164 2165  2059 2060 2164  2061 2165 2166  2060 2061 2165  2062 2166 2167  2061 2062 2166  2063 2167 2168  2062 2063 2167  2064 2168 2169  2063 2064 2168  2065 2169 2170  2064 2065 2169  361 2563 2829  360 361 2829  2563 2564 2830  2563 2829 2830  2564 2565 2831  2564 2830 2831  2566 2831 2832  2565 2566 2831  2566 2567 2833  2566 2832 2833  2567 2568 2834  2567 2833 2834  2568 2569 2835  2568 2834 2835  366 2003 2073  366 367 2003  2003 2004 2074  2003 2073 2074  2005 2074 2075  2004 2005 2074  2005 2006 2076  2005 2075 2076  2006 2007 2077  2006 2076 2077  2007 2008 2078  2007 2077 2078  2008 2009 2079  2008 2078 2079  362 2143 2682  362 363 2682  2144 2682 2683  2143 2144 2682  2144 2145 2684  2144 2683 2684  2145 2146 2685  2145 2684 2685  2147 2685 2686  2146 2147 2685  2148 2686 2687  2147 2148 2686  2149 2687 2688  2148 2149 2687  375 2101 2192  374 375 2101  2101 2102 2193  2101 2192 2193  2103 2193 2194  2102 2103 2193  2103 2104 2195  2103 2194 2195  2105 2195 2196  2104 2105 2195  2106 2196 2197  2105 2106 2196  2107 2197 2198  2106 2107 2197  374 2101 2122  373 374 2122  2101 2102 2123  2101 2122 2123  2103 2123 2124  2102 2103 2123  2103 2104 2125  2103 2124 2125  2104 2105 2126  2104 2125 2126  2105 2106 2127  2105 2126 2127  2106 2107 2128  2106 2127 2128  371 2017 2059  370 371 2017  2018 2059 2060  2017 2018 2059  2019 2060 2061  2018 2019 2060  2020 2061 2062  2019 2020 2061  2021 2062 2063  2020 2021 2062  2022 2063 2064  2021 2022 2063  2023 2064 2065  2022 2023 2064  956 957 6798  956 6791 6798  6791 6798 6799  6791 6792 6799  6792 6799 6800  6792 6793 6800  6793 6800 6801  6793 6794 6801  6794 6801 6802  6794 6795 6802  6795 6802 6803  6795 6796 6803  6796 6803 6804  6796 6797 6804  152 1142 1149  151 152 1149  1142 1143 1150  1142 1149 1150  1143 1144 1151  1143 1150 1151  1144 1145 1152  1144 1151 1152  1145 1146 1153  1145 1152 1153  1146 1147 1154  1146 1153 1154  1147 1148 1155  1147 1154 1155  157 1156 1163  156 157 1156  1157 1163 1164  1156 1157 1163  1158 1164 1165  1157 1158 1164  1159 1165 1166  1158 1159 1165  1160 1166 1167  1159 1160 1166  1161 1167 1168  1160 1161 1167  1162 1168 1169  1161 1162 1168  159 1170 1177  158 159 1170  1171 1177 1178  1170 1171 1177  1172 1178 1179  1171 1172 1178  1173 1179 1180  1172 1173 1179  1174 1180 1181  1173 1174 1180  1175 1181 1182  1174 1175 1181  1176 1182 1183  1175 1176 1182  958 959 6812  958 6805 6812  6805 6812 6813  6805 6806 6813  6806 6813 6814  6806 6807 6814  6807 6814 6815  6807 6808 6815  6808 6815 6816  6808 6809 6816  6809 6816 6817  6809 6810 6817  6810 6817 6818  6810 6811 6818  957 958 6805  957 6798 6805  6798 6805 6806  6798 6799 6806  6799 6806 6807  6799 6800 6807  6800 6807 6808  6800 6801 6808  6801 6808 6809  6801 6802 6809  6802 6809 6810  6802 6803 6810  6803 6810 6811  6803 6804 6811  153 1128 1142  152 153 1142  1128 1129 1143  1128 1142 1143  1129 1130 1144  1129 1143 1144  1131 1144 1145  1130 1131 1144  1131 1132 1146  1131 1145 1146  1132 1133 1147  1132 1146 1147  1133 1134 1148  1133 1147 1148  156 1121 1156  155 156 1121  1122 1156 1157  1121 1122 1156  1123 1157 1158  1122 1123 1157  1124 1158 1159  1123 1124 1158  1125 1159 1160  1124 1125 1159  1126 1160 1161  1125 1126 1160  1127 1161 1162  1126 1127 1161  1 959 960  959 960 6812  960 961 6812  961 6812 6813  961 962 6813  962 6813 6814  962 963 6814  963 6814 6815  963 964 6815  964 6815 6816  964 965 6816  965 6816 6817  965 966 6817  966 6817 6818  954 955 6784  954 6777 6784  6777 6784 6785  6777 6778 6785  6778 6785 6786  6778 6779 6786  6779 6786 6787  6779 6780 6787  6780 6787 6788  6780 6781 6788  6781 6788 6789  6781 6782 6789  6782 6789 6790  6782 6783 6790  158 1163 1170  157 158 1163  1164 1170 1171  1163 1164 1170  1165 1171 1172  1164 1165 1171  1165 1166 1173  1165 1172 1173  1167 1173 1174  1166 1167 1173  1168 1174 1175  1167 1168 1174  1169 1175 1176  1168 1169 1175  953 954 6777  953 6770 6777  6770 6777 6778  6770 6771 6778  6771 6778 6779  6771 6772 6779  6772 6779 6780  6772 6773 6780  6773 6780 6781  6773 6774 6781  6774 6781 6782  6774 6775 6782  6775 6782 6783  6775 6776 6783  154 1128 1135  153 154 1128  1129 1135 1136  1128 1129 1135  1130 1136 1137  1129 1130 1136  1131 1137 1138  1130 1131 1137  1131 1132 1139  1131 1138 1139  1132 1133 1140  1132 1139 1140  1133 1134 1141  1133 1140 1141  155 1121 1135  154 155 1135  1121 1122 1136  1121 1135 1136  1122 1123 1137  1122 1136 1137  1123 1124 1138  1123 1137 1138  1124 1125 1139  1124 1138 1139  1125 1126 1140  1125 1139 1140  1126 1127 1141  1126 1140 1141  952 953 6770  952 6763 6770  6763 6770 6771  6763 6764 6771  6764 6771 6772  6764 6765 6772  6765 6772 6773  6765 6766 6773  6766 6773 6774  6766 6767 6774  6767 6774 6775  6767 6768 6775  6768 6775 6776  6768 6769 6776  955 956 6791  955 6784 6791  6784 6791 6792  6784 6785 6792  6785 6792 6793  6785 6786 6793  6786 6793 6794  6786 6787 6794  6787 6794 6795  6787 6788 6795  6788 6795 6796  6788 6789 6796  6789 6796 6797  6789 6790 6797  151 967 1149  2 151 967  968 1149 1150  967 968 1149  969 1150 1151  968 969 1150  970 1151 1152  969 970 1151  971 1152 1153  970 971 1152  972 1153 1154  971 972 1153  973 1154 1155  972 973 1154  175 1282 1289  174 175 1282  1283 1289 1290  1282 1283 1289  1283 1284 1291  1283 1290 1291  1285 1291 1292  1284 1285 1291  1285 1286 1293  1285 1292 1293  1286 1287 1294  1286 1293 1294  1287 1288 1295  1287 1294 1295  172 1261 1268  171 172 1261  1262 1268 1269  1261 1262 1268  1263 1269 1270  1262 1263 1269  1263 1264 1271  1263 1270 1271  1265 1271 1272  1264 1265 1271  1266 1272 1273  1265 1266 1272  1267 1273 1274  1266 1267 1273  163 1198 1205  162 163 1198  1199 1205 1206  1198 1199 1205  1200 1206 1207  1199 1200 1206  1201 1207 1208  1200 1201 1207  1202 1208 1209  1201 1202 1208  1203 1209 1210  1202 1203 1209  1204 1210 1211  1203 1204 1210  161 1184 1191  160 161 1184  1185 1191 1192  1184 1185 1191  1185 1186 1193  1185 1192 1193  1187 1193 1194  1186 1187 1193  1187 1188 1195  1187 1194 1195  1188 1189 1196  1188 1195 1196  1189 1190 1197  1189 1196 1197  168 1233 1240  167 168 1233  1234 1240 1241  1233 1234 1240  1235 1241 1242  1234 1235 1241  1236 1242 1243  1235 1236 1242  1237 1243 1244  1236 1237 1243  1238 1244 1245  1237 1238 1244  1239 1245 1246  1238 1239 1245  171 1254 1261  170 171 1254  1255 1261 1262  1254 1255 1261  1255 1256 1263  1255 1262 1263  1257 1263 1264  1256 1257 1263  1258 1264 1265  1257 1258 1264  1259 1265 1266  1258 1259 1265  1259 1260 1267  1259 1266 1267  166 1219 1226  165 166 1219  1220 1226 1227  1219 1220 1226  1221 1227 1228  1220 1221 1227  1222 1228 1229  1221 1222 1228  1223 1229 1230  1222 1223 1229  1224 1230 1231  1223 1224 1230  1225 1231 1232  1224 1225 1231  165 1212 1219  164 165 1212  1213 1219 1220  1212 1213 1219  1214 1220 1221  1213 1214 1220  1215 1221 1222  1214 1215 1221  1215 1216 1223  1215 1222 1223  1216 1217 1224  1216 1223 1224  1217 1218 1225  1217 1224 1225  170 1247 1254  169 170 1247  1248 1254 1255  1247 1248 1254  1249 1255 1256  1248 1249 1255  1250 1256 1257  1249 1250 1256  1251 1257 1258  1250 1251 1257  1252 1258 1259  1251 1252 1258  1253 1259 1260  1252 1253 1259  174 1275 1282  173 174 1275  1276 1282 1283  1275 1276 1282  1277 1283 1284  1276 1277 1283  1278 1284 1285  1277 1278 1284  1279 1285 1286  1278 1279 1285  1280 1286 1287  1279 1280 1286  1281 1287 1288  1280 1281 1287  173 1268 1275  172 173 1268  1269 1275 1276  1268 1269 1275  1270 1276 1277  1269 1270 1276  1271 1277 1278  1270 1271 1277  1272 1278 1279  1271 1272 1278  1273 1279 1280  1272 1273 1279  1274 1280 1281  1273 1274 1280  169 1240 1247  168 169 1240  1241 1247 1248  1240 1241 1247  1242 1248 1249  1241 1242 1248  1243 1249 1250  1242 1243 1249  1243 1244 1251  1243 1250 1251  1244 1245 1252  1244 1251 1252  1245 1246 1253  1245 1252 1253  176 1289 1296  175 176 1289  1290 1296 1297  1289 1290 1296  1291 1297 1298  1290 1291 1297  1292 1298 1299  1291 1292 1298  1293 1299 1300  1292 1293 1299  1294 1300 1301  1293 1294 1300  1295 1301 1302  1294 1295 1301  167 1226 1233  166 167 1226  1227 1233 1234  1226 1227 1233  1228 1234 1235  1227 1228 1234  1228 1229 1236  1228 1235 1236  1230 1236 1237  1229 1230 1236  1231 1237 1238  1230 1231 1237  1231 1232 1239  1231 1238 1239  164 1205 1212  163 164 1205  1206 1212 1213  1205 1206 1212  1207 1213 1214  1206 1207 1213  1208 1214 1215  1207 1208 1214  1209 1215 1216  1208 1209 1215  1210 1216 1217  1209 1210 1216  1211 1217 1218  1210 1211 1217  162 1191 1198  161 162 1191  1192 1198 1199  1191 1192 1198  1193 1199 1200  1192 1193 1199  1194 1200 1201  1193 1194 1200  1195 1201 1202  1194 1195 1201  1196 1202 1203  1195 1196 1202  1197 1203 1204  1196 1197 1203  160 1177 1184  159 160 1177  1178 1184 1185  1177 1178 1184  1179 1185 1186  1178 1179 1185  1180 1186 1187  1179 1180 1186  1181 1187 1188  1180 1181 1187  1182 1188 1189  1181 1182 1188  1183 1189 1190  1182 1183 1189  188 1373 1380  187 188 1373  1374 1380 1381  1373 1374 1380  1375 1381 1382  1374 1375 1381  1376 1382 1383  1375 1376 1382  1377 1383 1384  1376 1377 1383  1378 1384 1385  1377 1378 1384  1379 1385 1386  1378 1379 1385  184 1345 1352  183 184 1345  1346 1352 1353  1345 1346 1352  1347 1353 1354  1346 1347 1353  1348 1354 1355  1347 1348 1354  1349 1355 1356  1348 1349 1355  1350 1356 1357  1349 1350 1356  1351 1357 1358  1350 1351 1357  186 1359 1366  185 186 1359  1360 1366 1367  1359 1360 1366  1361 1367 1368  1360 1361 1367  1362 1368 1369  1361 1362 1368  1363 1369 1370  1362 1363 1369  1364 1370 1371  1363 1364 1370  1365 1371 1372  1364 1365 1371  185 1352 1359  184 185 1352  1353 1359 1360  1352 1353 1359  1353 1354 1361  1353 1360 1361  1355 1361 1362  1354 1355 1361  1355 1356 1363  1355 1362 1363  1356 1357 1364  1356 1363 1364  1357 1358 1365  1357 1364 1365  178 1303 1310  177 178 1303  1304 1310 1311  1303 1304 1310  1305 1311 1312  1304 1305 1311  1306 1312 1313  1305 1306 1312  1307 1313 1314  1306 1307 1313  1308 1314 1315  1307 1308 1314  1309 1315 1316  1308 1309 1315  181 1324 1331  180 181 1324  1325 1331 1332  1324 1325 1331  1326 1332 1333  1325 1326 1332  1327 1333 1334  1326 1327 1333  1327 1328 1335  1327 1334 1335  1328 1329 1336  1328 1335 1336  1329 1330 1337  1329 1336 1337  187 1366 1373  186 187 1366  1367 1373 1374  1366 1367 1373  1368 1374 1375  1367 1368 1374  1369 1375 1376  1368 1369 1375  1370 1376 1377  1369 1370 1376  1371 1377 1378  1370 1371 1377  1372 1378 1379  1371 1372 1378  182 1331 1338  181 182 1331  1332 1338 1339  1331 1332 1338  1333 1339 1340  1332 1333 1339  1333 1334 1341  1333 1340 1341  1335 1341 1342  1334 1335 1341  1336 1342 1343  1335 1336 1342  1336 1337 1344  1336 1343 1344  180 1317 1324  179 180 1317  1318 1324 1325  1317 1318 1324  1319 1325 1326  1318 1319 1325  1320 1326 1327  1319 1320 1326  1321 1327 1328  1320 1321 1327  1322 1328 1329  1321 1322 1328  1323 1329 1330  1322 1323 1329  177 1296 1303  176 177 1296  1297 1303 1304  1296 1297 1303  1298 1304 1305  1297 1298 1304  1298 1299 1306  1298 1305 1306  1300 1306 1307  1299 1300 1306  1301 1307 1308  1300 1301 1307  1302 1308 1309  1301 1302 1308  183 1338 1345  182 183 1338  1339 1345 1346  1338 1339 1345  1340 1346 1347  1339 1340 1346  1341 1347 1348  1340 1341 1347  1342 1348 1349  1341 1342 1348  1343 1349 1350  1342 1343 1349  1344 1350 1351  1343 1344 1350  189 1380 1387  188 189 1380  1381 1387 1388  1380 1381 1387  1382 1388 1389  1381 1382 1388  1383 1389 1390  1382 1383 1389  1384 1390 1391  1383 1384 1390  1385 1391 1392  1384 1385 1391  1386 1392 1393  1385 1386 1392  179 1310 1317  178 179 1310  1311 1317 1318  1310 1311 1317  1312 1318 1319  1311 1312 1318  1313 1319 1320  1312 1313 1319  1314 1320 1321  1313 1314 1320  1315 1321 1322  1314 1315 1321  1316 1322 1323  1315 1316 1322  190 1387 1394  189 190 1387  1388 1394 1395  1387 1388 1394  1389 1395 1396  1388 1389 1395  1389 1390 1397  1389 1396 1397  1391 1397 1398  1390 1391 1397  1392 1398 1399  1391 1392 1398  1392 1393 1400  1392 1399 1400  331 2500 2521  331 332 2500  2500 2501 2522  2500 2521 2522  2501 2502 2523  2501 2522 2523  2502 2503 2524  2502 2523 2524  2503 2504 2525  2503 2524 2525  2504 2505 2526  2504 2525 2526  2505 2506 2527  2505 2526 2527  330 2486 2521  330 331 2521  2486 2487 2522  2486 2521 2522  2488 2522 2523  2487 2488 2522  2488 2489 2524  2488 2523 2524  2489 2490 2525  2489 2524 2525  2490 2491 2526  2490 2525 2526  2491 2492 2527  2491 2526 2527  334 2332 2423  334 335 2332  2332 2333 2424  2332 2423 2424  2333 2334 2425  2333 2424 2425  2334 2335 2426  2334 2425 2426  2335 2336 2427  2335 2426 2427  2336 2337 2428  2336 2427 2428  2337 2338 2429  2337 2428 2429  328 2409 2577  328 329 2409  2409 2410 2578  2409 2577 2578  2410 2411 2579  2410 2578 2579  2411 2412 2580  2411 2579 2580  2413 2580 2581  2412 2413 2580  2413 2414 2582  2413 2581 2582  2414 2415 2583  2414 2582 2583  326 2647 2675  325 326 2675  2647 2648 2676  2647 2675 2676  2648 2649 2677  2648 2676 2677  2650 2677 2678  2649 2650 2677  2650 2651 2679  2650 2678 2679  2651 2652 2680  2651 2679 2680  2653 2680 2681  2652 2653 2680  333 2437 2500  332 333 2500  2437 2438 2501  2437 2500 2501  2439 2501 2502  2438 2439 2501  2440 2502 2503  2439 2440 2502  2440 2441 2504  2440 2503 2504  2441 2442 2505  2441 2504 2505  2443 2505 2506  2442 2443 2505  329 2409 2486  329 330 2486  2410 2486 2487  2409 2410 2486  2411 2487 2488  2410 2411 2487  2412 2488 2489  2411 2412 2488  2413 2489 2490  2412 2413 2489  2414 2490 2491  2413 2414 2490  2415 2491 2492  2414 2415 2491  334 2423 2437  333 334 2437  2423 2424 2438  2423 2437 2438  2424 2425 2439  2424 2438 2439  2425 2426 2440  2425 2439 2440  2426 2427 2441  2426 2440 2441  2427 2428 2442  2427 2441 2442  2429 2442 2443  2428 2429 2442  327 2612 2647  326 327 2647  2613 2647 2648  2612 2613 2647  2613 2614 2649  2613 2648 2649  2615 2649 2650  2614 2615 2649  2615 2616 2651  2615 2650 2651  2616 2617 2652  2616 2651 2652  2617 2618 2653  2617 2652 2653  328 2577 2612  327 328 2612  2578 2612 2613  2577 2578 2612  2578 2579 2614  2578 2613 2614  2579 2580 2615  2579 2614 2615  2580 2581 2616  2580 2615 2616  2582 2616 2617  2581 2582 2616  2582 2583 2618  2582 2617 2618  325 2633 2675  324 325 2633  2634 2675 2676  2633 2634 2675  2635 2676 2677  2634 2635 2676  2636 2677 2678  2635 2636 2677  2637 2678 2679  2636 2637 2678  2637 2638 2680  2637 2679 2680  2639 2680 2681  2638 2639 2680  855 4747 4754  854 855 4747  4748 4754 4755  4747 4748 4754  4749 4755 4756  4748 4749 4755  4750 4756 4757  4749 4750 4756  4751 4757 4758  4750 4751 4757  4752 4758 4759  4751 4752 4758  4753 4759 4760  4752 4753 4759  849 4705 4712  848 849 4705  4706 4712 4713  4705 4706 4712  4706 4707 4714  4706 4713 4714  4708 4714 4715  4707 4708 4714  4709 4715 4716  4708 4709 4715  4710 4716 4717  4709 4710 4716  4711 4717 4718  4710 4711 4717  853 4733 4740  852 853 4733  4734 4740 4741  4733 4734 4740  4734 4735 4742  4734 4741 4742  4736 4742 4743  4735 4736 4742  4737 4743 4744  4736 4737 4743  4738 4744 4745  4737 4738 4744  4739 4745 4746  4738 4739 4745  849 4712 4719  849 850 4719  4713 4719 4720  4712 4713 4719  4714 4720 4721  4713 4714 4720  4714 4715 4722  4714 4721 4722  4716 4722 4723  4715 4716 4722  4717 4723 4724  4716 4717 4723  4718 4724 4725  4717 4718 4724  857 4761 4768  856 857 4761  4762 4768 4769  4761 4762 4768  4763 4769 4770  4762 4763 4769  4764 4770 4771  4763 4764 4770  4765 4771 4772  4764 4765 4771  4766 4772 4773  4765 4766 4772  4767 4773 4774  4766 4767 4773  852 4726 4733  851 852 4726  4727 4733 4734  4726 4727 4733  4728 4734 4735  4727 4728 4734  4729 4735 4736  4728 4729 4735  4730 4736 4737  4729 4730 4736  4731 4737 4738  4730 4731 4737  4732 4738 4739  4731 4732 4738  856 4754 4761  855 856 4754  4755 4761 4762  4754 4755 4761  4756 4762 4763  4755 4756 4762  4757 4763 4764  4756 4757 4763  4758 4764 4765  4757 4758 4764  4759 4765 4766  4758 4759 4765  4760 4766 4767  4759 4760 4766  847 4691 4698  846 847 4691  4692 4698 4699  4691 4692 4698  4692 4693 4700  4692 4699 4700  4694 4700 4701  4693 4694 4700  4695 4701 4702  4694 4695 4701  4696 4702 4703  4695 4696 4702  4697 4703 4704  4696 4697 4703  846 4684 4691  845 846 4684  4685 4691 4692  4684 4685 4691  4686 4692 4693  4685 4686 4692  4687 4693 4694  4686 4687 4693  4688 4694 4695  4687 4688 4694  4689 4695 4696  4688 4689 4695  4690 4696 4697  4689 4690 4696  850 4719 4726  850 851 4726  4720 4726 4727  4719 4720 4726  4721 4727 4728  4720 4721 4727  4722 4728 4729  4721 4722 4728  4723 4729 4730  4722 4723 4729  4723 4724 4731  4723 4730 4731  4725 4731 4732  4724 4725 4731  848 4698 4705  847 848 4698  4699 4705 4706  4698 4699 4705  4700 4706 4707  4699 4700 4706  4701 4707 4708  4700 4701 4707  4702 4708 4709  4701 4702 4708  4703 4709 4710  4702 4703 4709  4704 4710 4711  4703 4704 4710  854 4740 4747  853 854 4740  4741 4747 4748  4740 4741 4747  4742 4748 4749  4741 4742 4748  4742 4743 4750  4742 4749 4750  4744 4750 4751  4743 4744 4750  4744 4745 4752  4744 4751 4752  4746 4752 4753  4745 4746 4752  838 4628 4635  837 838 4628  4629 4635 4636  4628 4629 4635  4629 4630 4637  4629 4636 4637  4631 4637 4638  4630 4631 4637  4632 4638 4639  4631 4632 4638  4633 4639 4640  4632 4633 4639  4634 4640 4641  4633 4634 4640  840 4642 4649  839 840 4642  4643 4649 4650  4642 4643 4649  4643 4644 4651  4643 4650 4651  4645 4651 4652  4644 4645 4651  4646 4652 4653  4645 4646 4652  4647 4653 4654  4646 4647 4653  4648 4654 4655  4647 4648 4654  835 4607 4614  834 835 4607  4608 4614 4615  4607 4608 4614  4608 4609 4616  4608 4615 4616  4610 4616 4617  4609 4610 4616  4611 4617 4618  4610 4611 4617  4612 4618 4619  4611 4612 4618  4613 4619 4620  4612 4613 4619  842 4663 4670  842 843 4670  4664 4670 4671  4663 4664 4670  4664 4665 4672  4664 4671 4672  4666 4672 4673  4665 4666 4672  4667 4673 4674  4666 4667 4673  4668 4674 4675  4667 4668 4674  4669 4675 4676  4668 4669 4675  839 4635 4642  838 839 4635  4636 4642 4643  4635 4636 4642  4637 4643 4644  4636 4637 4643  4638 4644 4645  4637 4638 4644  4639 4645 4646  4638 4639 4645  4640 4646 4647  4639 4640 4646  4641 4647 4648  4640 4641 4647  841 4649 4656  840 841 4649  4650 4656 4657  4649 4650 4656  4651 4657 4658  4650 4651 4657  4652 4658 4659  4651 4652 4658  4653 4659 4660  4652 4653 4659  4654 4660 4661  4653 4654 4660  4655 4661 4662  4654 4655 4661  842 4656 4663  841 842 4656  4657 4663 4664  4656 4657 4663  4658 4664 4665  4657 4658 4664  4659 4665 4666  4658 4659 4665  4660 4666 4667  4659 4660 4666  4661 4667 4668  4660 4661 4667  4662 4668 4669  4661 4662 4668  845 4677 4684  844 845 4677  4678 4684 4685  4677 4678 4684  4679 4685 4686  4678 4679 4685  4680 4686 4687  4679 4680 4686  4681 4687 4688  4680 4681 4687  4682 4688 4689  4681 4682 4688  4683 4689 4690  4682 4683 4689  837 4621 4628  836 837 4621  4622 4628 4629  4621 4622 4628  4623 4629 4630  4622 4623 4629  4623 4624 4631  4623 4630 4631  4625 4631 4632  4624 4625 4631  4626 4632 4633  4625 4626 4632  4627 4633 4634  4626 4627 4633  834 4600 4607  833 834 4600  4601 4607 4608  4600 4601 4607  4602 4608 4609  4601 4602 4608  4603 4609 4610  4602 4603 4609  4604 4610 4611  4603 4604 4610  4605 4611 4612  4604 4605 4611  4606 4612 4613  4605 4606 4612  836 4614 4621  835 836 4614  4615 4621 4622  4614 4615 4621  4616 4622 4623  4615 4616 4622  4616 4617 4624  4616 4623 4624  4617 4618 4625  4617 4624 4625  4619 4625 4626  4618 4619 4625  4620 4626 4627  4619 4620 4626  844 4670 4677  843 844 4670  4671 4677 4678  4670 4671 4677  4672 4678 4679  4671 4672 4678  4673 4679 4680  4672 4673 4679  4674 4680 4681  4673 4674 4680  4675 4681 4682  4674 4675 4681  4676 4682 4683  4675 4676 4682  823 4523 4530  822 823 4523  4524 4530 4531  4523 4524 4530  4525 4531 4532  4524 4525 4531  4526 4532 4533  4525 4526 4532  4527 4533 4534  4526 4527 4533  4528 4534 4535  4527 4528 4534  4528 4529 4536  4528 4535 4536  822 4516 4523  821 822 4516  4517 4523 4524  4516 4517 4523  4517 4518 4525  4517 4524 4525  4519 4525 4526  4518 4519 4525  4520 4526 4527  4519 4520 4526  4521 4527 4528  4520 4521 4527  4522 4528 4529  4521 4522 4528  833 4593 4600  832 833 4593  4594 4600 4601  4593 4594 4600  4594 4595 4602  4594 4601 4602  4596 4602 4603  4595 4596 4602  4597 4603 4604  4596 4597 4603  4598 4604 4605  4597 4598 4604  4599 4605 4606  4598 4599 4605  832 4586 4593  831 832 4586  4587 4593 4594  4586 4587 4593  4588 4594 4595  4587 4588 4594  4589 4595 4596  4588 4589 4595  4590 4596 4597  4589 4590 4596  4591 4597 4598  4590 4591 4597  4592 4598 4599  4591 4592 4598  831 4579 4586  830 831 4579  4580 4586 4587  4579 4580 4586  4581 4587 4588  4580 4581 4587  4582 4588 4589  4581 4582 4588  4583 4589 4590  4582 4583 4589  4584 4590 4591  4583 4584 4590  4585 4591 4592  4584 4585 4591  826 4544 4551  825 826 4544  4545 4551 4552  4544 4545 4551  4545 4546 4553  4545 4552 4553  4547 4553 4554  4546 4547 4553  4548 4554 4555  4547 4548 4554  4549 4555 4556  4548 4549 4555  4550 4556 4557  4549 4550 4556  824 4530 4537  823 824 4530  4531 4537 4538  4530 4531 4537  4531 4532 4539  4531 4538 4539  4533 4539 4540  4532 4533 4539  4534 4540 4541  4533 4534 4540  4535 4541 4542  4534 4535 4541  4536 4542 4543  4535 4536 4542  830 4572 4579  829 830 4572  4573 4579 4580  4572 4573 4579  4574 4580 4581  4573 4574 4580  4575 4581 4582  4574 4575 4581  4576 4582 4583  4575 4576 4582  4576 4577 4584  4576 4583 4584  4577 4578 4585  4577 4584 4585  829 4565 4572  828 829 4565  4566 4572 4573  4565 4566 4572  4566 4567 4574  4566 4573 4574  4568 4574 4575  4567 4568 4574  4569 4575 4576  4568 4569 4575  4570 4576 4577  4569 4570 4576  4571 4577 4578  4570 4571 4577  828 4558 4565  827 828 4558  4559 4565 4566  4558 4559 4565  4560 4566 4567  4559 4560 4566  4561 4567 4568  4560 4561 4567  4562 4568 4569  4561 4562 4568  4563 4569 4570  4562 4563 4569  4564 4570 4571  4563 4564 4570  825 4537 4544  824 825 4537  4538 4544 4545  4537 4538 4544  4539 4545 4546  4538 4539 4545  4540 4546 4547  4539 4540 4546  4541 4547 4548  4540 4541 4547  4542 4548 4549  4541 4542 4548  4543 4549 4550  4542 4543 4549  827 4551 4558  826 827 4551  4552 4558 4559  4551 4552 4558  4553 4559 4560  4552 4553 4559  4554 4560 4561  4553 4554 4560  4555 4561 4562  4554 4555 4561  4556 4562 4563  4555 4556 4562  4557 4563 4564  4556 4557 4563  813 4453 4460  812 813 4453  4454 4460 4461  4453 4454 4460  4455 4461 4462  4454 4455 4461  4456 4462 4463  4455 4456 4462  4457 4463 4464  4456 4457 4463  4458 4464 4465  4457 4458 4464  4459 4465 4466  4458 4459 4465  815 4467 4474  814 815 4467  4468 4474 4475  4467 4468 4474  4468 4469 4476  4468 4475 4476  4470 4476 4477  4469 4470 4476  4471 4477 4478  4470 4471 4477  4472 4478 4479  4471 4472 4478  4473 4479 4480  4472 4473 4479  807 4418 4425  807 808 4425  4418 4419 4426  4418 4425 4426  4420 4426 4427  4419 4420 4426  4421 4427 4428  4420 4421 4427  4422 4428 4429  4421 4422 4428  4423 4429 4430  4422 4423 4429  4424 4430 4431  4423 4424 4430  810 4432 4439  809 810 4432  4433 4439 4440  4432 4433 4439  4433 4434 4441  4433 4440 4441  4435 4441 4442  4434 4435 4441  4436 4442 4443  4435 4436 4442  4437 4443 4444  4436 4437 4443  4438 4444 4445  4437 4438 4444  818 4488 4495  817 818 4488  4489 4495 4496  4488 4489 4495  4490 4496 4497  4489 4490 4496  4491 4497 4498  4490 4491 4497  4492 4498 4499  4491 4492 4498  4493 4499 4500  4492 4493 4499  4494 4500 4501  4493 4494 4500  809 4425 4432  808 809 4425  4426 4432 4433  4425 4426 4432  4427 4433 4434  4426 4427 4433  4428 4434 4435  4427 4428 4434  4429 4435 4436  4428 4429 4435  4430 4436 4437  4429 4430 4436  4431 4437 4438  4430 4431 4437  819 4495 4502  818 819 4495  4496 4502 4503  4495 4496 4502  4496 4497 4504  4496 4503 4504  4498 4504 4505  4497 4498 4504  4499 4505 4506  4498 4499 4505  4500 4506 4507  4499 4500 4506  4501 4507 4508  4500 4501 4507  817 4481 4488  816 817 4481  4482 4488 4489  4481 4482 4488  4483 4489 4490  4482 4483 4489  4484 4490 4491  4483 4484 4490  4485 4491 4492  4484 4485 4491  4486 4492 4493  4485 4486 4492  4487 4493 4494  4486 4487 4493  820 4502 4509  819 820 4502  4503 4509 4510  4502 4503 4509  4504 4510 4511  4503 4504 4510  4504 4505 4512  4504 4511 4512  4506 4512 4513  4505 4506 4512  4506 4507 4514  4506 4513 4514  4508 4514 4515  4507 4508 4514  812 4446 4453  811 812 4446  4447 4453 4454  4446 4447 4453  4448 4454 4455  4447 4448 4454  4449 4455 4456  4448 4449 4455  4450 4456 4457  4449 4450 4456  4451 4457 4458  4450 4451 4457  4452 4458 4459  4451 4452 4458  811 4439 4446  810 811 4439  4440 4446 4447  4439 4440 4446  4441 4447 4448  4440 4441 4447  4442 4448 4449  4441 4442 4448  4443 4449 4450  4442 4443 4449  4444 4450 4451  4443 4444 4450  4445 4451 4452  4444 4445 4451  814 4460 4467  813 814 4460  4461 4467 4468  4460 4461 4467  4462 4468 4469  4461 4462 4468  4463 4469 4470  4462 4463 4469  4464 4470 4471  4463 4464 4470  4465 4471 4472  4464 4465 4471  4466 4472 4473  4465 4466 4472  816 4474 4481  815 816 4474  4475 4481 4482  4474 4475 4481  4476 4482 4483  4475 4476 4482  4477 4483 4484  4476 4477 4483  4478 4484 4485  4477 4478 4484  4479 4485 4486  4478 4479 4485  4480 4486 4487  4479 4480 4486  821 4509 4516  820 821 4509  4510 4516 4517  4509 4510 4516  4511 4517 4518  4510 4511 4517  4512 4518 4519  4511 4512 4518  4512 4513 4520  4512 4519 4520  4513 4514 4521  4513 4520 4521  4515 4521 4522  4514 4515 4521  858 4768 4775  857 858 4768  4769 4775 4776  4768 4769 4775  4770 4776 4777  4769 4770 4776  4771 4777 4778  4770 4771 4777  4772 4778 4779  4771 4772 4778  4773 4779 4780  4772 4773 4779  4774 4780 4781  4773 4774 4780  5 859 4775  5 858 4775  859 860 4776  859 4775 4776  860 861 4777  860 4776 4777  861 862 4778  861 4777 4778  862 863 4779  862 4778 4779  863 864 4780  863 4779 4780  864 865 4781  864 4780 4781  83 3305 3354  82 83 3354  3305 3306 3355  3305 3354 3355  3306 3307 3356  3306 3355 3356  3307 3308 3357  3307 3356 3357  3308 3309 3358  3308 3357 3358  3309 3310 3359  3309 3358 3359  3310 3311 3360  3310 3359 3360  81 3256 3354  81 82 3354  3257 3354 3355  3256 3257 3354  3258 3355 3356  3257 3258 3355  3259 3356 3357  3258 3259 3356  3260 3357 3358  3259 3260 3357  3261 3358 3359  3260 3261 3358  3261 3262 3360  3261 3359 3360  24 3963 4061  23 24 4061  3963 3964 4062  3963 4061 4062  3964 3965 4063  3964 4062 4063  3965 3966 4064  3965 4063 4064  3966 3967 4065  3966 4064 4065  3967 3968 4066  3967 4065 4066  3969 4066 4067  3968 3969 4066  76 3956 4068  75 76 4068  3956 3957 4069  3956 4068 4069  3957 3958 4070  3957 4069 4070  3958 3959 4071  3958 4070 4071  3959 3960 4072  3959 4071 4072  3960 3961 4073  3960 4072 4073  3961 3962 4074  3961 4073 4074  27 3088 3326  26 27 3326  3088 3089 3327  3088 3326 3327  3089 3090 3328  3089 3327 3328  3090 3091 3329  3090 3328 3329  3091 3092 3330  3091 3329 3330  3092 3093 3331  3092 3330 3331  3093 3094 3332  3093 3331 3332  78 3683 3795  77 78 3683  3684 3795 3796  3683 3684 3795  3684 3685 3797  3684 3796 3797  3686 3797 3798  3685 3686 3797  3687 3798 3799  3686 3687 3798  3688 3799 3800  3687 3688 3799  3689 3800 3801  3688 3689 3800  79 3634 3795  78 79 3795  3634 3635 3796  3634 3795 3796  3636 3796 3797  3635 3636 3796  3636 3637 3798  3636 3797 3798  3637 3638 3799  3637 3798 3799  3638 3639 3800  3638 3799 3800  3639 3640 3801  3639 3800 3801  80 3522 3634  79 80 3634  3522 3523 3635  3522 3634 3635  3524 3635 3636  3523 3524 3635  3524 3525 3637  3524 3636 3637  3525 3526 3638  3525 3637 3638  3526 3527 3639  3526 3638 3639  3527 3528 3640  3527 3639 3640  81 3256 3522  80 81 3522  3256 3257 3523  3256 3522 3523  3257 3258 3524  3257 3523 3524  3258 3259 3525  3258 3524 3525  3259 3260 3526  3259 3525 3526  3260 3261 3527  3260 3526 3527  3261 3262 3528  3261 3527 3528  26 3326 3452  25 26 3452  3326 3327 3453  3326 3452 3453  3327 3328 3454  3327 3453 3454  3328 3329 3455  3328 3454 3455  3329 3330 3456  3329 3455 3456  3330 3331 3457  3330 3456 3457  3331 3332 3458  3331 3457 3458  77 3683 3956  76 77 3956  3683 3684 3957  3683 3956 3957  3685 3957 3958  3684 3685 3957  3685 3686 3959  3685 3958 3959  3686 3687 3960  3686 3959 3960  3687 3688 3961  3687 3960 3961  3688 3689 3962  3688 3961 3962  87 4103 4110  86 87 4110  4103 4104 4111  4103 4110 4111  4105 4111 4112  4104 4105 4111  4105 4106 4113  4105 4112 4113  4106 4107 4114  4106 4113 4114  4107 4108 4115  4107 4114 4115  4108 4109 4116  4108 4115 4116  23 3221 4061  22 23 3221  3222 4061 4062  3221 3222 4061  3223 4062 4063  3222 3223 4062  3224 4063 4064  3223 3224 4063  3225 4064 4065  3224 3225 4064  3226 4065 4066  3225 3226 4065  3227 4066 4067  3226 3227 4066  85 2983 3095  84 85 3095  2983 2984 3096  2983 3095 3096  2984 2985 3097  2984 3096 3097  2985 2986 3098  2985 3097 3098  2986 2987 3099  2986 3098 3099  2987 2988 3100  2987 3099 3100  2988 2989 3101  2988 3100 3101  84 3095 3305  83 84 3305  3096 3305 3306  3095 3096 3305  3096 3097 3307  3096 3306 3307  3097 3098 3308  3097 3307 3308  3098 3099 3309  3098 3308 3309  3099 3100 3310  3099 3309 3310  3100 3101 3311  3100 3310 3311  25 3452 3963  24 25 3963  3452 3453 3964  3452 3963 3964  3453 3454 3965  3453 3964 3965  3454 3455 3966  3454 3965 3966  3455 3456 3967  3455 3966 3967  3456 3457 3968  3456 3967 3968  3457 3458 3969  3457 3968 3969  86 2983 4110  85 86 2983  2983 2984 4111  2983 4110 4111  2984 2985 4112  2984 4111 4112  2986 4112 4113  2985 2986 4112  2987 4113 4114  2986 2987 4113  2988 4114 4115  2987 2988 4114  2989 4115 4116  2988 2989 4115  99 3942 3949  98 99 3949  3942 3943 3950  3942 3949 3950  3944 3950 3951  3943 3944 3950  3944 3945 3952  3944 3951 3952  3945 3946 3953  3945 3952 3953  3946 3947 3954  3946 3953 3954  3948 3954 3955  3947 3948 3954  90 4054 4082  89 90 4082  4054 4055 4083  4054 4082 4083  4056 4083 4084  4055 4056 4083  4056 4057 4085  4056 4084 4085  4057 4058 4086  4057 4085 4086  4058 4059 4087  4058 4086 4087  4059 4060 4088  4059 4087 4088  97 3970 3977  96 97 3977  3970 3971 3978  3970 3977 3978  3971 3972 3979  3971 3978 3979  3973 3979 3980  3972 3973 3979  3973 3974 3981  3973 3980 3981  3974 3975 3982  3974 3981 3982  3975 3976 3983  3975 3982 3983  89 4082 4096  88 89 4096  4082 4083 4097  4082 4096 4097  4084 4097 4098  4083 4084 4097  4084 4085 4099  4084 4098 4099  4085 4086 4100  4085 4099 4100  4086 4087 4101  4086 4100 4101  4088 4101 4102  4087 4088 4101  97 3949 3970  97 98 3949  3949 3950 3971  3949 3970 3971  3950 3951 3972  3950 3971 3972  3951 3952 3973  3951 3972 3973  3952 3953 3974  3952 3973 3974  3953 3954 3975  3953 3974 3975  3954 3955 3976  3954 3975 3976  95 3991 4005  94 95 4005  3992 4005 4006  3991 3992 4005  3993 4006 4007  3992 3993 4006  3993 3994 4008  3993 4007 4008  3994 3995 4009  3994 4008 4009  3995 3996 4010  3995 4009 4010  3996 3997 4011  3996 4010 4011  94 4005 4019  93 94 4019  4005 4006 4020  4005 4019 4020  4007 4020 4021  4006 4007 4020  4007 4008 4022  4007 4021 4022  4008 4009 4023  4008 4022 4023  4009 4010 4024  4009 4023 4024  4011 4024 4025  4010 4011 4024  88 4096 4103  87 88 4103  4096 4097 4104  4096 4103 4104  4098 4104 4105  4097 4098 4104  4098 4099 4106  4098 4105 4106  4099 4100 4107  4099 4106 4107  4100 4101 4108  4100 4107 4108  4101 4102 4109  4101 4108 4109  92 4040 4047  91 92 4047  4040 4041 4048  4040 4047 4048  4042 4048 4049  4041 4042 4048  4042 4043 4050  4042 4049 4050  4043 4044 4051  4043 4050 4051  4044 4045 4052  4044 4051 4052  4045 4046 4053  4045 4052 4053  93 4019 4040  92 93 4040  4019 4020 4041  4019 4040 4041  4021 4041 4042  4020 4021 4041  4021 4022 4043  4021 4042 4043  4022 4023 4044  4022 4043 4044  4023 4024 4045  4023 4044 4045  4024 4025 4046  4024 4045 4046  100 3921 3942  99 100 3942  3921 3922 3943  3921 3942 3943  3923 3943 3944  3922 3923 3943  3923 3924 3945  3923 3944 3945  3924 3925 3946  3924 3945 3946  3925 3926 3947  3925 3946 3947  3926 3927 3948  3926 3947 3948  101 3914 3921  100 101 3921  3914 3915 3922  3914 3921 3922  3915 3916 3923  3915 3922 3923  3916 3917 3924  3916 3923 3924  3917 3918 3925  3917 3924 3925  3918 3919 3926  3918 3925 3926  3919 3920 3927  3919 3926 3927  105 3865 3872  104 105 3872  3866 3872 3873  3865 3866 3872  3867 3873 3874  3866 3867 3873  3867 3868 3875  3867 3874 3875  3868 3869 3876  3868 3875 3876  3869 3870 3877  3869 3876 3877  3870 3871 3878  3870 3877 3878  102 3886 3914  101 102 3914  3886 3887 3915  3886 3914 3915  3888 3915 3916  3887 3888 3915  3888 3889 3917  3888 3916 3917  3889 3890 3918  3889 3917 3918  3890 3891 3919  3890 3918 3919  3892 3919 3920  3891 3892 3919  91 4047 4054  90 91 4054  4047 4048 4055  4047 4054 4055  4048 4049 4056  4048 4055 4056  4049 4050 4057  4049 4056 4057  4050 4051 4058  4050 4057 4058  4051 4052 4059  4051 4058 4059  4052 4053 4060  4052 4059 4060  104 3872 3879  103 104 3879  3872 3873 3880  3872 3879 3880  3874 3880 3881  3873 3874 3880  3874 3875 3882  3874 3881 3882  3875 3876 3883  3875 3882 3883  3876 3877 3884  3876 3883 3884  3877 3878 3885  3877 3884 3885  103 3879 3886  102 103 3886  3879 3880 3887  3879 3886 3887  3881 3887 3888  3880 3881 3887  3881 3882 3889  3881 3888 3889  3882 3883 3890  3882 3889 3890  3883 3884 3891  3883 3890 3891  3884 3885 3892  3884 3891 3892  96 3977 3991  95 96 3991  3977 3978 3992  3977 3991 3992  3979 3992 3993  3978 3979 3992  3979 3980 3994  3979 3993 3994  3980 3981 3995  3980 3994 3995  3981 3982 3996  3981 3995 3996  3982 3983 3997  3982 3996 3997  18 3389 3648  17 18 3648  3390 3648 3649  3389 3390 3648  3390 3391 3650  3390 3649 3650  3391 3392 3651  3391 3650 3651  3393 3651 3652  3392 3393 3651  3394 3652 3653  3393 3394 3652  3394 3395 3654  3394 3653 3654  21 3242 3459  20 21 3459  3242 3243 3460  3242 3459 3460  3243 3244 3461  3243 3460 3461  3244 3245 3462  3244 3461 3462  3245 3246 3463  3245 3462 3463  3246 3247 3464  3246 3463 3464  3247 3248 3465  3247 3464 3465  19 3368 3389  18 19 3389  3368 3369 3390  3368 3389 3390  3369 3370 3391  3369 3390 3391  3370 3371 3392  3370 3391 3392  3371 3372 3393  3371 3392 3393  3372 3373 3394  3372 3393 3394  3374 3394 3395  3373 3374 3394  20 3368 3459  19 20 3368  3368 3369 3460  3368 3459 3460  3370 3460 3461  3369 3370 3460  3371 3461 3462  3370 3371 3461  3372 3462 3463  3371 3372 3462  3373 3463 3464  3372 3373 3463  3374 3464 3465  3373 3374 3464  22 3221 3242  21 22 3242  3221 3222 3243  3221 3242 3243  3222 3223 3244  3222 3243 3244  3223 3224 3245  3223 3244 3245  3224 3225 3246  3224 3245 3246  3225 3226 3247  3225 3246 3247  3226 3227 3248  3226 3247 3248  252 1821 1828  251 252 1821  1822 1828 1829  1821 1822 1828  1823 1829 1830  1822 1823 1829  1823 1824 1831  1823 1830 1831  1825 1831 1832  1824 1825 1831  1826 1832 1833  1825 1826 1832  1827 1833 1834  1826 1827 1833  247 1786 1793  246 247 1786  1787 1793 1794  1786 1787 1793  1788 1794 1795  1787 1788 1794  1788 1789 1796  1788 1795 1796  1790 1796 1797  1789 1790 1796  1791 1797 1798  1790 1791 1797  1791 1792 1799  1791 1798 1799  238 1723 1730  237 238 1723  1724 1730 1731  1723 1724 1730  1725 1731 1732  1724 1725 1731  1725 1726 1733  1725 1732 1733  1727 1733 1734  1726 1727 1733  1728 1734 1735  1727 1728 1734  1729 1735 1736  1728 1729 1735  242 1751 1758  241 242 1751  1752 1758 1759  1751 1752 1758  1753 1759 1760  1752 1753 1759  1754 1760 1761  1753 1754 1760  1755 1761 1762  1754 1755 1761  1756 1762 1763  1755 1756 1762  1757 1763 1764  1756 1757 1763  245 1772 1779  244 245 1772  1773 1779 1780  1772 1773 1779  1774 1780 1781  1773 1774 1780  1774 1775 1782  1774 1781 1782  1775 1776 1783  1775 1782 1783  1777 1783 1784  1776 1777 1783  1778 1784 1785  1777 1778 1784  239 1730 1737  238 239 1730  1731 1737 1738  1730 1731 1737  1732 1738 1739  1731 1732 1738  1732 1733 1740  1732 1739 1740  1734 1740 1741  1733 1734 1740  1735 1741 1742  1734 1735 1741  1735 1736 1743  1735 1742 1743  240 1737 1744  239 240 1737  1737 1738 1745  1737 1744 1745  1739 1745 1746  1738 1739 1745  1739 1740 1747  1739 1746 1747  1741 1747 1748  1740 1741 1747  1742 1748 1749  1741 1742 1748  1743 1749 1750  1742 1743 1749  251 1814 1821  250 251 1814  1815 1821 1822  1814 1815 1821  1816 1822 1823  1815 1816 1822  1816 1817 1824  1816 1823 1824  1818 1824 1825  1817 1818 1824  1819 1825 1826  1818 1819 1825  1820 1826 1827  1819 1820 1826  236 1709 1716  235 236 1709  1710 1716 1717  1709 1710 1716  1711 1717 1718  1710 1711 1717  1711 1712 1719  1711 1718 1719  1713 1719 1720  1712 1713 1719  1714 1720 1721  1713 1714 1720  1714 1715 1722  1714 1721 1722  250 1807 1814  249 250 1807  1808 1814 1815  1807 1808 1814  1809 1815 1816  1808 1809 1815  1809 1810 1817  1809 1816 1817  1811 1817 1818  1810 1811 1817  1812 1818 1819  1811 1812 1818  1812 1813 1820  1812 1819 1820  243 1758 1765  242 243 1758  1759 1765 1766  1758 1759 1765  1760 1766 1767  1759 1760 1766  1761 1767 1768  1760 1761 1767  1762 1768 1769  1761 1762 1768  1763 1769 1770  1762 1763 1769  1764 1770 1771  1763 1764 1770  248 1793 1800  247 248 1793  1794 1800 1801  1793 1794 1800  1795 1801 1802  1794 1795 1801  1796 1802 1803  1795 1796 1802  1797 1803 1804  1796 1797 1803  1798 1804 1805  1797 1798 1804  1799 1805 1806  1798 1799 1805  237 1716 1723  236 237 1716  1717 1723 1724  1716 1717 1723  1718 1724 1725  1717 1718 1724  1718 1719 1726  1718 1725 1726  1720 1726 1727  1719 1720 1726  1721 1727 1728  1720 1721 1727  1722 1728 1729  1721 1722 1728  246 1779 1786  245 246 1779  1780 1786 1787  1779 1780 1786  1781 1787 1788  1780 1781 1787  1781 1782 1789  1781 1788 1789  1783 1789 1790  1782 1783 1789  1784 1790 1791  1783 1784 1790  1785 1791 1792  1784 1785 1791  281 2108 2227  280 281 2108  2109 2227 2228  2108 2109 2227  2110 2228 2229  2109 2110 2228  2110 2111 2230  2110 2229 2230  2112 2230 2231  2111 2112 2230  2113 2231 2232  2112 2113 2231  2113 2114 2233  2113 2232 2233  244 1765 1772  243 244 1765  1766 1772 1773  1765 1766 1772  1767 1773 1774  1766 1767 1773  1767 1768 1775  1767 1774 1775  1769 1775 1776  1768 1769 1775  1770 1776 1777  1769 1770 1776  1771 1777 1778  1770 1771 1777  249 1800 1807  248 249 1800  1801 1807 1808  1800 1801 1807  1802 1808 1809  1801 1802 1808  1803 1809 1810  1802 1803 1809  1804 1810 1811  1803 1804 1810  1804 1805 1812  1804 1811 1812  1806 1812 1813  1805 1806 1812  241 1744 1751  240 241 1744  1745 1751 1752  1744 1745 1751  1746 1752 1753  1745 1746 1752  1746 1747 1754  1746 1753 1754  1748 1754 1755  1747 1748 1754  1749 1755 1756  1748 1749 1755  1749 1750 1757  1749 1756 1757  227 1646 1653  226 227 1646  1647 1653 1654  1646 1647 1653  1648 1654 1655  1647 1648 1654  1648 1649 1656  1648 1655 1656  1650 1656 1657  1649 1650 1656  1651 1657 1658  1650 1651 1657  1652 1658 1659  1651 1652 1658  225 1632 1639  224 225 1632  1633 1639 1640  1632 1633 1639  1634 1640 1641  1633 1634 1640  1635 1641 1642  1634 1635 1641  1636 1642 1643  1635 1636 1642  1637 1643 1644  1636 1637 1643  1638 1644 1645  1637 1638 1644  229 1660 1667  228 229 1660  1661 1667 1668  1660 1661 1667  1662 1668 1669  1661 1662 1668  1662 1663 1670  1662 1669 1670  1664 1670 1671  1663 1664 1670  1665 1671 1672  1664 1665 1671  1665 1666 1673  1665 1672 1673  233 1688 1695  232 233 1688  1689 1695 1696  1688 1689 1695  1690 1696 1697  1689 1690 1696  1690 1691 1698  1690 1697 1698  1692 1698 1699  1691 1692 1698  1693 1699 1700  1692 1693 1699  1693 1694 1701  1693 1700 1701  235 1702 1709  234 235 1702  1703 1709 1710  1702 1703 1709  1704 1710 1711  1703 1704 1710  1705 1711 1712  1704 1705 1711  1706 1712 1713  1705 1706 1712  1706 1707 1714  1706 1713 1714  1708 1714 1715  1707 1708 1714  141 3361 3375  141 142 3361  3361 3362 3376  3361 3375 3376  3362 3363 3377  3362 3376 3377  3363 3364 3378  3363 3377 3378  3364 3365 3379  3364 3378 3379  3365 3366 3380  3365 3379 3380  3366 3367 3381  3366 3380 3381  234 1695 1702  233 234 1695  1696 1702 1703  1695 1696 1702  1697 1703 1704  1696 1697 1703  1698 1704 1705  1697 1698 1704  1699 1705 1706  1698 1699 1705  1700 1706 1707  1699 1700 1706  1701 1707 1708  1700 1701 1707  226 1639 1646  225 226 1639  1640 1646 1647  1639 1640 1646  1641 1647 1648  1640 1641 1647  1642 1648 1649  1641 1642 1648  1643 1649 1650  1642 1643 1649  1644 1650 1651  1643 1644 1650  1645 1651 1652  1644 1645 1651  231 1674 1681  230 231 1674  1675 1681 1682  1674 1675 1681  1676 1682 1683  1675 1676 1682  1676 1677 1684  1676 1683 1684  1678 1684 1685  1677 1678 1684  1679 1685 1686  1678 1679 1685  1680 1686 1687  1679 1680 1686  230 1667 1674  229 230 1667  1668 1674 1675  1667 1668 1674  1669 1675 1676  1668 1669 1675  1670 1676 1677  1669 1670 1676  1671 1677 1678  1670 1671 1677  1672 1678 1679  1671 1672 1678  1673 1679 1680  1672 1673 1679  224 1625 1632  223 224 1625  1626 1632 1633  1625 1626 1632  1626 1627 1634  1626 1633 1634  1628 1634 1635  1627 1628 1634  1629 1635 1636  1628 1629 1635  1630 1636 1637  1629 1630 1636  1630 1631 1638  1630 1637 1638  228 1653 1660  227 228 1653  1654 1660 1661  1653 1654 1660  1655 1661 1662  1654 1655 1661  1655 1656 1663  1655 1662 1663  1657 1663 1664  1656 1657 1663  1658 1664 1665  1657 1658 1664  1659 1665 1666  1658 1659 1665  223 1618 1625  222 223 1618  1619 1625 1626  1618 1619 1625  1620 1626 1627  1619 1620 1626  1621 1627 1628  1620 1621 1627  1621 1622 1629  1621 1628 1629  1622 1623 1630  1622 1629 1630  1623 1624 1631  1623 1630 1631  232 1681 1688  231 232 1681  1682 1688 1689  1681 1682 1688  1683 1689 1690  1682 1683 1689  1683 1684 1691  1683 1690 1691  1685 1691 1692  1684 1685 1691  1686 1692 1693  1685 1686 1692  1687 1693 1694  1686 1687 1693  143 3319 3361  142 143 3361  3319 3320 3362  3319 3361 3362  3320 3321 3363  3320 3362 3363  3321 3322 3364  3321 3363 3364  3322 3323 3365  3322 3364 3365  3323 3324 3366  3323 3365 3366  3324 3325 3367  3324 3366 3367  123 3613 3620  122 123 3620  3613 3614 3621  3613 3620 3621  3615 3621 3622  3614 3615 3621  3615 3616 3623  3615 3622 3623  3616 3617 3624  3616 3623 3624  3617 3618 3625  3617 3624 3625  3619 3625 3626  3618 3619 3625  129 3536 3543  128 129 3543  3536 3537 3544  3536 3543 3544  3537 3538 3545  3537 3544 3545  3539 3545 3546  3538 3539 3545  3539 3540 3547  3539 3546 3547  3540 3541 3548  3540 3547 3548  3541 3542 3549  3541 3548 3549  140 3382 3396  139 140 3396  3382 3383 3397  3382 3396 3397  3383 3384 3398  3383 3397 3398  3384 3385 3399  3384 3398 3399  3385 3386 3400  3385 3399 3400  3386 3387 3401  3386 3400 3401  3387 3388 3402  3387 3401 3402  124 3606 3613  123 124 3613  3606 3607 3614  3606 3613 3614  3608 3614 3615  3607 3608 3614  3608 3609 3616  3608 3615 3616  3609 3610 3617  3609 3616 3617  3610 3611 3618  3610 3617 3618  3611 3612 3619  3611 3618 3619  139 3396 3417  138 139 3417  3396 3397 3418  3396 3417 3418  3398 3418 3419  3397 3398 3418  3398 3399 3420  3398 3419 3420  3399 3400 3421  3399 3420 3421  3400 3401 3422  3400 3421 3422  3401 3402 3423  3401 3422 3423  126 3592 3599  125 126 3599  3592 3593 3600  3592 3599 3600  3593 3594 3601  3593 3600 3601  3595 3601 3602  3594 3595 3601  3595 3596 3603  3595 3602 3603  3596 3597 3604  3596 3603 3604  3597 3598 3605  3597 3604 3605  126 3557 3592  126 127 3557  3557 3558 3593  3557 3592 3593  3558 3559 3594  3558 3593 3594  3559 3560 3595  3559 3594 3595  3560 3561 3596  3560 3595 3596  3561 3562 3597  3561 3596 3597  3562 3563 3598  3562 3597 3598  128 3543 3557  127 128 3557  3543 3544 3558  3543 3557 3558  3545 3558 3559  3544 3545 3558  3545 3546 3560  3545 3559 3560  3546 3547 3561  3546 3560 3561  3547 3548 3562  3547 3561 3562  3548 3549 3563  3548 3562 3563  135 3438 3445  135 136 3438  3438 3439 3446  3438 3445 3446  3439 3440 3447  3439 3446 3447  3440 3441 3448  3440 3447 3448  3441 3442 3449  3441 3448 3449  3442 3443 3450  3442 3449 3450  3443 3444 3451  3443 3450 3451  133 3480 3501  132 133 3501  3480 3481 3502  3480 3501 3502  3482 3502 3503  3481 3482 3502  3482 3483 3504  3482 3503 3504  3483 3484 3505  3483 3504 3505  3484 3485 3506  3484 3505 3506  3486 3506 3507  3485 3486 3506  131 3508 3529  130 131 3529  3508 3509 3530  3508 3529 3530  3510 3530 3531  3509 3510 3530  3510 3511 3532  3510 3531 3532  3511 3512 3533  3511 3532 3533  3512 3513 3534  3512 3533 3534  3513 3514 3535  3513 3534 3535  122 3620 3627  121 122 3627  3620 3621 3628  3620 3627 3628  3622 3628 3629  3621 3622 3628  3622 3623 3630  3622 3629 3630  3623 3624 3631  3623 3630 3631  3624 3625 3632  3624 3631 3632  3625 3626 3633  3625 3632 3633  137 3431 3438  136 137 3438  3431 3432 3439  3431 3438 3439  3432 3433 3440  3432 3439 3440  3433 3434 3441  3433 3440 3441  3434 3435 3442  3434 3441 3442  3435 3436 3443  3435 3442 3443  3436 3437 3444  3436 3443 3444  137 3417 3431  137 138 3417  3417 3418 3432  3417 3431 3432  3418 3419 3433  3418 3432 3433  3419 3420 3434  3419 3433 3434  3420 3421 3435  3420 3434 3435  3421 3422 3436  3421 3435 3436  3422 3423 3437  3422 3436 3437  135 3445 3473  134 135 3473  3445 3446 3474  3445 3473 3474  3446 3447 3475  3446 3474 3475  3447 3448 3476  3447 3475 3476  3448 3449 3477  3448 3476 3477  3449 3450 3478  3449 3477 3478  3450 3451 3479  3450 3478 3479  125 3599 3606  124 125 3606  3599 3600 3607  3599 3606 3607  3601 3607 3608  3600 3601 3607  3601 3602 3609  3601 3608 3609  3602 3603 3610  3602 3609 3610  3603 3604 3611  3603 3610 3611  3604 3605 3612  3604 3611 3612  134 3473 3480  133 134 3480  3474 3480 3481  3473 3474 3480  3475 3481 3482  3474 3475 3481  3475 3476 3483  3475 3482 3483  3476 3477 3484  3476 3483 3484  3477 3478 3485  3477 3484 3485  3478 3479 3486  3478 3485 3486  132 3501 3508  131 132 3508  3501 3502 3509  3501 3508 3509  3503 3509 3510  3502 3503 3509  3503 3504 3511  3503 3510 3511  3504 3505 3512  3504 3511 3512  3505 3506 3513  3505 3512 3513  3506 3507 3514  3506 3513 3514  130 3529 3536  129 130 3536  3529 3530 3537  3529 3536 3537  3531 3537 3538  3530 3531 3537  3531 3532 3539  3531 3538 3539  3532 3533 3540  3532 3539 3540  3533 3534 3541  3533 3540 3541  3534 3535 3542  3534 3541 3542  141 3375 3382  140 141 3382  3375 3376 3383  3375 3382 3383  3377 3383 3384  3376 3377 3383  3377 3378 3385  3377 3384 3385  3378 3379 3386  3378 3385 3386  3379 3380 3387  3379 3386 3387  3380 3381 3388  3380 3387 3388  119 3669 3676  118 119 3676  3669 3670 3677  3669 3676 3677  3671 3677 3678  3670 3671 3677  3671 3672 3679  3671 3678 3679  3672 3673 3680  3672 3679 3680  3673 3674 3681  3673 3680 3681  3674 3675 3682  3674 3681 3682  110 3788 3802  109 110 3802  3788 3789 3803  3788 3802 3803  3789 3790 3804  3789 3803 3804  3791 3804 3805  3790 3791 3804  3791 3792 3806  3791 3805 3806  3792 3793 3807  3792 3806 3807  3793 3794 3808  3793 3807 3808  115 3718 3725  114 115 3725  3718 3719 3726  3718 3725 3726  3720 3726 3727  3719 3720 3726  3720 3721 3728  3720 3727 3728  3721 3722 3729  3721 3728 3729  3722 3723 3730  3722 3729 3730  3724 3730 3731  3723 3724 3730  110 3774 3788  110 111 3774  3774 3775 3789  3774 3788 3789  3775 3776 3790  3775 3789 3790  3776 3777 3791  3776 3790 3791  3777 3778 3792  3777 3791 3792  3778 3779 3793  3778 3792 3793  3779 3780 3794  3779 3793 3794  121 3627 3662  120 121 3662  3627 3628 3663  3627 3662 3663  3629 3663 3664  3628 3629 3663  3629 3630 3665  3629 3664 3665  3630 3631 3666  3630 3665 3666  3631 3632 3667  3631 3666 3667  3633 3667 3668  3632 3633 3667  108 3802 3809  108 109 3802  3802 3803 3810  3802 3809 3810  3803 3804 3811  3803 3810 3811  3804 3805 3812  3804 3811 3812  3805 3806 3813  3805 3812 3813  3806 3807 3814  3806 3813 3814  3807 3808 3815  3807 3814 3815  118 3676 3690  117 118 3690  3676 3677 3691  3676 3690 3691  3677 3678 3692  3677 3691 3692  3679 3692 3693  3678 3679 3692  3679 3680 3694  3679 3693 3694  3680 3681 3695  3680 3694 3695  3681 3682 3696  3681 3695 3696  120 3662 3669  119 120 3669  3662 3663 3670  3662 3669 3670  3664 3670 3671  3663 3664 3670  3664 3665 3672  3664 3671 3672  3665 3666 3673  3665 3672 3673  3666 3667 3674  3666 3673 3674  3667 3668 3675  3667 3674 3675  108 3809 3823  107 108 3823  3809 3810 3824  3809 3823 3824  3810 3811 3825  3810 3824 3825  3811 3812 3826  3811 3825 3826  3812 3813 3827  3812 3826 3827  3813 3814 3828  3813 3827 3828  3814 3815 3829  3814 3828 3829  107 3823 3844  106 107 3844  3823 3824 3845  3823 3844 3845  3825 3845 3846  3824 3825 3845  3825 3826 3847  3825 3846 3847  3826 3827 3848  3826 3847 3848  3827 3828 3849  3827 3848 3849  3829 3849 3850  3828 3829 3849  112 3760 3774  111 112 3774  3760 3761 3775  3760 3774 3775  3761 3762 3776  3761 3775 3776  3762 3763 3777  3762 3776 3777  3763 3764 3778  3763 3777 3778  3764 3765 3779  3764 3778 3779  3765 3766 3780  3765 3779 3780  113 3753 3760  112 113 3760  3753 3754 3761  3753 3760 3761  3755 3761 3762  3754 3755 3761  3755 3756 3763  3755 3762 3763  3756 3757 3764  3756 3763 3764  3757 3758 3765  3757 3764 3765  3758 3759 3766  3758 3765 3766  106 3844 3865  105 106 3865  3844 3845 3866  3844 3865 3866  3846 3866 3867  3845 3846 3866  3846 3847 3868  3846 3867 3868  3847 3848 3869  3847 3868 3869  3848 3849 3870  3848 3869 3870  3849 3850 3871  3849 3870 3871  114 3725 3753  113 114 3753  3726 3753 3754  3725 3726 3753  3727 3754 3755  3726 3727 3754  3727 3728 3756  3727 3755 3756  3728 3729 3757  3728 3756 3757  3729 3730 3758  3729 3757 3758  3730 3731 3759  3730 3758 3759  116 3697 3718  115 116 3718  3698 3718 3719  3697 3698 3718  3699 3719 3720  3698 3699 3719  3699 3700 3721  3699 3720 3721  3700 3701 3722  3700 3721 3722  3701 3702 3723  3701 3722 3723  3702 3703 3724  3702 3723 3724  117 3690 3697  116 117 3697  3690 3691 3698  3690 3697 3698  3692 3698 3699  3691 3692 3698  3692 3693 3700  3692 3699 3700  3693 3694 3701  3693 3700 3701  3694 3695 3702  3694 3701 3702  3695 3696 3703  3695 3702 3703  298 2556 2885  297 298 2556  2557 2885 2886  2556 2557 2885  2558 2886 2887  2557 2558 2886  2558 2559 2888  2558 2887 2888  2560 2888 2889  2559 2560 2888  2561 2889 2890  2560 2561 2889  2562 2890 2891  2561 2562 2890  272 974 2241  271 272 974  975 2241 2242  974 975 2241  976 2242 2243  975 976 2242  976 977 2244  976 2243 2244  978 2244 2245  977 978 2244  979 2245 2246  978 979 2245  979 980 2247  979 2246 2247  271 974 981  270 271 981  974 975 982  974 981 982  975 976 983  975 982 983  977 983 984  976 977 983  977 978 985  977 984 985  978 979 986  978 985 986  979 980 987  979 986 987  270 981 1947  269 270 1947  981 982 1948  981 1947 1948  982 983 1949  982 1948 1949  984 1949 1950  983 984 1949  984 985 1951  984 1950 1951  985 986 1952  985 1951 1952  986 987 1953  986 1952 1953  274 2395 2465  273 274 2465  2395 2396 2466  2395 2465 2466  2396 2397 2467  2396 2466 2467  2398 2467 2468  2397 2398 2467  2398 2399 2469  2398 2468 2469  2399 2400 2470  2399 2469 2470  2401 2470 2471  2400 2401 2470  273 2241 2465  272 273 2241  2242 2465 2466  2241 2242 2465  2243 2466 2467  2242 2243 2466  2243 2244 2468  2243 2467 2468  2245 2468 2469  2244 2245 2468  2246 2469 2470  2245 2246 2469  2247 2470 2471  2246 2247 2470  276 2024 2472  275 276 2024  2025 2472 2473  2024 2025 2472  2026 2473 2474  2025 2026 2473  2027 2474 2475  2026 2027 2474  2028 2475 2476  2027 2028 2475  2029 2476 2477  2028 2029 2476  2030 2477 2478  2029 2030 2477  275 2024 2395  274 275 2395  2024 2025 2396  2024 2395 2396  2025 2026 2397  2025 2396 2397  2026 2027 2398  2026 2397 2398  2027 2028 2399  2027 2398 2399  2028 2029 2400  2028 2399 2400  2029 2030 2401  2029 2400 2401  278 2815 2941  277 278 2815  2816 2941 2942  2815 2816 2941  2817 2942 2943  2816 2817 2942  2817 2818 2944  2817 2943 2944  2819 2944 2945  2818 2819 2944  2820 2945 2946  2819 2820 2945  2821 2946 2947  2820 2821 2946  279 2598 2941  278 279 2941  2598 2599 2942  2598 2941 2942  2599 2600 2943  2599 2942 2943  2601 2943 2944  2600 2601 2943  2601 2602 2945  2601 2944 2945  2603 2945 2946  2602 2603 2945  2603 2604 2947  2603 2946 2947  277 2472 2815  276 277 2472  2473 2815 2816  2472 2473 2815  2474 2816 2817  2473 2474 2816  2474 2475 2818  2474 2817 2818  2476 2818 2819  2475 2476 2818  2477 2819 2820  2476 2477 2819  2478 2820 2821  2477 2478 2820  280 2108 2598  279 280 2598  2108 2109 2599  2108 2598 2599  2109 2110 2600  2109 2599 2600  2111 2600 2601  2110 2111 2600  2111 2112 2602  2111 2601 2602  2112 2113 2603  2112 2602 2603  2113 2114 2604  2113 2603 2604  445 6833 6840  444 445 6833  6834 6840 6841  6833 6834 6840  6835 6841 6842  6834 6835 6841  6836 6842 6843  6835 6836 6842  6836 6837 6844  6836 6843 6844  6838 6844 6845  6837 6838 6844  6839 6845 6846  6838 6839 6845  323 2731 2766  322 323 2766  2731 2732 2767  2731 2766 2767  2732 2733 2768  2732 2767 2768  2734 2768 2769  2733 2734 2768  2734 2735 2770  2734 2769 2770  2735 2736 2771  2735 2770 2771  2736 2737 2772  2736 2771 2772  444 6826 6833  443 444 6826  6827 6833 6834  6826 6827 6833  6827 6828 6835  6827 6834 6835  6829 6835 6836  6828 6829 6835  6830 6836 6837  6829 6830 6836  6831 6837 6838  6830 6831 6837  6832 6838 6839  6831 6832 6838  317 2234 2549  316 317 2234  2235 2549 2550  2234 2235 2549  2236 2550 2551  2235 2236 2550  2236 2237 2552  2236 2551 2552  2238 2552 2553  2237 2238 2552  2239 2553 2554  2238 2239 2553  2240 2554 2555  2239 2240 2554  319 2710 2773  318 319 2710  2710 2711 2774  2710 2773 2774  2712 2774 2775  2711 2712 2774  2712 2713 2776  2712 2775 2776  2714 2776 2777  2713 2714 2776  2715 2777 2778  2714 2715 2777  2716 2778 2779  2715 2716 2778  446 6840 6847  445 446 6840  6841 6847 6848  6840 6841 6847  6842 6848 6849  6841 6842 6848  6842 6843 6850  6842 6849 6850  6844 6850 6851  6843 6844 6850  6845 6851 6852  6844 6845 6851  6846 6852 6853  6845 6846 6852  322 2752 2766  321 322 2752  2752 2753 2767  2752 2766 2767  2754 2767 2768  2753 2754 2767  2754 2755 2769  2754 2768 2769  2756 2769 2770  2755 2756 2769  2757 2770 2771  2756 2757 2770  2758 2771 2772  2757 2758 2771  442 6819 6826  442 443 6826  6820 6826 6827  6819 6820 6826  6821 6827 6828  6820 6821 6827  6822 6828 6829  6821 6822 6828  6823 6829 6830  6822 6823 6829  6824 6830 6831  6823 6824 6830  6825 6831 6832  6824 6825 6831  316 2234 2850  315 316 2850  2234 2235 2851  2234 2850 2851  2235 2236 2852  2235 2851 2852  2237 2852 2853  2236 2237 2852  2237 2238 2854  2237 2853 2854  2239 2854 2855  2238 2239 2854  2239 2240 2856  2239 2855 2856  447 6847 6854  446 447 6847  6848 6854 6855  6847 6848 6854  6849 6855 6856  6848 6849 6855  6850 6856 6857  6849 6850 6856  6851 6857 6858  6850 6851 6857  6852 6858 6859  6851 6852 6858  6853 6859 6860  6852 6853 6859  324 2633 2731  323 324 2731  2633 2634 2732  2633 2731 2732  2634 2635 2733  2634 2732 2733  2635 2636 2734  2635 2733 2734  2636 2637 2735  2636 2734 2735  2637 2638 2736  2637 2735 2736  2639 2736 2737  2638 2639 2736  318 2549 2710  317 318 2549  2550 2710 2711  2549 2550 2710  2551 2711 2712  2550 2551 2711  2552 2712 2713  2551 2552 2712  2553 2713 2714  2552 2553 2713  2554 2714 2715  2553 2554 2714  2554 2555 2716  2554 2715 2716  321 2752 2794  320 321 2794  2752 2753 2795  2752 2794 2795  2753 2754 2796  2753 2795 2796  2754 2755 2797  2754 2796 2797  2755 2756 2798  2755 2797 2798  2756 2757 2799  2756 2798 2799  2757 2758 2800  2757 2799 2800  320 2773 2794  319 320 2773  2774 2794 2795  2773 2774 2794  2775 2795 2796  2774 2775 2795  2775 2776 2797  2775 2796 2797  2777 2797 2798  2776 2777 2797  2778 2798 2799  2777 2778 2798  2778 2779 2800  2778 2799 2800  315 2850 2892  314 315 2892  2850 2851 2893  2850 2892 2893  2851 2852 2894  2851 2893 2894  2853 2894 2895  2852 2853 2894  2853 2854 2896  2853 2895 2896  2854 2855 2897  2854 2896 2897  2856 2897 2898  2855 2856 2897  311 2906 2969  310 311 2969  2906 2907 2970  2906 2969 2970  2907 2908 2971  2907 2970 2971  2908 2909 2972  2908 2971 2972  2909 2910 2973  2909 2972 2973  2910 2911 2974  2910 2973 2974  2911 2912 2975  2911 2974 2975  301 2115 2591  300 301 2591  2115 2116 2592  2115 2591 2592  2116 2117 2593  2116 2592 2593  2118 2593 2594  2117 2118 2593  2118 2119 2595  2118 2594 2595  2119 2120 2596  2119 2595 2596  2121 2596 2597  2120 2121 2596  312 2906 2927  311 312 2906  2907 2927 2928  2906 2907 2927  2908 2928 2929  2907 2908 2928  2909 2929 2930  2908 2909 2929  2910 2930 2931  2909 2910 2930  2911 2931 2932  2910 2911 2931  2912 2932 2933  2911 2912 2932  313 2864 2927  312 313 2927  2864 2865 2928  2864 2927 2928  2865 2866 2929  2865 2928 2929  2866 2867 2930  2866 2929 2930  2867 2868 2931  2867 2930 2931  2868 2869 2932  2868 2931 2932  2869 2870 2933  2869 2932 2933  314 2864 2892  313 314 2864  2865 2892 2893  2864 2865 2892  2866 2893 2894  2865 2866 2893  2867 2894 2895  2866 2867 2894  2868 2895 2896  2867 2868 2895  2868 2869 2897  2868 2896 2897  2870 2897 2898  2869 2870 2897  308 2045 2304  307 308 2304  2045 2046 2305  2045 2304 2305  2046 2047 2306  2046 2305 2306  2048 2306 2307  2047 2048 2306  2048 2049 2308  2048 2307 2308  2049 2050 2309  2049 2308 2309  2051 2309 2310  2050 2051 2309  299 2318 2885  298 299 2885  2318 2319 2886  2318 2885 2886  2319 2320 2887  2319 2886 2887  2321 2887 2888  2320 2321 2887  2322 2888 2889  2321 2322 2888  2322 2323 2890  2322 2889 2890  2323 2324 2891  2323 2890 2891  310 2248 2969  309 310 2248  2249 2969 2970  2248 2249 2969  2250 2970 2971  2249 2250 2970  2251 2971 2972  2250 2251 2971  2252 2972 2973  2251 2252 2972  2253 2973 2974  2252 2253 2973  2253 2254 2975  2253 2974 2975  304 1975 2955  303 304 1975  1975 1976 2956  1975 2955 2956  1977 2956 2957  1976 1977 2956  1977 1978 2958  1977 2957 2958  1979 2958 2959  1978 1979 2958  1980 2959 2960  1979 1980 2959  1981 2960 2961  1980 1981 2960  307 2304 2661  306 307 2661  2305 2661 2662  2304 2305 2661  2305 2306 2663  2305 2662 2663  2307 2663 2664  2306 2307 2663  2307 2308 2665  2307 2664 2665  2309 2665 2666  2308 2309 2665  2309 2310 2667  2309 2666 2667  303 1975 2962  302 303 2962  1975 1976 2963  1975 2962 2963  1976 1977 2964  1976 2963 2964  1977 1978 2965  1977 2964 2965  1978 1979 2966  1978 2965 2966  1979 1980 2967  1979 2966 2967  1980 1981 2968  1980 2967 2968  300 2318 2591  299 300 2318  2319 2591 2592  2318 2319 2591  2320 2592 2593  2319 2320 2592  2320 2321 2594  2320 2593 2594  2322 2594 2595  2321 2322 2594  2323 2595 2596  2322 2323 2595  2324 2596 2597  2323 2324 2596  306 2661 2948  305 306 2948  2661 2662 2949  2661 2948 2949  2662 2663 2950  2662 2949 2950  2664 2950 2951  2663 2664 2950  2664 2665 2952  2664 2951 2952  2665 2666 2953  2665 2952 2953  2667 2953 2954  2666 2667 2953  305 2948 2955  304 305 2955  2948 2949 2956  2948 2955 2956  2949 2950 2957  2949 2956 2957  2951 2957 2958  2950 2951 2957  2951 2952 2959  2951 2958 2959  2952 2953 2960  2952 2959 2960  2953 2954 2961  2953 2960 2961  309 2045 2248  308 309 2045  2046 2248 2249  2045 2046 2248  2047 2249 2250  2046 2047 2249  2047 2048 2251  2047 2250 2251  2049 2251 2252  2048 2049 2251  2049 2050 2253  2049 2252 2253  2051 2253 2254  2050 2051 2253  302 2115 2962  301 302 2115  2116 2962 2963  2115 2116 2962  2117 2963 2964  2116 2117 2963  2118 2964 2965  2117 2118 2964  2119 2965 2966  2118 2119 2965  2120 2966 2967  2119 2120 2966  2121 2967 2968  2120 2121 2967  295 2780 2843  294 295 2843  2780 2781 2844  2780 2843 2844  2781 2782 2845  2781 2844 2845  2783 2845 2846  2782 2783 2845  2783 2784 2847  2783 2846 2847  2784 2785 2848  2784 2847 2848  2785 2786 2849  2785 2848 2849  290 2150 2206  289 290 2150  2151 2206 2207  2150 2151 2206  2152 2207 2208  2151 2152 2207  2152 2153 2209  2152 2208 2209  2154 2209 2210  2153 2154 2209  2155 2210 2211  2154 2155 2210  2155 2156 2212  2155 2211 2212  288 2745 2857  287 288 2857  2745 2746 2858  2745 2857 2858  2746 2747 2859  2746 2858 2859  2748 2859 2860  2747 2748 2859  2748 2749 2861  2748 2860 2861  2749 2750 2862  2749 2861 2862  2750 2751 2863  2750 2862 2863  297 2556 2787  296 297 2787  2556 2557 2788  2556 2787 2788  2557 2558 2789  2557 2788 2789  2559 2789 2790  2558 2559 2789  2559 2560 2791  2559 2790 2791  2560 2561 2792  2560 2791 2792  2561 2562 2793  2561 2792 2793  284 2178 2703  283 284 2703  2178 2179 2704  2178 2703 2704  2179 2180 2705  2179 2704 2705  2181 2705 2706  2180 2181 2705  2181 2182 2707  2181 2706 2707  2182 2183 2708  2182 2707 2708  2184 2708 2709  2183 2184 2708  287 2339 2857  286 287 2339  2340 2857 2858  2339 2340 2857  2341 2858 2859  2340 2341 2858  2342 2859 2860  2341 2342 2859  2343 2860 2861  2342 2343 2860  2344 2861 2862  2343 2344 2861  2345 2862 2863  2344 2345 2862  286 1982 2339  285 286 1982  1983 2339 2340  1982 1983 2339  1984 2340 2341  1983 1984 2340  1985 2341 2342  1984 1985 2341  1986 2342 2343  1985 1986 2342  1987 2343 2344  1986 1987 2343  1988 2344 2345  1987 1988 2344  294 2822 2843  293 294 2822  2823 2843 2844  2822 2823 2843  2824 2844 2845  2823 2824 2844  2824 2825 2846  2824 2845 2846  2826 2846 2847  2825 2826 2846  2827 2847 2848  2826 2827 2847  2828 2848 2849  2827 2828 2848  293 2759 2822  292 293 2759  2760 2822 2823  2759 2760 2822  2761 2823 2824  2760 2761 2823  2761 2762 2825  2761 2824 2825  2763 2825 2826  2762 2763 2825  2764 2826 2827  2763 2764 2826  2764 2765 2828  2764 2827 2828  291 2206 2836  290 291 2206  2207 2836 2837  2206 2207 2836  2208 2837 2838  2207 2208 2837  2208 2209 2839  2208 2838 2839  2210 2839 2840  2209 2210 2839  2211 2840 2841  2210 2211 2840  2212 2841 2842  2211 2212 2841  292 2759 2836  291 292 2836  2759 2760 2837  2759 2836 2837  2760 2761 2838  2760 2837 2838  2762 2838 2839  2761 2762 2838  2762 2763 2840  2762 2839 2840  2763 2764 2841  2763 2840 2841  2764 2765 2842  2764 2841 2842  289 2150 2745  288 289 2745  2150 2151 2746  2150 2745 2746  2151 2152 2747  2151 2746 2747  2152 2153 2748  2152 2747 2748  2153 2154 2749  2153 2748 2749  2154 2155 2750  2154 2749 2750  2155 2156 2751  2155 2750 2751  296 2780 2787  295 296 2780  2781 2787 2788  2780 2781 2787  2782 2788 2789  2781 2782 2788  2782 2783 2790  2782 2789 2790  2784 2790 2791  2783 2784 2790  2785 2791 2792  2784 2785 2791  2786 2792 2793  2785 2786 2792  285 1982 2178  284 285 2178  1983 2178 2179  1982 1983 2178  1983 1984 2180  1983 2179 2180  1985 2180 2181  1984 1985 2180  1985 1986 2182  1985 2181 2182  1987 2182 2183  1986 1987 2182  1987 1988 2184  1987 2183 2184  282 2227 2444  281 282 2227  2228 2444 2445  2227 2228 2444  2229 2445 2446  2228 2229 2445  2229 2230 2447  2229 2446 2447  2231 2447 2448  2230 2231 2447  2232 2448 2449  2231 2232 2448  2232 2233 2450  2232 2449 2450  283 2444 2703  282 283 2444  2445 2703 2704  2444 2445 2703  2446 2704 2705  2445 2446 2704  2446 2447 2706  2446 2705 2706  2448 2706 2707  2447 2448 2706  2449 2707 2708  2448 2449 2707  2450 2708 2709  2449 2450 2708  261 1884 1891  260 261 1884  1885 1891 1892  1884 1885 1891  1886 1892 1893  1885 1886 1892  1886 1887 1894  1886 1893 1894  1888 1894 1895  1887 1888 1894  1889 1895 1896  1888 1889 1895  1890 1896 1897  1889 1890 1896  266 1919 1926  265 266 1919  1920 1926 1927  1919 1920 1926  1921 1927 1928  1920 1921 1927  1921 1922 1929  1921 1928 1929  1923 1929 1930  1922 1923 1929  1924 1930 1931  1923 1924 1930  1925 1931 1932  1924 1925 1931  267 1926 1933  266 267 1926  1927 1933 1934  1926 1927 1933  1928 1934 1935  1927 1928 1934  1928 1929 1936  1928 1935 1936  1930 1936 1937  1929 1930 1936  1931 1937 1938  1930 1931 1937  1932 1938 1939  1931 1932 1938  259 1870 1877  258 259 1870  1871 1877 1878  1870 1871 1877  1872 1878 1879  1871 1872 1878  1872 1873 1880  1872 1879 1880  1874 1880 1881  1873 1874 1880  1875 1881 1882  1874 1875 1881  1875 1876 1883  1875 1882 1883  269 1940 1947  268 269 1940  1941 1947 1948  1940 1941 1947  1942 1948 1949  1941 1942 1948  1942 1943 1950  1942 1949 1950  1944 1950 1951  1943 1944 1950  1945 1951 1952  1944 1945 1951  1946 1952 1953  1945 1946 1952  254 1835 1842  253 254 1835  1836 1842 1843  1835 1836 1842  1837 1843 1844  1836 1837 1843  1837 1838 1845  1837 1844 1845  1839 1845 1846  1838 1839 1845  1840 1846 1847  1839 1840 1846  1840 1841 1848  1840 1847 1848  265 1912 1919  264 265 1912  1913 1919 1920  1912 1913 1919  1914 1920 1921  1913 1914 1920  1914 1915 1922  1914 1921 1922  1916 1922 1923  1915 1916 1922  1917 1923 1924  1916 1917 1923  1917 1918 1925  1917 1924 1925  262 1891 1898  261 262 1891  1892 1898 1899  1891 1892 1898  1893 1899 1900  1892 1893 1899  1893 1894 1901  1893 1900 1901  1895 1901 1902  1894 1895 1901  1896 1902 1903  1895 1896 1902  1897 1903 1904  1896 1897 1903  260 1877 1884  259 260 1877  1878 1884 1885  1877 1878 1884  1879 1885 1886  1878 1879 1885  1879 1880 1887  1879 1886 1887  1881 1887 1888  1880 1881 1887  1882 1888 1889  1881 1882 1888  1883 1889 1890  1882 1883 1889  263 1898 1905  262 263 1898  1899 1905 1906  1898 1899 1905  1900 1906 1907  1899 1900 1906  1900 1901 1908  1900 1907 1908  1902 1908 1909  1901 1902 1908  1903 1909 1910  1902 1903 1909  1904 1910 1911  1903 1904 1910  264 1905 1912  263 264 1905  1906 1912 1913  1905 1906 1912  1907 1913 1914  1906 1907 1913  1907 1908 1915  1907 1914 1915  1909 1915 1916  1908 1909 1915  1910 1916 1917  1909 1910 1916  1911 1917 1918  1910 1911 1917  257 1856 1863  256 257 1856  1857 1863 1864  1856 1857 1863  1858 1864 1865  1857 1858 1864  1859 1865 1866  1858 1859 1865  1860 1866 1867  1859 1860 1866  1861 1867 1868  1860 1861 1867  1862 1868 1869  1861 1862 1868  258 1863 1870  257 258 1863  1864 1870 1871  1863 1864 1870  1865 1871 1872  1864 1865 1871  1865 1866 1873  1865 1872 1873  1867 1873 1874  1866 1867 1873  1868 1874 1875  1867 1868 1874  1869 1875 1876  1868 1869 1875  268 1933 1940  267 268 1933  1934 1940 1941  1933 1934 1940  1935 1941 1942  1934 1935 1941  1935 1936 1943  1935 1942 1943  1937 1943 1944  1936 1937 1943  1938 1944 1945  1937 1938 1944  1939 1945 1946  1938 1939 1945  256 1849 1856  255 256 1849  1850 1856 1857  1849 1850 1856  1851 1857 1858  1850 1851 1857  1851 1852 1859  1851 1858 1859  1853 1859 1860  1852 1853 1859  1854 1860 1861  1853 1854 1860  1854 1855 1862  1854 1861 1862  253 1828 1835  252 253 1828  1829 1835 1836  1828 1829 1835  1830 1836 1837  1829 1830 1836  1830 1831 1838  1830 1837 1838  1832 1838 1839  1831 1832 1838  1833 1839 1840  1832 1833 1839  1834 1840 1841  1833 1834 1840  255 1842 1849  254 255 1842  1842 1843 1850  1842 1849 1850  1844 1850 1851  1843 1844 1850  1844 1845 1852  1844 1851 1852  1846 1852 1853  1845 1846 1852  1847 1853 1854  1846 1847 1853  1848 1854 1855  1847 1848 1854  642 5090 5097  641 642 5090  5091 5097 5098  5090 5091 5097  5092 5098 5099  5091 5092 5098  5093 5099 5100  5092 5093 5099  5094 5100 5101  5093 5094 5100  5095 5101 5102  5094 5095 5101  5096 5102 5103  5095 5096 5102  641 5083 5090  640 641 5083  5084 5090 5091  5083 5084 5090  5085 5091 5092  5084 5085 5091  5086 5092 5093  5085 5086 5092  5087 5093 5094  5086 5087 5093  5088 5094 5095  5087 5088 5094  5089 5095 5096  5088 5089 5095  632 5020 5027  631 632 5020  5020 5021 5028  5020 5027 5028  5022 5028 5029  5021 5022 5028  5022 5023 5030  5022 5029 5030  5023 5024 5031  5023 5030 5031  5025 5031 5032  5024 5025 5031  5025 5026 5033  5025 5032 5033  637 5055 5062  636 637 5055  5056 5062 5063  5055 5056 5062  5057 5063 5064  5056 5057 5063  5058 5064 5065  5057 5058 5064  5059 5065 5066  5058 5059 5065  5060 5066 5067  5059 5060 5066  5061 5067 5068  5060 5061 5067  631 5013 5020  630 631 5013  5014 5020 5021  5013 5014 5020  5015 5021 5022  5014 5015 5021  5016 5022 5023  5015 5016 5022  5017 5023 5024  5016 5017 5023  5018 5024 5025  5017 5018 5024  5019 5025 5026  5018 5019 5025  640 5076 5083  639 640 5076  5077 5083 5084  5076 5077 5083  5078 5084 5085  5077 5078 5084  5079 5085 5086  5078 5079 5085  5080 5086 5087  5079 5080 5086  5081 5087 5088  5080 5081 5087  5082 5088 5089  5081 5082 5088  636 5048 5055  635 636 5048  5049 5055 5056  5048 5049 5055  5050 5056 5057  5049 5050 5056  5051 5057 5058  5050 5051 5057  5052 5058 5059  5051 5052 5058  5053 5059 5060  5052 5053 5059  5054 5060 5061  5053 5054 5060  639 5069 5076  638 639 5069  5070 5076 5077  5069 5070 5076  5071 5077 5078  5070 5071 5077  5072 5078 5079  5071 5072 5078  5073 5079 5080  5072 5073 5079  5074 5080 5081  5073 5074 5080  5075 5081 5082  5074 5075 5081  633 5027 5034  632 633 5027  5028 5034 5035  5027 5028 5034  5029 5035 5036  5028 5029 5035  5030 5036 5037  5029 5030 5036  5031 5037 5038  5030 5031 5037  5032 5038 5039  5031 5032 5038  5033 5039 5040  5032 5033 5039  634 5034 5041  633 634 5034  5034 5035 5042  5034 5041 5042  5036 5042 5043  5035 5036 5042  5036 5037 5044  5036 5043 5044  5037 5038 5045  5037 5044 5045  5039 5045 5046  5038 5039 5045  5039 5040 5047  5039 5046 5047  638 5062 5069  637 638 5062  5062 5063 5070  5062 5069 5070  5064 5070 5071  5063 5064 5070  5064 5065 5072  5064 5071 5072  5065 5066 5073  5065 5072 5073  5067 5073 5074  5066 5067 5073  5067 5068 5075  5067 5074 5075  635 5041 5048  634 635 5041  5042 5048 5049  5041 5042 5048  5043 5049 5050  5042 5043 5049  5044 5050 5051  5043 5044 5050  5045 5051 5052  5044 5045 5051  5046 5052 5053  5045 5046 5052  5047 5053 5054  5046 5047 5053  563 7218 7225  562 563 7218  7219 7225 7226  7218 7219 7225  7220 7226 7227  7219 7220 7226  7221 7227 7228  7220 7221 7227  7222 7228 7229  7221 7222 7228  7223 7229 7230  7222 7223 7229  7224 7230 7231  7223 7224 7230  626 4978 4985  625 626 4978  4978 4979 4986  4978 4985 4986  4980 4986 4987  4979 4980 4986  4980 4981 4988  4980 4987 4988  4981 4982 4989  4981 4988 4989  4983 4989 4990  4982 4983 4989  4983 4984 4991  4983 4990 4991  630 5006 5013  629 630 5006  5006 5007 5014  5006 5013 5014  5008 5014 5015  5007 5008 5014  5008 5009 5016  5008 5015 5016  5009 5010 5017  5009 5016 5017  5011 5017 5018  5010 5011 5017  5011 5012 5019  5011 5018 5019  559 7190 7197  558 559 7190  7191 7197 7198  7190 7191 7197  7192 7198 7199  7191 7192 7198  7193 7199 7200  7192 7193 7199  7194 7200 7201  7193 7194 7200  7195 7201 7202  7194 7195 7201  7196 7202 7203  7195 7196 7202  571 7274 7281  570 571 7274  7275 7281 7282  7274 7275 7281  7276 7282 7283  7275 7276 7282  7277 7283 7284  7276 7277 7283  7278 7284 7285  7277 7278 7284  7279 7285 7286  7278 7279 7285  7280 7286 7287  7279 7280 7286  625 4971 4978  624 625 4971  4972 4978 4979  4971 4972 4978  4973 4979 4980  4972 4973 4979  4974 4980 4981  4973 4974 4980  4975 4981 4982  4974 4975 4981  4976 4982 4983  4975 4976 4982  4977 4983 4984  4976 4977 4983  627 4985 4992  626 627 4985  4985 4986 4993  4985 4992 4993  4987 4993 4994  4986 4987 4993  4987 4988 4995  4987 4994 4995  4988 4989 4996  4988 4995 4996  4990 4996 4997  4989 4990 4996  4990 4991 4998  4990 4997 4998  624 4964 4971  623 624 4964  4964 4965 4972  4964 4971 4972  4966 4972 4973  4965 4966 4972  4966 4967 4974  4966 4973 4974  4967 4968 4975  4967 4974 4975  4969 4975 4976  4968 4969 4975  4969 4970 4977  4969 4976 4977  628 4992 4999  627 628 4992  4993 4999 5000  4992 4993 4999  4994 5000 5001  4993 4994 5000  4995 5001 5002  4994 4995 5001  4996 5002 5003  4995 4996 5002  4997 5003 5004  4996 4997 5003  4998 5004 5005  4997 4998 5004  561 7204 7211  560 561 7204  7204 7205 7212  7204 7211 7212  7206 7212 7213  7205 7206 7212  7207 7213 7214  7206 7207 7213  7208 7214 7215  7207 7208 7214  7209 7215 7216  7208 7209 7215  7210 7216 7217  7209 7210 7216  564 7225 7232  563 564 7225  7225 7226 7233  7225 7232 7233  7227 7233 7234  7226 7227 7233  7227 7228 7235  7227 7234 7235  7228 7229 7236  7228 7235 7236  7230 7236 7237  7229 7230 7236  7230 7231 7238  7230 7237 7238  572 7281 7288  571 572 7281  7282 7288 7289  7281 7282 7288  7283 7289 7290  7282 7283 7289  7284 7290 7291  7283 7284 7290  7285 7291 7292  7284 7285 7291  7285 7286 7293  7285 7292 7293  7287 7293 7294  7286 7287 7293  562 7211 7218  561 562 7211  7212 7218 7219  7211 7212 7218  7213 7219 7220  7212 7213 7219  7214 7220 7221  7213 7214 7220  7215 7221 7222  7214 7215 7221  7216 7222 7223  7215 7216 7222  7217 7223 7224  7216 7217 7223  629 4999 5006  628 629 4999  4999 5000 5007  4999 5006 5007  5001 5007 5008  5000 5001 5007  5001 5002 5009  5001 5008 5009  5002 5003 5010  5002 5009 5010  5004 5010 5011  5003 5004 5010  5004 5005 5012  5004 5011 5012  560 7197 7204  559 560 7197  7198 7204 7205  7197 7198 7204  7199 7205 7206  7198 7199 7205  7200 7206 7207  7199 7200 7206  7201 7207 7208  7200 7201 7207  7202 7208 7209  7201 7202 7208  7203 7209 7210  7202 7203 7209  558 7183 7190  557 558 7183  7184 7190 7191  7183 7184 7190  7185 7191 7192  7184 7185 7191  7186 7192 7193  7185 7186 7192  7187 7193 7194  7186 7187 7193  7188 7194 7195  7187 7188 7194  7189 7195 7196  7188 7189 7195  467 6987 6994  466 467 6987  6988 6994 6995  6987 6988 6994  6989 6995 6996  6988 6989 6995  6990 6996 6997  6989 6990 6996  6991 6997 6998  6990 6991 6997  6992 6998 6999  6991 6992 6998  6992 6993 7000  6992 6999 7000  495 3165 3207  494 495 3207  3165 3166 3208  3165 3207 3208  3166 3167 3209  3166 3208 3209  3167 3168 3210  3167 3209 3210  3168 3169 3211  3168 3210 3211  3169 3170 3212  3169 3211 3212  3170 3171 3213  3170 3212 3213  494 3151 3207  493 494 3151  3151 3152 3208  3151 3207 3208  3153 3208 3209  3152 3153 3208  3153 3154 3210  3153 3209 3210  3154 3155 3211  3154 3210 3211  3156 3211 3212  3155 3156 3211  3156 3157 3213  3156 3212 3213  496 3165 4026  495 496 3165  3166 4026 4027  3165 3166 4026  3167 4027 4028  3166 3167 4027  3168 4028 4029  3167 3168 4028  3169 4029 4030  3168 3169 4029  3169 3170 4031  3169 4030 4031  3171 4031 4032  3170 3171 4031  492 3193 7162  491 492 7162  3194 7162 7163  3193 3194 7162  3194 3195 7164  3194 7163 7164  3196 7164 7165  3195 3196 7164  3197 7165 7166  3196 3197 7165  3197 3198 7167  3197 7166 7167  3199 7167 7168  3198 3199 7167  465 6973 6980  464 465 6973  6974 6980 6981  6973 6974 6980  6974 6975 6982  6974 6981 6982  6976 6982 6983  6975 6976 6982  6977 6983 6984  6976 6977 6983  6978 6984 6985  6977 6978 6984  6979 6985 6986  6978 6979 6985  491 7155 7162  490 491 7155  7156 7162 7163  7155 7156 7162  7157 7163 7164  7156 7157 7163  7158 7164 7165  7157 7158 7164  7159 7165 7166  7158 7159 7165  7160 7166 7167  7159 7160 7166  7161 7167 7168  7160 7161 7167  466 6980 6987  465 466 6980  6981 6987 6988  6980 6981 6987  6981 6982 6989  6981 6988 6989  6983 6989 6990  6982 6983 6989  6984 6990 6991  6983 6984 6990  6985 6991 6992  6984 6985 6991  6986 6992 6993  6985 6986 6992  498 3179 3998  497 498 3998  3179 3180 3999  3179 3998 3999  3180 3181 4000  3180 3999 4000  3181 3182 4001  3181 4000 4001  3182 3183 4002  3182 4001 4002  3183 3184 4003  3183 4002 4003  3184 3185 4004  3184 4003 4004  490 7148 7155  489 490 7148  7149 7155 7156  7148 7149 7155  7150 7156 7157  7149 7150 7156  7151 7157 7158  7150 7151 7157  7152 7158 7159  7151 7152 7158  7153 7159 7160  7152 7153 7159  7154 7160 7161  7153 7154 7160  464 6966 6973  463 464 6966  6967 6973 6974  6966 6967 6973  6968 6974 6975  6967 6968 6974  6968 6969 6976  6968 6975 6976  6970 6976 6977  6969 6970 6976  6971 6977 6978  6970 6971 6977  6972 6978 6979  6971 6972 6978  497 3998 4026  496 497 4026  3998 3999 4027  3998 4026 4027  3999 4000 4028  3999 4027 4028  4000 4001 4029  4000 4028 4029  4001 4002 4030  4001 4029 4030  4003 4030 4031  4002 4003 4030  4003 4004 4032  4003 4031 4032  493 3151 3193  492 493 3193  3152 3193 3194  3151 3152 3193  3152 3153 3195  3152 3194 3195  3154 3195 3196  3153 3154 3195  3155 3196 3197  3154 3155 3196  3155 3156 3198  3155 3197 3198  3157 3198 3199  3156 3157 3198  487 7127 7134  486 487 7127  7128 7134 7135  7127 7128 7134  7129 7135 7136  7128 7129 7135  7130 7136 7137  7129 7130 7136  7131 7137 7138  7130 7131 7137  7132 7138 7139  7131 7132 7138  7133 7139 7140  7132 7133 7139  487 7134 7141  487 488 7141  7135 7141 7142  7134 7135 7141  7136 7142 7143  7135 7136 7142  7137 7143 7144  7136 7137 7143  7138 7144 7145  7137 7138 7144  7138 7139 7146  7138 7145 7146  7140 7146 7147  7139 7140 7146  489 7141 7148  488 489 7141  7142 7148 7149  7141 7142 7148  7142 7143 7150  7142 7149 7150  7144 7150 7151  7143 7144 7150  7145 7151 7152  7144 7145 7151  7145 7146 7153  7145 7152 7153  7147 7153 7154  7146 7147 7153  457 6924 6931  457 458 6931  6925 6931 6932  6924 6925 6931  6926 6932 6933  6925 6926 6932  6927 6933 6934  6926 6927 6933  6928 6934 6935  6927 6928 6934  6929 6935 6936  6928 6929 6935  6930 6936 6937  6929 6930 6936  461 6945 6952  460 461 6945  6946 6952 6953  6945 6946 6952  6946 6947 6954  6946 6953 6954  6948 6954 6955  6947 6948 6954  6949 6955 6956  6948 6949 6955  6949 6950 6957  6949 6956 6957  6951 6957 6958  6950 6951 6957  463 6959 6966  462 463 6959  6960 6966 6967  6959 6960 6966  6961 6967 6968  6960 6961 6967  6961 6962 6969  6961 6968 6969  6963 6969 6970  6962 6963 6969  6964 6970 6971  6963 6964 6970  6965 6971 6972  6964 6965 6971  458 6931 6938  458 459 6938  6931 6932 6939  6931 6938 6939  6933 6939 6940  6932 6933 6939  6933 6934 6941  6933 6940 6941  6935 6941 6942  6934 6935 6941  6936 6942 6943  6935 6936 6942  6937 6943 6944  6936 6937 6943  447 6854 6861  447 448 6861  6855 6861 6862  6854 6855 6861  6856 6862 6863  6855 6856 6862  6856 6857 6864  6856 6863 6864  6858 6864 6865  6857 6858 6864  6858 6859 6866  6858 6865 6866  6860 6866 6867  6859 6860 6866  454 6896 6903  453 454 6896  6896 6897 6904  6896 6903 6904  6898 6904 6905  6897 6898 6904  6899 6905 6906  6898 6899 6905  6900 6906 6907  6899 6900 6906  6901 6907 6908  6900 6901 6907  6902 6908 6909  6901 6902 6908  455 6903 6910  454 455 6903  6903 6904 6911  6903 6910 6911  6905 6911 6912  6904 6905 6911  6906 6912 6913  6905 6906 6912  6907 6913 6914  6906 6907 6913  6908 6914 6915  6907 6908 6914  6909 6915 6916  6908 6909 6915  453 6889 6896  452 453 6889  6890 6896 6897  6889 6890 6896  6891 6897 6898  6890 6891 6897  6891 6892 6899  6891 6898 6899  6893 6899 6900  6892 6893 6899  6894 6900 6901  6893 6894 6900  6895 6901 6902  6894 6895 6901  460 6938 6945  459 460 6938  6939 6945 6946  6938 6939 6945  6940 6946 6947  6939 6940 6946  6940 6941 6948  6940 6947 6948  6942 6948 6949  6941 6942 6948  6943 6949 6950  6942 6943 6949  6944 6950 6951  6943 6944 6950  452 6882 6889  451 452 6882  6883 6889 6890  6882 6883 6889  6884 6890 6891  6883 6884 6890  6885 6891 6892  6884 6885 6891  6885 6886 6893  6885 6892 6893  6887 6893 6894  6886 6887 6893  6888 6894 6895  6887 6888 6894  462 6952 6959  461 462 6952  6953 6959 6960  6952 6953 6959  6954 6960 6961  6953 6954 6960  6955 6961 6962  6954 6955 6961  6956 6962 6963  6955 6956 6962  6956 6957 6964  6956 6963 6964  6958 6964 6965  6957 6958 6964  449 6868 6875  449 450 6875  6869 6875 6876  6868 6869 6875  6870 6876 6877  6869 6870 6876  6871 6877 6878  6870 6871 6877  6872 6878 6879  6871 6872 6878  6873 6879 6880  6872 6873 6879  6874 6880 6881  6873 6874 6880  451 6875 6882  450 451 6875  6876 6882 6883  6875 6876 6882  6876 6877 6884  6876 6883 6884  6878 6884 6885  6877 6878 6884  6879 6885 6886  6878 6879 6885  6880 6886 6887  6879 6880 6886  6881 6887 6888  6880 6881 6887  448 6861 6868  448 449 6868  6862 6868 6869  6861 6862 6868  6862 6863 6870  6862 6869 6870  6864 6870 6871  6863 6864 6870  6865 6871 6872  6864 6865 6871  6866 6872 6873  6865 6866 6872  6867 6873 6874  6866 6867 6873  456 6910 6917  455 456 6910  6911 6917 6918  6910 6911 6917  6912 6918 6919  6911 6912 6918  6912 6913 6920  6912 6919 6920  6914 6920 6921  6913 6914 6920  6915 6921 6922  6914 6915 6921  6916 6922 6923  6915 6916 6922  456 6917 6924  456 457 6924  6918 6924 6925  6917 6918 6924  6919 6925 6926  6918 6919 6925  6920 6926 6927  6919 6920 6926  6921 6927 6928  6920 6921 6927  6922 6928 6929  6921 6922 6928  6923 6929 6930  6922 6923 6929  802 4376 4383  801 802 4376  4377 4383 4384  4376 4377 4383  4378 4384 4385  4377 4378 4384  4379 4385 4386  4378 4379 4385  4380 4386 4387  4379 4380 4386  4381 4387 4388  4380 4381 4387  4382 4388 4389  4381 4382 4388  798 4348 4355  797 798 4348  4348 4349 4356  4348 4355 4356  4349 4350 4357  4349 4356 4357  4351 4357 4358  4350 4351 4357  4352 4358 4359  4351 4352 4358  4353 4359 4360  4352 4353 4359  4354 4360 4361  4353 4354 4360  806 4404 4411  805 806 4404  4405 4411 4412  4404 4405 4411  4406 4412 4413  4405 4406 4412  4407 4413 4414  4406 4407 4413  4408 4414 4415  4407 4408 4414  4409 4415 4416  4408 4409 4415  4409 4410 4417  4409 4416 4417  801 4369 4376  800 801 4369  4370 4376 4377  4369 4370 4376  4371 4377 4378  4370 4371 4377  4372 4378 4379  4371 4372 4378  4373 4379 4380  4372 4373 4379  4374 4380 4381  4373 4374 4380  4375 4381 4382  4374 4375 4381  807 4411 4418  806 807 4411  4412 4418 4419  4411 4412 4418  4413 4419 4420  4412 4413 4419  4414 4420 4421  4413 4414 4420  4415 4421 4422  4414 4415 4421  4416 4422 4423  4415 4416 4422  4417 4423 4424  4416 4417 4423  799 4355 4362  798 799 4355  4356 4362 4363  4355 4356 4362  4356 4357 4364  4356 4363 4364  4358 4364 4365  4357 4358 4364  4358 4359 4366  4358 4365 4366  4360 4366 4367  4359 4360 4366  4361 4367 4368  4360 4361 4367  803 4383 4390  802 803 4383  4384 4390 4391  4383 4384 4390  4384 4385 4392  4384 4391 4392  4386 4392 4393  4385 4386 4392  4387 4393 4394  4386 4387 4393  4388 4394 4395  4387 4388 4394  4389 4395 4396  4388 4389 4395  804 4390 4397  803 804 4390  4391 4397 4398  4390 4391 4397  4392 4398 4399  4391 4392 4398  4393 4399 4400  4392 4393 4399  4394 4400 4401  4393 4394 4400  4394 4395 4402  4394 4401 4402  4396 4402 4403  4395 4396 4402  800 4362 4369  799 800 4362  4363 4369 4370  4362 4363 4369  4363 4364 4371  4363 4370 4371  4365 4371 4372  4364 4365 4371  4366 4372 4373  4365 4366 4372  4367 4373 4374  4366 4367 4373  4368 4374 4375  4367 4368 4374  795 4327 4334  794 795 4327  4328 4334 4335  4327 4328 4334  4329 4335 4336  4328 4329 4335  4329 4330 4337  4329 4336 4337  4331 4337 4338  4330 4331 4337  4332 4338 4339  4331 4332 4338  4333 4339 4340  4332 4333 4339  796 4341 4348  796 797 4348  4342 4348 4349  4341 4342 4348  4343 4349 4350  4342 4343 4349  4344 4350 4351  4343 4344 4350  4345 4351 4352  4344 4345 4351  4346 4352 4353  4345 4346 4352  4347 4353 4354  4346 4347 4353  805 4397 4404  804 805 4397  4398 4404 4405  4397 4398 4404  4399 4405 4406  4398 4399 4405  4400 4406 4407  4399 4400 4406  4401 4407 4408  4400 4401 4407  4402 4408 4409  4401 4402 4408  4403 4409 4410  4402 4403 4409  794 4320 4327  793 794 4320  4320 4321 4328  4320 4327 4328  4322 4328 4329  4321 4322 4328  4323 4329 4330  4322 4323 4329  4324 4330 4331  4323 4324 4330  4325 4331 4332  4324 4325 4331  4326 4332 4333  4325 4326 4332  793 4313 4320  792 793 4313  4314 4320 4321  4313 4314 4320  4315 4321 4322  4314 4315 4321  4316 4322 4323  4315 4316 4322  4317 4323 4324  4316 4317 4323  4317 4318 4325  4317 4324 4325  4318 4319 4326  4318 4325 4326  795 4334 4341  795 796 4341  4335 4341 4342  4334 4335 4341  4336 4342 4343  4335 4336 4342  4337 4343 4344  4336 4337 4343  4338 4344 4345  4337 4338 4344  4339 4345 4346  4338 4339 4345  4340 4346 4347  4339 4340 4346  781 4229 4236  780 781 4229  4230 4236 4237  4229 4230 4236  4231 4237 4238  4230 4231 4237  4232 4238 4239  4231 4232 4238  4233 4239 4240  4232 4233 4239  4234 4240 4241  4233 4234 4240  4235 4241 4242  4234 4235 4241  779 4215 4222  778 779 4215  4216 4222 4223  4215 4216 4222  4217 4223 4224  4216 4217 4223  4218 4224 4225  4217 4218 4224  4219 4225 4226  4218 4219 4225  4220 4226 4227  4219 4220 4226  4221 4227 4228  4220 4221 4227  789 4285 4292  788 789 4285  4286 4292 4293  4285 4286 4292  4287 4293 4294  4286 4287 4293  4288 4294 4295  4287 4288 4294  4289 4295 4296  4288 4289 4295  4290 4296 4297  4289 4290 4296  4291 4297 4298  4290 4291 4297  788 4278 4285  787 788 4278  4279 4285 4286  4278 4279 4285  4280 4286 4287  4279 4280 4286  4281 4287 4288  4280 4281 4287  4282 4288 4289  4281 4282 4288  4282 4283 4290  4282 4289 4290  4284 4290 4291  4283 4284 4290  787 4271 4278  786 787 4271  4272 4278 4279  4271 4272 4278  4273 4279 4280  4272 4273 4279  4274 4280 4281  4273 4274 4280  4275 4281 4282  4274 4275 4281  4276 4282 4283  4275 4276 4282  4277 4283 4284  4276 4277 4283  791 4299 4306  790 791 4299  4300 4306 4307  4299 4300 4306  4300 4301 4308  4300 4307 4308  4302 4308 4309  4301 4302 4308  4303 4309 4310  4302 4303 4309  4304 4310 4311  4303 4304 4310  4305 4311 4312  4304 4305 4311  785 4257 4264  784 785 4257  4258 4264 4265  4257 4258 4264  4259 4265 4266  4258 4259 4265  4260 4266 4267  4259 4260 4266  4261 4267 4268  4260 4261 4267  4262 4268 4269  4261 4262 4268  4263 4269 4270  4262 4263 4269  777 4201 4208  776 777 4201  4202 4208 4209  4201 4202 4208  4203 4209 4210  4202 4203 4209  4204 4210 4211  4203 4204 4210  4205 4211 4212  4204 4205 4211  4206 4212 4213  4205 4206 4212  4207 4213 4214  4206 4207 4213  778 4208 4215  777 778 4208  4209 4215 4216  4208 4209 4215  4210 4216 4217  4209 4210 4216  4211 4217 4218  4210 4211 4217  4212 4218 4219  4211 4212 4218  4213 4219 4220  4212 4213 4219  4214 4220 4221  4213 4214 4220  786 4264 4271  785 786 4264  4265 4271 4272  4264 4265 4271  4266 4272 4273  4265 4266 4272  4267 4273 4274  4266 4267 4273  4268 4274 4275  4267 4268 4274  4269 4275 4276  4268 4269 4275  4270 4276 4277  4269 4270 4276  782 4243 4250  782 783 4250  4244 4250 4251  4243 4244 4250  4244 4245 4252  4244 4251 4252  4246 4252 4253  4245 4246 4252  4247 4253 4254  4246 4247 4253  4247 4248 4255  4247 4254 4255  4249 4255 4256  4248 4249 4255  782 4236 4243  781 782 4236  4237 4243 4244  4236 4237 4243  4238 4244 4245  4237 4238 4244  4239 4245 4246  4238 4239 4245  4240 4246 4247  4239 4240 4246  4241 4247 4248  4240 4241 4247  4242 4248 4249  4241 4242 4248  790 4292 4299  789 790 4292  4293 4299 4300  4292 4293 4299  4294 4300 4301  4293 4294 4300  4295 4301 4302  4294 4295 4301  4296 4302 4303  4295 4296 4302  4296 4297 4304  4296 4303 4304  4298 4304 4305  4297 4298 4304  784 4250 4257  783 784 4250  4251 4257 4258  4250 4251 4257  4252 4258 4259  4251 4252 4258  4253 4259 4260  4252 4253 4259  4254 4260 4261  4253 4254 4260  4255 4261 4262  4254 4255 4261  4256 4262 4263  4255 4256 4262  779 4222 4229  779 780 4229  4223 4229 4230  4222 4223 4229  4224 4230 4231  4223 4224 4230  4225 4231 4232  4224 4225 4231  4226 4232 4233  4225 4226 4232  4227 4233 4234  4226 4227 4233  4228 4234 4235  4227 4228 4234  791 4306 4313  791 792 4313  4307 4313 4314  4306 4307 4313  4308 4314 4315  4307 4308 4314  4309 4315 4316  4308 4309 4315  4310 4316 4317  4309 4310 4316  4311 4317 4318  4310 4311 4317  4311 4312 4319  4311 4318 4319  693 5447 5454  692 693 5447  5448 5454 5455  5447 5448 5454  5449 5455 5456  5448 5449 5455  5450 5456 5457  5449 5450 5456  5451 5457 5458  5450 5451 5457  5452 5458 5459  5451 5452 5458  5453 5459 5460  5452 5453 5459  716 5608 5615  715 716 5608  5609 5615 5616  5608 5609 5615  5610 5616 5617  5609 5610 5616  5611 5617 5618  5610 5611 5617  5612 5618 5619  5611 5612 5618  5613 5619 5620  5612 5613 5619  5614 5620 5621  5613 5614 5620  715 5601 5608  714 715 5601  5602 5608 5609  5601 5602 5608  5603 5609 5610  5602 5603 5609  5604 5610 5611  5603 5604 5610  5605 5611 5612  5604 5605 5611  5606 5612 5613  5605 5606 5612  5607 5613 5614  5606 5607 5613  696 5468 5475  695 696 5468  5469 5475 5476  5468 5469 5475  5470 5476 5477  5469 5470 5476  5471 5477 5478  5470 5471 5477  5472 5478 5479  5471 5472 5478  5473 5479 5480  5472 5473 5479  5474 5480 5481  5473 5474 5480  714 5594 5601  713 714 5594  5595 5601 5602  5594 5595 5601  5596 5602 5603  5595 5596 5602  5597 5603 5604  5596 5597 5603  5598 5604 5605  5597 5598 5604  5599 5605 5606  5598 5599 5605  5600 5606 5607  5599 5600 5606  710 5566 5573  709 710 5566  5567 5573 5574  5566 5567 5573  5568 5574 5575  5567 5568 5574  5569 5575 5576  5568 5569 5575  5570 5576 5577  5569 5570 5576  5571 5577 5578  5570 5571 5577  5572 5578 5579  5571 5572 5578  699 5489 5496  698 699 5489  5490 5496 5497  5489 5490 5496  5491 5497 5498  5490 5491 5497  5492 5498 5499  5491 5492 5498  5493 5499 5500  5492 5493 5499  5494 5500 5501  5493 5494 5500  5495 5501 5502  5494 5495 5501  720 5636 5643  719 720 5636  5637 5643 5644  5636 5637 5643  5638 5644 5645  5637 5638 5644  5639 5645 5646  5638 5639 5645  5640 5646 5647  5639 5640 5646  5641 5647 5648  5640 5641 5647  5642 5648 5649  5641 5642 5648  695 5461 5468  694 695 5461  5462 5468 5469  5461 5462 5468  5462 5463 5470  5462 5469 5470  5464 5470 5471  5463 5464 5470  5465 5471 5472  5464 5465 5471  5466 5472 5473  5465 5466 5472  5466 5467 5474  5466 5473 5474  698 5482 5489  697 698 5482  5483 5489 5490  5482 5483 5489  5484 5490 5491  5483 5484 5490  5485 5491 5492  5484 5485 5491  5486 5492 5493  5485 5486 5492  5487 5493 5494  5486 5487 5493  5488 5494 5495  5487 5488 5494  694 5454 5461  693 694 5454  5455 5461 5462  5454 5455 5461  5456 5462 5463  5455 5456 5462  5457 5463 5464  5456 5457 5463  5458 5464 5465  5457 5458 5464  5458 5459 5466  5458 5465 5466  5460 5466 5467  5459 5460 5466  697 5475 5482  696 697 5475  5476 5482 5483  5475 5476 5482  5477 5483 5484  5476 5477 5483  5478 5484 5485  5477 5478 5484  5479 5485 5486  5478 5479 5485  5480 5486 5487  5479 5480 5486  5481 5487 5488  5480 5481 5487  719 5629 5636  718 719 5629  5630 5636 5637  5629 5630 5636  5631 5637 5638  5630 5631 5637  5632 5638 5639  5631 5632 5638  5633 5639 5640  5632 5633 5639  5634 5640 5641  5633 5634 5640  5635 5641 5642  5634 5635 5641  718 5622 5629  717 718 5622  5623 5629 5630  5622 5623 5629  5624 5630 5631  5623 5624 5630  5625 5631 5632  5624 5625 5631  5626 5632 5633  5625 5626 5632  5627 5633 5634  5626 5627 5633  5628 5634 5635  5627 5628 5634  717 5615 5622  716 717 5615  5616 5622 5623  5615 5616 5622  5617 5623 5624  5616 5617 5623  5618 5624 5625  5617 5618 5624  5619 5625 5626  5618 5619 5625  5620 5626 5627  5619 5620 5626  5621 5627 5628  5620 5621 5627  687 5405 5412  686 687 5405  5406 5412 5413  5405 5406 5412  5407 5413 5414  5406 5407 5413  5408 5414 5415  5407 5408 5414  5409 5415 5416  5408 5409 5415  5410 5416 5417  5409 5410 5416  5411 5417 5418  5410 5411 5417  663 5237 5244  662 663 5237  5238 5244 5245  5237 5238 5244  5239 5245 5246  5238 5239 5245  5240 5246 5247  5239 5240 5246  5241 5247 5248  5240 5241 5247  5242 5248 5249  5241 5242 5248  5243 5249 5250  5242 5243 5249  666 5258 5265  665 666 5258  5259 5265 5266  5258 5259 5265  5260 5266 5267  5259 5260 5266  5261 5267 5268  5260 5261 5267  5262 5268 5269  5261 5262 5268  5263 5269 5270  5262 5263 5269  5264 5270 5271  5263 5264 5270  686 5398 5405  685 686 5398  5399 5405 5406  5398 5399 5405  5400 5406 5407  5399 5400 5406  5401 5407 5408  5400 5401 5407  5402 5408 5409  5401 5402 5408  5403 5409 5410  5402 5403 5409  5404 5410 5411  5403 5404 5410  673 5307 5314  672 673 5307  5308 5314 5315  5307 5308 5314  5309 5315 5316  5308 5309 5315  5310 5316 5317  5309 5310 5316  5311 5317 5318  5310 5311 5317  5312 5318 5319  5311 5312 5318  5313 5319 5320  5312 5313 5319  672 5300 5307  671 672 5300  5301 5307 5308  5300 5301 5307  5302 5308 5309  5301 5302 5308  5303 5309 5310  5302 5303 5309  5304 5310 5311  5303 5304 5310  5305 5311 5312  5304 5305 5311  5306 5312 5313  5305 5306 5312  670 5286 5293  669 670 5286  5287 5293 5294  5286 5287 5293  5288 5294 5295  5287 5288 5294  5289 5295 5296  5288 5289 5295  5290 5296 5297  5289 5290 5296  5291 5297 5298  5290 5291 5297  5292 5298 5299  5291 5292 5298  665 5251 5258  664 665 5251  5252 5258 5259  5251 5252 5258  5253 5259 5260  5252 5253 5259  5254 5260 5261  5253 5254 5260  5255 5261 5262  5254 5255 5261  5256 5262 5263  5255 5256 5262  5257 5263 5264  5256 5257 5263  669 5279 5286  668 669 5279  5280 5286 5287  5279 5280 5286  5281 5287 5288  5280 5281 5287  5282 5288 5289  5281 5282 5288  5283 5289 5290  5282 5283 5289  5284 5290 5291  5283 5284 5290  5285 5291 5292  5284 5285 5291  671 5293 5300  670 671 5293  5294 5300 5301  5293 5294 5300  5295 5301 5302  5294 5295 5301  5296 5302 5303  5295 5296 5302  5297 5303 5304  5296 5297 5303  5298 5304 5305  5297 5298 5304  5299 5305 5306  5298 5299 5305  657 5195 5202  656 657 5195  5196 5202 5203  5195 5196 5202  5197 5203 5204  5196 5197 5203  5198 5204 5205  5197 5198 5204  5199 5205 5206  5198 5199 5205  5200 5206 5207  5199 5200 5206  5201 5207 5208  5200 5201 5207  674 5314 5321  673 674 5314  5315 5321 5322  5314 5315 5321  5316 5322 5323  5315 5316 5322  5317 5323 5324  5316 5317 5323  5318 5324 5325  5317 5318 5324  5319 5325 5326  5318 5319 5325  5320 5326 5327  5319 5320 5326  667 5265 5272  666 667 5265  5266 5272 5273  5265 5266 5272  5267 5273 5274  5266 5267 5273  5268 5274 5275  5267 5268 5274  5269 5275 5276  5268 5269 5275  5270 5276 5277  5269 5270 5276  5270 5271 5278  5270 5277 5278  668 5272 5279  667 668 5272  5273 5279 5280  5272 5273 5279  5274 5280 5281  5273 5274 5280  5275 5281 5282  5274 5275 5281  5276 5282 5283  5275 5276 5282  5277 5283 5284  5276 5277 5283  5278 5284 5285  5277 5278 5284  664 5244 5251  663 664 5244  5245 5251 5252  5244 5245 5251  5246 5252 5253  5245 5246 5252  5247 5253 5254  5246 5247 5253  5248 5254 5255  5247 5248 5254  5249 5255 5256  5248 5249 5255  5250 5256 5257  5249 5250 5256  688 5412 5419  687 688 5412  5413 5419 5420  5412 5413 5419  5414 5420 5421  5413 5414 5420  5415 5421 5422  5414 5415 5421  5416 5422 5423  5415 5416 5422  5416 5417 5424  5416 5423 5424  5418 5424 5425  5417 5418 5424  </DataArray>
<DataArray  type="UInt32"  Name="offsets"  format="ascii">3 6 9 12 15 18 21 24 27 30 33 36 39 42 45 48 51 54 57 60 63 66 69 72 75 78 81 84 87 90 93 96 99 102 105 108 111 114 117 120 123 126 129 132 135 138 141 144 147 150 153 156 159 162 165 168 171 174 177 180 183 186 189 192 195 198 201 204 207 210 213 216 219 222 225 228 231 234 237 240 243 246 249 252 255 258 261 264 267 270 273 276 279 282 285 288 291 294 297 300 303 306 309 312 315 318 321 324 327 330 333 336 339 342 345 348 351 354 357 360 363 366 369 372 375 378 381 384 387 390 393 396 399 402 405 408 411 414 417 420 423 426 429 432 435 438 441 444 447 450 453 456 459 462 465 468 471 474 477 480 483 486 489 492 495 498 501 504 507 510 513 516 519 522 525 528 531 534 537 540 543 546 549 552 555 558 561 564 567 570 573 576 579 582 585 588 591 594 597 600 603 606 609 612 615 618 621 624 627 630 633 636 639 642 645 648 651 654 657 660 663 666 669 672 675 678 681 684 687 690 693 696 699 702 705 708 711 714 717 720 723 726 729 732 735 738 741 744 747 750 753 756 759 762 765 768 771 774 777 780 783 786 789 792 795 798 801 804 807 810 813 816 819 822 825 828 831 834 837 840 843 846 849 852 855 858 861 864 867 870 873 876 879 882 885 888 891 894 897 900 903 906 909 912 915 918 921 924 927 930 933 936 939 942 945 948 951 954 957 960 963 966 969 972 975 978 981 984 987 990 993 996 999 1002 1005 1008 1011 1014 1017 1020 1023 1026 1029 1032 1035 1038 1041 1044 1047 1050 1053 1056 1059 1062 1065 1068 1071 1074 1077 1080 1083 1086 1089 1092 1095 1098 1101 1104 1107 1110 1113 1116 1119 1122 1125 1128 1131 1134 1137 1140 1143 1146 1149 1152 1155 1158 1161 1164 1167 1170 1173 1176 1179 1182 1185 1188 1191 1194 1197 1200 1203 1206 1209 1212 1215 1218 1221 1224 1227 1230 1233 1236 1239 1242 1245 1248 1251 1254 1257 1260 1263 1266 1269 1272 1275 1278 1281 1284 1287 1290 1293 1296 1299 1302 1305 1308 1311 1314 1317 1320 1323 1326 1329 1332 1335 1338 1341 1344 1347 1350 1353 1356 1359 1362 1365 1368 1371 1374 1377 1380 1383 1386 1389 1392 1395 1398 1401 1404 1407 1410 1413 1416 1419 1422 1425 1428 1431 1434 1437 1440 1443 1446 1449 1452 1455 1458 1461 1464 1467 1470 1473 1476 1479 1482 1485 1488 1491 1494 1497 1500 1503 1506 1509 1512 1515 1518 1521 1524 1527 1530 1533 1536 1539 1542 1545 1548 1551 1554 1557 1560 1563 1566 1569 1572 1575 1578 1581 1584 1587 1590 1593 1596 1599 1602 1605 1608 1611 1614 1617 1620 1623 1626 1629 1632 1635 1638 1641 1644 1647 1650 1653 1656 1659 1662 1665 1668 1671 1674 1677 1680 1683 1686 1689 1692 1695 1698 1701 1704 1707 1710 1713 1716 1719 1722 1725 1728 1731 1734 1737 1740 1743 1746 1749 1752 1755 1758 1761 1764 1767 1770 1773 1776 1779 1782 1785 1788 1791 1794 1797 1800 1803 1806 1809 1812 1815 1818 1821 1824 1827 1830 1833 1836 1839 1842 1845 1848 1851 1854 1857 1860 1863 1866 1869 1872 1875 1878 1881 1884 1887 1890 1893 1896 1899 1902 1905 1908 1911 1914 1917 1920 1923 1926 1929 1932 1935 1938 1941 1944 1947 1950 1953 1956 1959 1962 1965 1968 1971 1974 1977 1980 1983 1986 1989 1992 1995 1998 2001 2004 2007 2010 2013 2016 2019 2022 2025 2028 2031 2034 2037 2040 2043 2046 2049 2052 2055 2058 2061 2064 2067 2070 2073 2076 2079 2082 2085 2088 2091 2094 2097 2100 2103 2106 2109 2112 2115 2118 2121 2124 2127 2130 2133 2136 2139 2142 2145 2148 2151 2154 2157 2160 2163 2166 2169 2172 2175 2178 2181 2184 2187 2190 2193 2196 2199 2202 2205 2208 2211 2214 2217 2220 2223 2226 2229 2232 2235 2238 2241 2244 2247 2250 2253 2256 2259 2262 2265 2268 2271 2274 2277 2280 2283 2286 2289 2292 2295 2298 2301 2304 2307 2310 2313 2316 2319 2322 2325 2328 2331 2334 2337 2340 2343 2346 2349 2352 2355 2358 2361 2364 2367 2370 2373 2376 2379 2382 2385 2388 2391 2394 2397 2400 2403 2406 2409 2412 2415 2418 2421 2424 2427 2430 2433 2436 2439 2442 2445 2448 2451 2454 2457 2460 2463 2466 2469 2472 2475 2478 2481 2484 2487 2490 2493 2496 2499 2502 2505 2508 2511 2514 2517 2520 2523 2526 2529 2532 2535 2538 2541 2544 2547 2550 2553 2556 2559 2562 2565 2568 2571 2574 2577 2580 2583 2586 2589 2592 2595 2598 2601 2604 2607 2610 2613 2616 2619 2622 2625 2628 2631 2634 2637 2640 2643 2646 2649 2652 2655 2658 2661 2664 2667 2670 2673 2676 2679 2682 2685 2688 2691 2694 2697 2700 2703 2706 2709 2712 2715 2718 2721 2724 2727 2730 2733 2736 2739 2742 2745 2748 2751 2754 2757 2760 2763 2766 2769 2772 2775 2778 2781 2784 2787 2790 2793 2796 2799 2802 2805 2808 2811 2814 2817 2820 2823 2826 2829 2832 2835 2838 2841 2844 2847 2850 2853 2856 2859 2862 2865 2868 2871 2874 2877 2880 2883 2886 2889 2892 2895 2898 2901 2904 2907 2910 2913 2916 2919 2922 2925 2928 2931 2934 2937 2940 2943 2946 2949 2952 2955 2958 2961 2964 2967 2970 2973 2976 2979 2982 2985 2988 2991 2994 2997 3000 3003 3006 3009 3012 3015 3018 3021 3024 3027 3030 3033 3036 3039 3042 3045 3048 3051 3054 3057 3060 3063 3066 3069 3072 3075 3078 3081 3084 3087 3090 3093 3096 3099 3102 3105 3108 3111 3114 3117 3120 3123 3126 3129 3132 3135 3138 3141 3144 3147 3150 3153 3156 3159 3162 3165 3168 3171 3174 3177 3180 3183 3186 3189 3192 3195 3198 3201 3204 3207 3210 3213 3216 3219 3222 3225 3228 3231 3234 3237 3240 3243 3246 3249 3252 3255 3258 3261 3264 3267 3270 3273 3276 3279 3282 3285 3288 3291 3294 3297 3300 3303 3306 3309 3312 3315 3318 3321 3324 3327 3330 3333 3336 3339 3342 3345 3348 3351 3354 3357 3360 3363 3366 3369 3372 3375 3378 3381 3384 3387 3390 3393 3396 3399 3402 3405 3408 3411 3414 3417 3420 3423 3426 3429 3432 3435 3438 3441 3444 3447 3450 3453 3456 3459 3462 3465 3468 3471 3474 3477 3480 3483 3486 3489 3492 3495 3498 3501 3504 3507 3510 3513 3516 3519 3522 3525 3528 3531 3534 3537 3540 3543 3546 3549 3552 3555 3558 3561 3564 3567 3570 3573 3576 3579 3582 3585 3588 3591 3594 3597 3600 3603 3606 3609 3612 3615 3618 3621 3624 3627 3630 3633 3636 3639 3642 3645 3648 3651 3654 3657 3660 3663 3666 3669 3672 3675 3678 3681 3684 3687 3690 3693 3696 3699 3702 3705 3708 3711 3714 3717 3720 3723 3726 3729 3732 3735 3738 3741 3744 3747 3750 3753 3756 3759 3762 3765 3768 3771 3774 3777 3780 3783 3786 3789 3792 3795 3798 3801 3804 3807 3810 3813 3816 3819 3822 3825 3828 3831 3834 3837 3840 3843 3846 3849 3852 3855 3858 3861 3864 3867 3870 3873 3876 3879 3882 3885 3888 3891 3894 3897 3900 3903 3906 3909 3912 3915 3918 3921 3924 3927 3930 3933 3936 3939 3942 3945 3948 3951 3954 3957 3960 3963 3966 3969 3972 3975 3978 3981 3984 3987 3990 3993 3996 3999 4002 4005 4008 4011 4014 4017 4020 4023 4026 4029 4032 4035 4038 4041 4044 4047 4050 4053 4056 4059 4062 4065 4068 4071 4074 4077 4080 4083 4086 4089 4092 4095 4098 4101 4104 4107 4110 4113 4116 4119 4122 4125 4128 4131 4134 4137 4140 4143 4146 4149 4152 4155 4158 4161 4164 4167 4170 4173 4176 4179 4182 4185 4188 4191 4194 4197 4200 4203 4206 4209 4212 4215 4218 4221 4224 4227 4230 4233 4236 4239 4242 4245 4248 4251 4254 4257 4260 4263 4266 4269 4272 4275 4278 4281 4284 4287 4290 4293 4296 4299 4302 4305 4308 4311 4314 4317 4320 4323 4326 4329 4332 4335 4338 4341 4344 4347 4350 4353 4356 4359 4362 4365 4368 4371 4374 4377 4380 4383 4386 4389 4392 4395 4398 4401 4404 4407 4410 4413 4416 4419 4422 4425 4428 4431 4434 4437 4440 4443 4446 4449 4452 4455 4458 4461 4464 4467 4470 4473 4476 4479 4482 4485 4488 4491 4494 4497 4500 4503 4506 4509 4512 4515 4518 4521 4524 4527 4530 4533 4536 4539 4542 4545 4548 4551 4554 4557 4560 4563 4566 4569 4572 4575 4578 4581 4584 4587 4590 4593 4596 4599 4602 4605 4608 4611 4614 4617 4620 4623 4626 4629 4632 4635 4638 4641 4644 4647 4650 4653 4656 4659 4662 4665 4668 4671 4674 4677 4680 4683 4686 4689 4692 4695 4698 4701 4704 4707 4710 4713 4716 4719 4722 4725 4728 4731 4734 4737 4740 4743 4746 4749 4752 4755 4758 4761 4764 4767 4770 4773 4776 4779 4782 4785 4788 4791 4794 4797 4800 4803 4806 4809 4812 4815 4818 4821 4824 4827 4830 4833 4836 4839 4842 4845 4848 4851 4854 4857 4860 4863 4866 4869 4872 4875 4878 4881 4884 4887 4890 4893 4896 4899 4902 4905 4908 4911 4914 4917 4920 4923 4926 4929 4932 4935 4938 4941 4944 4947 4950 4953 4956 4959 4962 4965 4968 4971 4974 4977 4980 4983 4986 4989 4992 4995 4998 5001 5004 5007 5010 5013 5016 5019 5022 5025 5028 5031 5034 5037 5040 5043 5046 5049 5052 5055 5058 5061 5064 5067 5070 5073 5076 5079 5082 5085 5088 5091 5094 5097 5100 5103 5106 5109 5112 5115 5118 5121 5124 5127 5130 5133 5136 5139 5142 5145 5148 5151 5154 5157 5160 5163 5166 5169 5172 5175 5178 5181 5184 5187 5190 5193 5196 5199 5202 5205 5208 5211 5214 5217 5220 5223 5226 5229 5232 5235 5238 5241 5244 5247 5250 5253 5256 5259 5262 5265 5268 5271 5274 5277 5280 5283 5286 5289 5292 5295 5298 5301 5304 5307 5310 5313 5316 5319 5322 5325 5328 5331 5334 5337 5340 5343 5346 5349 5352 5355 5358 5361 5364 5367 5370 5373 5376 5379 5382 5385 5388 5391 5394 5397 5400 5403 5406 5409 5412 5415 5418 5421 5424 5427 5430 5433 5436 5439 5442 5445 5448 5451 5454 5457 5460 5463 5466 5469 5472 5475 5478 5481 5484 5487 5490 5493 5496 5499 5502 5505 5508 5511 5514 5517 5520 5523 5526 5529 5532 5535 5538 5541 5544 5547 5550 5553 5556 5559 5562 5565 5568 5571 5574 5577 5580 5583 5586 5589 5592 5595 5598 5601 5604 5607 5610 5613 5616 5619 5622 5625 5628 5631 5634 5637 5640 5643 5646 5649 5652 5655 5658 5661 5664 5667 5670 5673 5676 5679 5682 5685 5688 5691 5694 5697 5700 5703 5706 5709 5712 5715 5718 5721 5724 5727 5730 5733 5736 5739 5742 5745 5748 5751 5754 5757 5760 5763 5766 5769 5772 5775 5778 5781 5784 5787 5790 5793 5796 5799 5802 5805 5808 5811 5814 5817 5820 5823 5826 5829 5832 5835 5838 5841 5844 5847 5850 5853 5856 5859 5862 5865 5868 5871 5874 5877 5880 5883 5886 5889 5892 5895 5898 5901 5904 5907 5910 5913 5916 5919 5922 5925 5928 5931 5934 5937 5940 5943 5946 5949 5952 5955 5958 5961 5964 5967 5970 5973 5976 5979 5982 5985 5988 5991 5994 5997 6000 6003 6006 6009 6012 6015 6018 6021 6024 6027 6030 6033 6036 6039 6042 6045 6048 6051 6054 6057 6060 6063 6066 6069 6072 6075 6078 6081 6084 6087 6090 6093 6096 6099 6102 6105 6108 6111 6114 6117 6120 6123 6126 6129 6132 6135 6138 6141 6144 6147 6150 6153 6156 6159 6162 6165 6168 6171 6174 6177 6180 6183 6186 6189 6192 6195 6198 6201 6204 6207 6210 6213 6216 6219 6222 6225 6228 6231 6234 6237 6240 6243 6246 6249 6252 6255 6258 6261 6264 6267 6270 6273 6276 6279 6282 6285 6288 6291 6294 6297 6300 6303 6306 6309 6312 6315 6318 6321 6324 6327 6330 6333 6336 6339 6342 6345 6348 6351 6354 6357 6360 6363 6366 6369 6372 6375 6378 6381 6384 6387 6390 6393 6396 6399 6402 6405 6408 6411 6414 6417 6420 6423 6426 6429 6432 6435 6438 6441 6444 6447 6450 6453 6456 6459 6462 6465 6468 6471 6474 6477 6480 6483 6486 6489 6492 6495 6498 6501 6504 6507 6510 6513 6516 6519 6522 6525 6528 6531 6534 6537 6540 6543 6546 6549 6552 6555 6558 6561 6564 6567 6570 6573 6576 6579 6582 6585 6588 6591 6594 6597 6600 6603 6606 6609 6612 6615 6618 6621 6624 6627 6630 6633 6636 6639 6642 6645 6648 6651 6654 6657 6660 6663 6666 6669 6672 6675 6678 6681 6684 6687 6690 6693 6696 6699 6702 6705 6708 6711 6714 6717 6720 6723 6726 6729 6732 6735 6738 6741 6744 6747 6750 6753 6756 6759 6762 6765 6768 6771 6774 6777 6780 6783 6786 6789 6792 6795 6798 6801 6804 6807 6810 6813 6816 6819 6822 6825 6828 6831 6834 6837 6840 6843 6846 6849 6852 6855 6858 6861 6864 6867 6870 6873 6876 6879 6882 6885 6888 6891 6894 6897 6900 6903 6906 6909 6912 6915 6918 6921 6924 6927 6930 6933 6936 6939 6942 6945 6948 6951 6954 6957 6960 6963 6966 6969 6972 6975 6978 6981 6984 6987 6990 6993 6996 6999 7002 7005 7008 7011 7014 7017 7020 7023 7026 7029 7032 7035 7038 7041 7044 7047 7050 7053 7056 7059 7062 7065 7068 7071 7074 7077 7080 7083 7086 7089 7092 7095 7098 7101 7104 7107 7110 7113 7116 7119 7122 7125 7128 7131 7134 7137 7140 7143 7146 7149 7152 7155 7158 7161 7164 7167 7170 7173 7176 7179 7182 7185 7188 7191 7194 7197 7200 7203 7206 7209 7212 7215 7218 7221 7224 7227 7230 7233 7236 7239 7242 7245 7248 7251 7254 7257 7260 7263 7266 7269 7272 7275 7278 7281 7284 7287 7290 7293 7296 7299 7302 7305 7308 7311 7314 7317 7320 7323 7326 7329 7332 7335 7338 7341 7344 7347 7350 7353 7356 7359 7362 7365 7368 7371 7374 7377 7380 7383 7386 7389 7392 7395 7398 7401 7404 7407 7410 7413 7416 7419 7422 7425 7428 7431 7434 7437 7440 7443 7446 7449 7452 7455 7458 7461 7464 7467 7470 7473 7476 7479 7482 7485 7488 7491 7494 7497 7500 7503 7506 7509 7512 7515 7518 7521 7524 7527 7530 7533 7536 7539 7542 7545 7548 7551 7554 7557 7560 7563 7566 7569 7572 7575 7578 7581 7584 7587 7590 7593 7596 7599 7602 7605 7608 7611 7614 7617 7620 7623 7626 7629 7632 7635 7638 7641 7644 7647 7650 7653 7656 7659 7662 7665 7668 7671 7674 7677 7680 7683 7686 7689 7692 7695 7698 7701 7704 7707 7710 7713 7716 7719 7722 7725 7728 7731 7734 7737 7740 7743 7746 7749 7752 7755 7758 7761 7764 7767 7770 7773 7776 7779 7782 7785 7788 7791 7794 7797 7800 7803 7806 7809 7812 7815 7818 7821 7824 7827 7830 7833 7836 7839 7842 7845 7848 7851 7854 7857 7860 7863 7866 7869 7872 7875 7878 7881 7884 7887 7890 7893 7896 7899 7902 7905 7908 7911 7914 7917 7920 7923 7926 7929 7932 7935 7938 7941 7944 7947 7950 7953 7956 7959 7962 7965 7968 7971 7974 7977 7980 7983 7986 7989 7992 7995 7998 8001 8004 8007 8010 8013 8016 8019 8022 8025 8028 8031 8034 8037 8040 8043 8046 8049 8052 8055 8058 8061 8064 8067 8070 8073 8076 8079 8082 8085 8088 8091 8094 8097 8100 8103 8106 8109 8112 8115 8118 8121 8124 8127 8130 8133 8136 8139 8142 8145 8148 8151 8154 8157 8160 8163 8166 8169 8172 8175 8178 8181 8184 8187 8190 8193 8196 8199 8202 8205 8208 8211 8214 8217 8220 8223 8226 8229 8232 8235 8238 8241 8244 8247 8250 8253 8256 8259 8262 8265 8268 8271 8274 8277 8280 8283 8286 8289 8292 8295 8298 8301 8304 8307 8310 8313 8316 8319 8322 8325 8328 8331 8334 8337 8340 8343 8346 8349 8352 8355 8358 8361 8364 8367 8370 8373 8376 8379 8382 8385 8388 8391 8394 8397 8400 8403 8406 8409 8412 8415 8418 8421 8424 8427 8430 8433 8436 8439 8442 8445 8448 8451 8454 8457 8460 8463 8466 8469 8472 8475 8478 8481 8484 8487 8490 8493 8496 8499 8502 8505 8508 8511 8514 8517 8520 8523 8526 8529 8532 8535 8538 8541 8544 8547 8550 8553 8556 8559 8562 8565 8568 8571 8574 8577 8580 8583 8586 8589 8592 8595 8598 8601 8604 8607 8610 8613 8616 8619 8622 8625 8628 8631 8634 8637 8640 8643 8646 8649 8652 8655 8658 8661 8664 8667 8670 8673 8676 8679 8682 8685 8688 8691 8694 8697 8700 8703 8706 8709 8712 8715 8718 8721 8724 8727 8730 8733 8736 8739 8742 8745 8748 8751 8754 8757 8760 8763 8766 8769 8772 8775 8778 8781 8784 8787 8790 8793 8796 8799 8802 8805 8808 8811 8814 8817 8820 8823 8826 8829 8832 8835 8838 8841 8844 8847 8850 8853 8856 8859 8862 8865 8868 8871 8874 8877 8880 8883 8886 8889 8892 8895 8898 8901 8904 8907 8910 8913 8916 8919 8922 8925 8928 8931 8934 8937 8940 8943 8946 8949 8952 8955 8958 8961 8964 8967 8970 8973 8976 8979 8982 8985 8988 8991 8994 8997 9000 9003 9006 9009 9012 9015 9018 9021 9024 9027 9030 9033 9036 9039 9042 9045 9048 9051 9054 9057 9060 9063 9066 9069 9072 9075 9078 9081 9084 9087 9090 9093 9096 9099 9102 9105 9108 9111 9114 9117 9120 9123 9126 9129 9132 9135 9138 9141 9144 9147 9150 9153 9156 9159 9162 9165 9168 9171 9174 9177 9180 9183 9186 9189 9192 9195 9198 9201 9204 9207 9210 9213 9216 9219 9222 9225 9228 9231 9234 9237 9240 9243 9246 9249 9252 9255 9258 9261 9264 9267 9270 9273 9276 9279 9282 9285 9288 9291 9294 9297 9300 9303 9306 9309 9312 9315 9318 9321 9324 9327 9330 9333 9336 9339 9342 9345 9348 9351 9354 9357 9360 9363 9366 9369 9372 9375 9378 9381 9384 9387 9390 9393 9396 9399 9402 9405 9408 9411 9414 9417 9420 9423 9426 9429 9432 9435 9438 9441 9444 9447 9450 9453 9456 9459 9462 9465 9468 9471 9474 9477 9480 9483 9486 9489 9492 9495 9498 9501 9504 9507 9510 9513 9516 9519 9522 9525 9528 9531 9534 9537 9540 9543 9546 9549 9552 9555 9558 9561 9564 9567 9570 9573 9576 9579 9582 9585 9588 9591 9594 9597 9600 9603 9606 9609 9612 9615 9618 9621 9624 9627 9630 9633 9636 9639 9642 9645 9648 9651 9654 9657 9660 9663 9666 9669 9672 9675 9678 9681 9684 9687 9690 9693 9696 9699 9702 9705 9708 9711 9714 9717 9720 9723 9726 9729 9732 9735 9738 9741 9744 9747 9750 9753 9756 9759 9762 9765 9768 9771 9774 9777 9780 9783 9786 9789 9792 9795 9798 9801 9804 9807 9810 9813 9816 9819 9822 9825 9828 9831 9834 9837 9840 9843 9846 9849 9852 9855 9858 9861 9864 9867 9870 9873 9876 9879 9882 9885 9888 9891 9894 9897 9900 9903 9906 9909 9912 9915 9918 9921 9924 9927 9930 9933 9936 9939 9942 9945 9948 9951 9954 9957 9960 9963 9966 9969 9972 9975 9978 9981 9984 9987 9990 9993 9996 9999 10002 10005 10008 10011 10014 10017 10020 10023 10026 10029 10032 10035 10038 10041 10044 10047 10050 10053 10056 10059 10062 10065 10068 10071 10074 10077 10080 10083 10086 10089 10092 10095 10098 10101 10104 10107 10110 10113 10116 10119 10122 10125 10128 10131 10134 10137 10140 10143 10146 10149 10152 10155 10158 10161 10164 10167 10170 10173 10176 10179 10182 10185 10188 10191 10194 10197 10200 10203 10206 10209 10212 10215 10218 10221 10224 10227 10230 10233 10236 10239 10242 10245 10248 10251 10254 10257 10260 10263 10266 10269 10272 10275 10278 10281 10284 10287 10290 10293 10296 10299 10302 10305 10308 10311 10314 10317 10320 10323 10326 10329 10332 10335 10338 10341 10344 10347 10350 10353 10356 10359 10362 10365 10368 10371 10374 10377 10380 10383 10386 10389 10392 10395 10398 10401 10404 10407 10410 10413 10416 10419 10422 10425 10428 10431 10434 10437 10440 10443 10446 10449 10452 10455 10458 10461 10464 10467 10470 10473 10476 10479 10482 10485 10488 10491 10494 10497 10500 10503 10506 10509 10512 10515 10518 10521 10524 10527 10530 10533 10536 10539 10542 10545 10548 10551 10554 10557 10560 10563 10566 10569 10572 10575 10578 10581 10584 10587 10590 10593 10596 10599 10602 10605 10608 10611 10614 10617 10620 10623 10626 10629 10632 10635 10638 10641 10644 10647 10650 10653 10656 10659 10662 10665 10668 10671 10674 10677 10680 10683 10686 10689 10692 10695 10698 10701 10704 10707 10710 10713 10716 10719 10722 10725 10728 10731 10734 10737 10740 10743 10746 10749 10752 10755 10758 10761 10764 10767 10770 10773 10776 10779 10782 10785 10788 10791 10794 10797 10800 10803 10806 10809 10812 10815 10818 10821 10824 10827 10830 10833 10836 10839 10842 10845 10848 10851 10854 10857 10860 10863 10866 10869 10872 10875 10878 10881 10884 10887 10890 10893 10896 10899 10902 10905 10908 10911 10914 10917 10920 10923 10926 10929 10932 10935 10938 10941 10944 10947 10950 10953 10956 10959 10962 10965 10968 10971 10974 10977 10980 10983 10986 10989 10992 10995 10998 11001 11004 11007 11010 11013 11016 11019 11022 11025 11028 11031 11034 11037 11040 11043 11046 11049 11052 11055 11058 11061 11064 11067 11070 11073 11076 11079 11082 11085 11088 11091 11094 11097 11100 11103 11106 11109 11112 11115 11118 11121 11124 11127 11130 11133 11136 11139 11142 11145 11148 11151 11154 11157 11160 11163 11166 11169 11172 11175 11178 11181 11184 11187 11190 11193 11196 11199 11202 11205 11208 11211 11214 11217 11220 11223 11226 11229 11232 11235 11238 11241 11244 11247 11250 11253 11256 11259 11262 11265 11268 11271 11274 11277 11280 11283 11286 11289 11292 11295 11298 11301 11304 11307 11310 11313 11316 11319 11322 11325 11328 11331 11334 11337 11340 11343 11346 11349 11352 11355 11358 11361 11364 11367 11370 11373 11376 11379 11382 11385 11388 11391 11394 11397 11400 11403 11406 11409 11412 11415 11418 11421 11424 11427 11430 11433 11436 11439 11442 11445 11448 11451 11454 11457 11460 11463 11466 11469 11472 11475 11478 11481 11484 11487 11490 11493 11496 11499 11502 11505 11508 11511 11514 11517 11520 11523 11526 11529 11532 11535 11538 11541 11544 11547 11550 11553 11556 11559 11562 11565 11568 11571 11574 11577 11580 11583 11586 11589 11592 11595 11598 11601 11604 11607 11610 11613 11616 11619 11622 11625 11628 11631 11634 11637 11640 11643 11646 11649 11652 11655 11658 11661 11664 11667 11670 11673 11676 11679 11682 11685 11688 11691 11694 11697 11700 11703 11706 11709 11712 11715 11718 11721 11724 11727 11730 11733 11736 11739 11742 11745 11748 11751 11754 11757 11760 11763 11766 11769 11772 11775 11778 11781 11784 11787 11790 11793 11796 11799 11802 11805 11808 11811 11814 11817 11820 11823 11826 11829 11832 11835 11838 11841 11844 11847 11850 11853 11856 11859 11862 11865 11868 11871 11874 11877 11880 11883 11886 11889 11892 11895 11898 11901 11904 11907 11910 11913 11916 11919 11922 11925 11928 11931 11934 11937 11940 11943 11946 11949 11952 11955 11958 11961 11964 11967 11970 11973 11976 11979 11982 11985 11988 11991 11994 11997 12000 12003 12006 12009 12012 12015 12018 12021 12024 12027 12030 12033 12036 12039 12042 12045 12048 12051 12054 12057 12060 12063 12066 12069 12072 12075 12078 12081 12084 12087 12090 12093 12096 12099 12102 12105 12108 12111 12114 12117 12120 12123 12126 12129 12132 12135 12138 12141 12144 12147 12150 12153 12156 12159 12162 12165 12168 12171 12174 12177 12180 12183 12186 12189 12192 12195 12198 12201 12204 12207 12210 12213 12216 12219 12222 12225 12228 12231 12234 12237 12240 12243 12246 12249 12252 12255 12258 12261 12264 12267 12270 12273 12276 12279 12282 12285 12288 12291 12294 12297 12300 12303 12306 12309 12312 12315 12318 12321 12324 12327 12330 12333 12336 12339 12342 12345 12348 12351 12354 12357 12360 12363 12366 12369 12372 12375 12378 12381 12384 12387 12390 12393 12396 12399 12402 12405 12408 12411 12414 12417 12420 12423 12426 12429 12432 12435 12438 12441 12444 12447 12450 12453 12456 12459 12462 12465 12468 12471 12474 12477 12480 12483 12486 12489 12492 12495 12498 12501 12504 12507 12510 12513 12516 12519 12522 12525 12528 12531 12534 12537 12540 12543 12546 12549 12552 12555 12558 12561 12564 12567 12570 12573 12576 12579 12582 12585 12588 12591 12594 12597 12600 12603 12606 12609 12612 12615 12618 12621 12624 12627 12630 12633 12636 12639 12642 12645 12648 12651 12654 12657 12660 12663 12666 12669 12672 12675 12678 12681 12684 12687 12690 12693 12696 12699 12702 12705 12708 12711 12714 12717 12720 12723 12726 12729 12732 12735 12738 12741 12744 12747 12750 12753 12756 12759 12762 12765 12768 12771 12774 12777 12780 12783 12786 12789 12792 12795 12798 12801 12804 12807 12810 12813 12816 12819 12822 12825 12828 12831 12834 12837 12840 12843 12846 12849 12852 12855 12858 12861 12864 12867 12870 12873 12876 12879 12882 12885 12888 12891 12894 12897 12900 12903 12906 12909 12912 12915 12918 12921 12924 12927 12930 12933 12936 12939 12942 12945 12948 12951 12954 12957 12960 12963 12966 12969 12972 12975 12978 12981 12984 12987 12990 12993 12996 12999 13002 13005 13008 13011 13014 13017 13020 13023 13026 13029 13032 13035 13038 13041 13044 13047 13050 13053 13056 13059 13062 13065 13068 13071 13074 13077 13080 13083 13086 13089 13092 13095 13098 13101 13104 13107 13110 13113 13116 13119 13122 13125 13128 13131 13134 13137 13140 13143 13146 13149 13152 13155 13158 13161 13164 13167 13170 13173 13176 13179 13182 13185 13188 13191 13194 13197 13200 13203 13206 13209 13212 13215 13218 13221 13224 13227 13230 13233 13236 13239 13242 13245 13248 13251 13254 13257 13260 13263 13266 13269 13272 13275 13278 13281 13284 13287 13290 13293 13296 13299 13302 13305 13308 13311 13314 13317 13320 13323 13326 13329 13332 13335 13338 13341 13344 13347 13350 13353 13356 13359 13362 13365 13368 13371 13374 13377 13380 13383 13386 13389 13392 13395 13398 13401 13404 13407 13410 13413 13416 13419 13422 13425 13428 13431 13434 13437 13440 13443 13446 13449 13452 13455 13458 13461 13464 13467 13470 13473 13476 13479 13482 13485 13488 13491 13494 13497 13500 13503 13506 13509 13512 13515 13518 13521 13524 13527 13530 13533 13536 13539 13542 13545 13548 13551 13554 13557 13560 13563 13566 13569 13572 13575 13578 13581 13584 13587 13590 13593 13596 13599 13602 13605 13608 13611 13614 13617 13620 13623 13626 13629 13632 13635 13638 13641 13644 13647 13650 13653 13656 13659 13662 13665 13668 13671 13674 13677 13680 13683 13686 13689 13692 13695 13698 13701 13704 13707 13710 13713 13716 13719 13722 13725 13728 13731 13734 13737 13740 13743 13746 13749 13752 13755 13758 13761 13764 13767 13770 13773 13776 13779 13782 13785 13788 13791 13794 13797 13800 13803 13806 13809 13812 13815 13818 13821 13824 13827 13830 13833 13836 13839 13842 13845 13848 13851 13854 13857 13860 13863 13866 13869 13872 13875 13878 13881 13884 13887 13890 13893 13896 13899 13902 13905 13908 13911 13914 13917 13920 13923 13926 13929 13932 13935 13938 13941 13944 13947 13950 13953 13956 13959 13962 13965 13968 13971 13974 13977 13980 13983 13986 13989 13992 13995 13998 14001 14004 14007 14010 14013 14016 14019 14022 14025 14028 14031 14034 14037 14040 14043 14046 14049 14052 14055 14058 14061 14064 14067 14070 14073 14076 14079 14082 14085 14088 14091 14094 14097 14100 14103 14106 14109 14112 14115 14118 14121 14124 14127 14130 14133 14136 14139 14142 14145 14148 14151 14154 14157 14160 14163 14166 14169 14172 14175 14178 14181 14184 14187 14190 14193 14196 14199 14202 14205 14208 14211 14214 14217 14220 14223 14226 14229 14232 14235 14238 14241 14244 14247 14250 14253 14256 14259 14262 14265 14268 14271 14274 14277 14280 14283 14286 14289 14292 14295 14298 14301 14304 14307 14310 14313 14316 14319 14322 14325 14328 14331 14334 14337 14340 14343 14346 14349 14352 14355 14358 14361 14364 14367 14370 14373 14376 14379 14382 14385 14388 14391 14394 14397 14400 14403 14406 14409 14412 14415 14418 14421 14424 14427 14430 14433 14436 14439 14442 14445 14448 14451 14454 14457 14460 14463 14466 14469 14472 14475 14478 14481 14484 14487 14490 14493 14496 14499 14502 14505 14508 14511 14514 14517 14520 14523 14526 14529 14532 14535 14538 14541 14544 14547 14550 14553 14556 14559 14562 14565 14568 14571 14574 14577 14580 14583 14586 14589 14592 14595 14598 14601 14604 14607 14610 14613 14616 14619 14622 14625 14628 14631 14634 14637 14640 14643 14646 14649 14652 14655 14658 14661 14664 14667 14670 14673 14676 14679 14682 14685 14688 14691 14694 14697 14700 14703 14706 14709 14712 14715 14718 14721 14724 14727 14730 14733 14736 14739 14742 14745 14748 14751 14754 14757 14760 14763 14766 14769 14772 14775 14778 14781 14784 14787 14790 14793 14796 14799 14802 14805 14808 14811 14814 14817 14820 14823 14826 14829 14832 14835 14838 14841 14844 14847 14850 14853 14856 14859 14862 14865 14868 14871 14874 14877 14880 14883 14886 14889 14892 14895 14898 14901 14904 14907 14910 14913 14916 14919 14922 14925 14928 14931 14934 14937 14940 14943 14946 14949 14952 14955 14958 14961 14964 14967 14970 14973 14976 14979 14982 14985 14988 14991 14994 14997 15000 15003 15006 15009 15012 15015 15018 15021 15024 15027 15030 15033 15036 15039 15042 15045 15048 15051 15054 15057 15060 15063 15066 15069 15072 15075 15078 15081 15084 15087 15090 15093 15096 15099 15102 15105 15108 15111 15114 15117 15120 15123 15126 15129 15132 15135 15138 15141 15144 15147 15150 15153 15156 15159 15162 15165 15168 15171 15174 15177 15180 15183 15186 15189 15192 15195 15198 15201 15204 15207 15210 15213 15216 15219 15222 15225 15228 15231 15234 15237 15240 15243 15246 15249 15252 15255 15258 15261 15264 15267 15270 15273 15276 15279 15282 15285 15288 15291 15294 15297 15300 15303 15306 15309 15312 15315 15318 15321 15324 15327 15330 15333 15336 15339 15342 15345 15348 15351 15354 15357 15360 15363 15366 15369 15372 15375 15378 15381 15384 15387 15390 15393 15396 15399 15402 15405 15408 15411 15414 15417 15420 15423 15426 15429 15432 15435 15438 15441 15444 15447 15450 15453 15456 15459 15462 15465 15468 15471 15474 15477 15480 15483 15486 15489 15492 15495 15498 15501 15504 15507 15510 15513 15516 15519 15522 15525 15528 15531 15534 15537 15540 15543 15546 15549 15552 15555 15558 15561 15564 15567 15570 15573 15576 15579 15582 15585 15588 15591 15594 15597 15600 15603 15606 15609 15612 15615 15618 15621 15624 15627 15630 15633 15636 15639 15642 15645 15648 15651 15654 15657 15660 15663 15666 15669 15672 15675 15678 15681 15684 15687 15690 15693 15696 15699 15702 15705 15708 15711 15714 15717 15720 15723 15726 15729 15732 15735 15738 15741 15744 15747 15750 15753 15756 15759 15762 15765 15768 15771 15774 15777 15780 15783 15786 15789 15792 15795 15798 15801 15804 15807 15810 15813 15816 15819 15822 15825 15828 15831 15834 15837 15840 15843 15846 15849 15852 15855 15858 15861 15864 15867 15870 15873 15876 15879 15882 15885 15888 15891 15894 15897 15900 15903 15906 15909 15912 15915 15918 15921 15924 15927 15930 15933 15936 15939 15942 15945 15948 15951 15954 15957 15960 15963 15966 15969 15972 15975 15978 15981 15984 15987 15990 15993 15996 15999 16002 16005 16008 16011 16014 16017 16020 16023 16026 16029 16032 16035 16038 16041 16044 16047 16050 16053 16056 16059 16062 16065 16068 16071 16074 16077 16080 16083 16086 16089 16092 16095 16098 16101 16104 16107 16110 16113 16116 16119 16122 16125 16128 16131 16134 16137 16140 16143 16146 16149 16152 16155 16158 16161 16164 16167 16170 16173 16176 16179 16182 16185 16188 16191 16194 16197 16200 16203 16206 16209 16212 16215 16218 16221 16224 16227 16230 16233 16236 16239 16242 16245 16248 16251 16254 16257 16260 16263 16266 16269 16272 16275 16278 16281 16284 16287 16290 16293 16296 16299 16302 16305 16308 16311 16314 16317 16320 16323 16326 16329 16332 16335 16338 16341 16344 16347 16350 16353 16356 16359 16362 16365 16368 16371 16374 16377 16380 16383 16386 16389 16392 16395 16398 16401 16404 16407 16410 16413 16416 16419 16422 16425 16428 16431 16434 16437 16440 16443 16446 16449 16452 16455 16458 16461 16464 16467 16470 16473 16476 16479 16482 16485 16488 16491 16494 16497 16500 16503 16506 16509 16512 16515 16518 16521 16524 16527 16530 16533 16536 16539 16542 16545 16548 16551 16554 16557 16560 16563 16566 16569 16572 16575 16578 16581 16584 16587 16590 16593 16596 16599 16602 16605 16608 16611 16614 16617 16620 16623 16626 16629 16632 16635 16638 16641 16644 16647 16650 16653 16656 16659 16662 16665 16668 16671 16674 16677 16680 16683 16686 16689 16692 16695 16698 16701 16704 16707 16710 16713 16716 16719 16722 16725 16728 16731 16734 16737 16740 16743 16746 16749 16752 16755 16758 16761 16764 16767 16770 16773 16776 16779 16782 16785 16788 16791 16794 16797 16800 16803 16806 16809 16812 16815 16818 16821 16824 16827 16830 16833 16836 16839 16842 16845 16848 16851 16854 16857 16860 16863 16866 16869 16872 16875 16878 16881 16884 16887 16890 16893 16896 16899 16902 16905 16908 16911 16914 16917 16920 16923 16926 16929 16932 16935 16938 16941 16944 16947 16950 16953 16956 16959 16962 16965 16968 16971 16974 16977 16980 16983 16986 16989 16992 16995 16998 17001 17004 17007 17010 17013 17016 17019 17022 17025 17028 17031 17034 17037 17040 17043 17046 17049 17052 17055 17058 17061 17064 17067 17070 17073 17076 17079 17082 17085 17088 17091 17094 17097 17100 17103 17106 17109 17112 17115 17118 17121 17124 17127 17130 17133 17136 17139 17142 17145 17148 17151 17154 17157 17160 17163 17166 17169 17172 17175 17178 17181 17184 17187 17190 17193 17196 17199 17202 17205 17208 17211 17214 17217 17220 17223 17226 17229 17232 17235 17238 17241 17244 17247 17250 17253 17256 17259 17262 17265 17268 17271 17274 17277 17280 17283 17286 17289 17292 17295 17298 17301 17304 17307 17310 17313 17316 17319 17322 17325 17328 17331 17334 17337 17340 17343 17346 17349 17352 17355 17358 17361 17364 17367 17370 17373 17376 17379 17382 17385 17388 17391 17394 17397 17400 17403 17406 17409 17412 17415 17418 17421 17424 17427 17430 17433 17436 17439 17442 17445 17448 17451 17454 17457 17460 17463 17466 17469 17472 17475 17478 17481 17484 17487 17490 17493 17496 17499 17502 17505 17508 17511 17514 17517 17520 17523 17526 17529 17532 17535 17538 17541 17544 17547 17550 17553 17556 17559 17562 17565 17568 17571 17574 17577 17580 17583 17586 17589 17592 17595 17598 17601 17604 17607 17610 17613 17616 17619 17622 17625 17628 17631 17634 17637 17640 17643 17646 17649 17652 17655 17658 17661 17664 17667 17670 17673 17676 17679 17682 17685 17688 17691 17694 17697 17700 17703 17706 17709 17712 17715 17718 17721 17724 17727 17730 17733 17736 17739 17742 17745 17748 17751 17754 17757 17760 17763 17766 17769 17772 17775 17778 17781 17784 17787 17790 17793 17796 17799 17802 17805 17808 17811 17814 17817 17820 17823 17826 17829 17832 17835 17838 17841 17844 17847 17850 17853 17856 17859 17862 17865 17868 17871 17874 17877 17880 17883 17886 17889 17892 17895 17898 17901 17904 17907 17910 17913 17916 17919 17922 17925 17928 17931 17934 17937 17940 17943 17946 17949 17952 17955 17958 17961 17964 17967 17970 17973 17976 17979 17982 17985 17988 17991 17994 17997 18000 18003 18006 18009 18012 18015 18018 18021 18024 18027 18030 18033 18036 18039 18042 18045 18048 18051 18054 18057 18060 18063 18066 18069 18072 18075 18078 18081 18084 18087 18090 18093 18096 18099 18102 18105 18108 18111 18114 18117 18120 18123 18126 18129 18132 18135 18138 18141 18144 18147 18150 18153 18156 18159 18162 18165 18168 18171 18174 18177 18180 18183 18186 18189 18192 18195 18198 18201 18204 18207 18210 18213 18216 18219 18222 18225 18228 18231 18234 18237 18240 18243 18246 18249 18252 18255 18258 18261 18264 18267 18270 18273 18276 18279 18282 18285 18288 18291 18294 18297 18300 18303 18306 18309 18312 18315 18318 18321 18324 18327 18330 18333 18336 18339 18342 18345 18348 18351 18354 18357 18360 18363 18366 18369 18372 18375 18378 18381 18384 18387 18390 18393 18396 18399 18402 18405 18408 18411 18414 18417 18420 18423 18426 18429 18432 18435 18438 18441 18444 18447 18450 18453 18456 18459 18462 18465 18468 18471 18474 18477 18480 18483 18486 18489 18492 18495 18498 18501 18504 18507 18510 18513 18516 18519 18522 18525 18528 18531 18534 18537 18540 18543 18546 18549 18552 18555 18558 18561 18564 18567 18570 18573 18576 18579 18582 18585 18588 18591 18594 18597 18600 18603 18606 18609 18612 18615 18618 18621 18624 18627 18630 18633 18636 18639 18642 18645 18648 18651 18654 18657 18660 18663 18666 18669 18672 18675 18678 18681 18684 18687 18690 18693 18696 18699 18702 18705 18708 18711 18714 18717 18720 18723 18726 18729 18732 18735 18738 18741 18744 18747 18750 18753 18756 18759 18762 18765 18768 18771 18774 18777 18780 18783 18786 18789 18792 18795 18798 18801 18804 18807 18810 18813 18816 18819 18822 18825 18828 18831 18834 18837 18840 18843 18846 18849 18852 18855 18858 18861 18864 18867 18870 18873 18876 18879 18882 18885 18888 18891 18894 18897 18900 18903 18906 18909 18912 18915 18918 18921 18924 18927 18930 18933 18936 18939 18942 18945 18948 18951 18954 18957 18960 18963 18966 18969 18972 18975 18978 18981 18984 18987 18990 18993 18996 18999 19002 19005 19008 19011 19014 19017 19020 19023 19026 19029 19032 19035 19038 19041 19044 19047 19050 19053 19056 19059 19062 19065 19068 19071 19074 19077 19080 19083 19086 19089 19092 19095 19098 19101 19104 19107 19110 19113 19116 19119 19122 19125 19128 19131 19134 19137 19140 19143 19146 19149 19152 19155 19158 19161 19164 19167 19170 19173 19176 19179 19182 19185 19188 19191 19194 19197 19200 19203 19206 19209 19212 19215 19218 19221 19224 19227 19230 19233 19236 19239 19242 19245 19248 19251 19254 19257 19260 19263 19266 19269 19272 19275 19278 19281 19284 19287 19290 19293 19296 19299 19302 19305 19308 19311 19314 19317 19320 19323 19326 19329 19332 19335 19338 19341 19344 19347 19350 19353 19356 19359 19362 19365 19368 19371 19374 19377 19380 19383 19386 19389 19392 19395 19398 19401 19404 19407 19410 19413 19416 19419 19422 19425 19428 19431 19434 19437 19440 19443 19446 19449 19452 19455 19458 19461 19464 19467 19470 19473 19476 19479 19482 19485 19488 19491 19494 19497 19500 19503 19506 19509 19512 19515 19518 19521 19524 19527 19530 19533 19536 19539 19542 19545 19548 19551 19554 19557 19560 19563 19566 19569 19572 19575 19578 19581 19584 19587 19590 19593 19596 19599 19602 19605 19608 19611 19614 19617 19620 19623 19626 19629 19632 19635 19638 19641 19644 19647 19650 19653 19656 19659 19662 19665 19668 19671 19674 19677 19680 19683 19686 19689 19692 19695 19698 19701 19704 19707 19710 19713 19716 19719 19722 19725 19728 19731 19734 19737 19740 19743 19746 19749 19752 19755 19758 19761 19764 19767 19770 19773 19776 19779 19782 19785 19788 19791 19794 19797 19800 19803 19806 19809 19812 19815 19818 19821 19824 19827 19830 19833 19836 19839 19842 19845 19848 19851 19854 19857 19860 19863 19866 19869 19872 19875 19878 19881 19884 19887 19890 19893 19896 19899 19902 19905 19908 19911 19914 19917 19920 19923 19926 19929 19932 19935 19938 19941 19944 19947 19950 19953 19956 19959 19962 19965 19968 19971 19974 19977 19980 19983 19986 19989 19992 19995 19998 20001 20004 20007 20010 20013 20016 20019 20022 20025 20028 20031 20034 20037 20040 20043 20046 20049 20052 20055 20058 20061 20064 20067 20070 20073 20076 20079 20082 20085 20088 20091 20094 20097 20100 20103 20106 20109 20112 20115 20118 20121 20124 20127 20130 20133 20136 20139 20142 20145 20148 20151 20154 20157 20160 20163 20166 20169 20172 20175 20178 20181 20184 20187 20190 20193 20196 20199 20202 20205 20208 20211 20214 20217 20220 20223 20226 20229 20232 20235 20238 20241 20244 20247 20250 20253 20256 20259 20262 20265 20268 20271 20274 20277 20280 20283 20286 20289 20292 20295 20298 20301 20304 20307 20310 20313 20316 20319 20322 20325 20328 20331 20334 20337 20340 20343 20346 20349 20352 20355 20358 20361 20364 20367 20370 20373 20376 20379 20382 20385 20388 20391 20394 20397 20400 20403 20406 20409 20412 20415 20418 20421 20424 20427 20430 20433 20436 20439 20442 20445 20448 20451 20454 20457 20460 20463 20466 20469 20472 20475 20478 20481 20484 20487 20490 20493 20496 20499 20502 20505 20508 20511 20514 20517 20520 20523 20526 20529 20532 20535 20538 20541 20544 20547 20550 20553 20556 20559 20562 20565 20568 20571 20574 20577 20580 20583 20586 20589 20592 20595 20598 20601 20604 20607 20610 20613 20616 20619 20622 20625 20628 20631 20634 20637 20640 20643 20646 20649 20652 20655 20658 20661 20664 20667 20670 20673 20676 20679 20682 20685 20688 20691 20694 20697 20700 20703 20706 20709 20712 20715 20718 20721 20724 20727 20730 20733 20736 20739 20742 20745 20748 20751 20754 20757 20760 20763 20766 20769 20772 20775 20778 20781 20784 20787 20790 20793 20796 20799 20802 20805 20808 20811 20814 20817 20820 20823 20826 20829 20832 20835 20838 20841 20844 20847 20850 20853 20856 20859 20862 20865 20868 20871 20874 20877 20880 20883 20886 20889 20892 20895 20898 20901 20904 20907 20910 20913 20916 20919 20922 20925 20928 20931 20934 20937 20940 20943 20946 20949 20952 20955 20958 20961 20964 20967 20970 20973 20976 20979 20982 20985 20988 20991 20994 20997 21000 21003 21006 21009 21012 21015 21018 21021 21024 21027 21030 21033 21036 21039 21042 21045 21048 21051 21054 21057 21060 21063 21066 21069 21072 21075 21078 21081 21084 21087 21090 21093 21096 21099 21102 21105 21108 21111 21114 21117 21120 21123 21126 21129 21132 21135 21138 21141 21144 21147 21150 21153 21156 21159 21162 21165 21168 21171 21174 21177 21180 21183 21186 21189 21192 21195 21198 21201 21204 21207 21210 21213 21216 21219 21222 21225 21228 21231 21234 21237 21240 21243 21246 21249 21252 21255 21258 21261 21264 21267 21270 21273 21276 21279 21282 21285 21288 21291 21294 21297 21300 21303 21306 21309 21312 21315 21318 21321 21324 21327 21330 21333 21336 21339 21342 21345 21348 21351 21354 21357 21360 21363 21366 21369 21372 21375 21378 21381 21384 21387 21390 21393 21396 21399 21402 21405 21408 21411 21414 21417 21420 21423 21426 21429 21432 21435 21438 21441 21444 21447 21450 21453 21456 21459 21462 21465 21468 21471 21474 21477 21480 21483 21486 21489 21492 21495 21498 21501 21504 21507 21510 21513 21516 21519 21522 21525 21528 21531 21534 21537 21540 21543 21546 21549 21552 21555 21558 21561 21564 21567 21570 21573 21576 21579 21582 21585 21588 21591 21594 21597 21600 21603 21606 21609 21612 21615 21618 21621 21624 21627 21630 21633 21636 21639 21642 21645 21648 21651 21654 21657 21660 21663 21666 21669 21672 21675 21678 21681 21684 21687 21690 21693 21696 21699 21702 21705 21708 21711 21714 21717 21720 21723 21726 21729 21732 21735 21738 21741 21744 21747 21750 21753 21756 21759 21762 21765 21768 21771 21774 21777 21780 21783 21786 21789 21792 21795 21798 21801 21804 21807 21810 21813 21816 21819 21822 21825 21828 21831 21834 21837 21840 21843 21846 21849 21852 21855 21858 21861 21864 21867 21870 21873 21876 21879 21882 21885 21888 21891 21894 21897 21900 21903 21906 21909 21912 21915 21918 21921 21924 21927 21930 21933 21936 21939 21942 21945 21948 21951 21954 21957 21960 21963 21966 21969 21972 21975 21978 21981 21984 21987 21990 21993 21996 21999 22002 22005 22008 22011 22014 22017 22020 22023 22026 22029 22032 22035 22038 22041 22044 22047 22050 22053 22056 22059 22062 22065 22068 22071 22074 22077 22080 22083 22086 22089 22092 22095 22098 22101 22104 22107 22110 22113 22116 22119 22122 22125 22128 22131 22134 22137 22140 22143 22146 22149 22152 22155 22158 22161 22164 22167 22170 22173 22176 22179 22182 22185 22188 22191 22194 22197 22200 22203 22206 22209 22212 22215 22218 22221 22224 22227 22230 22233 22236 22239 22242 22245 22248 22251 22254 22257 22260 22263 22266 22269 22272 22275 22278 22281 22284 22287 22290 22293 22296 22299 22302 22305 22308 22311 22314 22317 22320 22323 22326 22329 22332 22335 22338 22341 22344 22347 22350 22353 22356 22359 22362 22365 22368 22371 22374 22377 22380 22383 22386 22389 22392 22395 22398 22401 22404 22407 22410 22413 22416 22419 22422 22425 22428 22431 22434 22437 22440 22443 22446 22449 22452 22455 22458 22461 22464 22467 22470 22473 22476 22479 22482 22485 22488 22491 22494 22497 22500 22503 22506 22509 22512 22515 22518 22521 22524 22527 22530 22533 22536 22539 22542 22545 22548 22551 22554 22557 22560 22563 22566 22569 22572 22575 22578 22581 22584 22587 22590 22593 22596 22599 22602 22605 22608 22611 22614 22617 22620 22623 22626 22629 22632 22635 22638 22641 22644 22647 22650 22653 22656 22659 22662 22665 22668 22671 22674 22677 22680 22683 22686 22689 22692 22695 22698 22701 22704 22707 22710 22713 22716 22719 22722 22725 22728 22731 22734 22737 22740 22743 22746 22749 22752 22755 22758 22761 22764 22767 22770 22773 22776 22779 22782 22785 22788 22791 22794 22797 22800 22803 22806 22809 22812 22815 22818 22821 22824 22827 22830 22833 22836 22839 22842 22845 22848 22851 22854 22857 22860 22863 22866 22869 22872 22875 22878 22881 22884 22887 22890 22893 22896 22899 22902 22905 22908 22911 22914 22917 22920 22923 22926 22929 22932 22935 22938 22941 22944 22947 22950 22953 22956 22959 22962 22965 22968 22971 22974 22977 22980 22983 22986 22989 22992 22995 22998 23001 23004 23007 23010 23013 23016 23019 23022 23025 23028 23031 23034 23037 23040 23043 23046 23049 23052 23055 23058 23061 23064 23067 23070 23073 23076 23079 23082 23085 23088 23091 23094 23097 23100 23103 23106 23109 23112 23115 23118 23121 23124 23127 23130 23133 23136 23139 23142 23145 23148 23151 23154 23157 23160 23163 23166 23169 23172 23175 23178 23181 23184 23187 23190 23193 23196 23199 23202 23205 23208 23211 23214 23217 23220 23223 23226 23229 23232 23235 23238 23241 23244 23247 23250 23253 23256 23259 23262 23265 23268 23271 23274 23277 23280 23283 23286 23289 23292 23295 23298 23301 23304 23307 23310 23313 23316 23319 23322 23325 23328 23331 23334 23337 23340 23343 23346 23349 23352 23355 23358 23361 23364 23367 23370 23373 23376 23379 23382 23385 23388 23391 23394 23397 23400 23403 23406 23409 23412 23415 23418 23421 23424 23427 23430 23433 23436 23439 23442 23445 23448 23451 23454 23457 23460 23463 23466 23469 23472 23475 23478 23481 23484 23487 23490 23493 23496 23499 23502 23505 23508 23511 23514 23517 23520 23523 23526 23529 23532 23535 23538 23541 23544 23547 23550 23553 23556 23559 23562 23565 23568 23571 23574 23577 23580 23583 23586 23589 23592 23595 23598 23601 23604 23607 23610 23613 23616 23619 23622 23625 23628 23631 23634 23637 23640 23643 23646 23649 23652 23655 23658 23661 23664 23667 23670 23673 23676 23679 23682 23685 23688 23691 23694 23697 23700 23703 23706 23709 23712 23715 23718 23721 23724 23727 23730 23733 23736 23739 23742 23745 23748 23751 23754 23757 23760 23763 23766 23769 23772 23775 23778 23781 23784 23787 23790 23793 23796 23799 23802 23805 23808 23811 23814 23817 23820 23823 23826 23829 23832 23835 23838 23841 23844 23847 23850 23853 23856 23859 23862 23865 23868 23871 23874 23877 23880 23883 23886 23889 23892 23895 23898 23901 23904 23907 23910 23913 23916 23919 23922 23925 23928 23931 23934 23937 23940 23943 23946 23949 23952 23955 23958 23961 23964 23967 23970 23973 23976 23979 23982 23985 23988 23991 23994 23997 24000 24003 24006 24009 24012 24015 24018 24021 24024 24027 24030 24033 24036 24039 24042 24045 24048 24051 24054 24057 24060 24063 24066 24069 24072 24075 24078 24081 24084 24087 24090 24093 24096 24099 24102 24105 24108 24111 24114 24117 24120 24123 24126 24129 24132 24135 24138 24141 24144 24147 24150 24153 24156 24159 24162 24165 24168 24171 24174 24177 24180 24183 24186 24189 24192 24195 24198 24201 24204 24207 24210 24213 24216 24219 24222 24225 24228 24231 24234 24237 24240 24243 24246 24249 24252 24255 24258 24261 24264 24267 24270 24273 24276 24279 24282 24285 24288 24291 24294 24297 24300 24303 24306 24309 24312 24315 24318 24321 24324 24327 24330 24333 24336 24339 24342 24345 24348 24351 24354 24357 24360 24363 24366 24369 24372 24375 24378 24381 24384 24387 24390 24393 24396 24399 24402 24405 24408 24411 24414 24417 24420 24423 24426 24429 24432 24435 24438 24441 24444 24447 24450 24453 24456 24459 24462 24465 24468 24471 24474 24477 24480 24483 24486 24489 24492 24495 24498 24501 24504 24507 24510 24513 24516 24519 24522 24525 24528 24531 24534 24537 24540 24543 24546 24549 24552 24555 24558 24561 24564 24567 24570 24573 24576 24579 24582 24585 24588 24591 24594 24597 24600 24603 24606 24609 24612 24615 24618 24621 24624 24627 24630 24633 24636 24639 24642 24645 24648 24651 24654 24657 24660 24663 24666 24669 24672 24675 24678 24681 24684 24687 24690 24693 24696 24699 24702 24705 24708 24711 24714 24717 24720 24723 24726 24729 24732 24735 24738 24741 24744 24747 24750 24753 24756 24759 24762 24765 24768 24771 24774 24777 24780 24783 24786 24789 24792 24795 24798 24801 24804 24807 24810 24813 24816 24819 24822 24825 24828 24831 24834 24837 24840 24843 24846 24849 24852 24855 24858 24861 24864 24867 24870 24873 24876 24879 24882 24885 24888 24891 24894 24897 24900 24903 24906 24909 24912 24915 24918 24921 24924 24927 24930 24933 24936 24939 24942 24945 24948 24951 24954 24957 24960 24963 24966 24969 24972 24975 24978 24981 24984 24987 24990 24993 24996 24999 25002 25005 25008 25011 25014 25017 25020 25023 25026 25029 25032 25035 25038 25041 25044 25047 25050 25053 25056 25059 25062 25065 25068 25071 25074 25077 25080 25083 25086 25089 25092 25095 25098 25101 25104 25107 25110 25113 25116 25119 25122 25125 25128 25131 25134 25137 25140 25143 25146 25149 25152 25155 25158 25161 25164 25167 25170 25173 25176 25179 25182 25185 25188 25191 25194 25197 25200 25203 25206 25209 25212 25215 25218 25221 25224 25227 25230 25233 25236 25239 25242 25245 25248 25251 25254 25257 25260 25263 25266 25269 25272 25275 25278 25281 25284 25287 25290 25293 25296 25299 25302 25305 25308 25311 25314 25317 25320 25323 25326 25329 25332 25335 25338 25341 25344 25347 25350 25353 25356 25359 25362 25365 25368 25371 25374 25377 25380 25383 25386 25389 25392 25395 25398 25401 25404 25407 25410 25413 25416 25419 25422 25425 25428 25431 25434 25437 25440 25443 25446 25449 25452 25455 25458 25461 25464 25467 25470 25473 25476 25479 25482 25485 25488 25491 25494 25497 25500 25503 25506 25509 25512 25515 25518 25521 25524 25527 25530 25533 25536 25539 25542 25545 25548 25551 25554 25557 25560 25563 25566 25569 25572 25575 25578 25581 25584 25587 25590 25593 25596 25599 25602 25605 25608 25611 25614 25617 25620 25623 25626 25629 25632 25635 25638 25641 25644 25647 25650 25653 25656 25659 25662 25665 25668 25671 25674 25677 25680 25683 25686 25689 25692 25695 25698 25701 25704 25707 25710 25713 25716 25719 25722 25725 25728 25731 25734 25737 25740 25743 25746 25749 25752 25755 25758 25761 25764 25767 25770 25773 25776 25779 25782 25785 25788 25791 25794 25797 25800 25803 25806 25809 25812 25815 25818 25821 25824 25827 25830 25833 25836 25839 25842 25845 25848 25851 25854 25857 25860 25863 25866 25869 25872 25875 25878 25881 25884 25887 25890 25893 25896 25899 25902 25905 25908 25911 25914 25917 25920 25923 25926 25929 25932 25935 25938 25941 25944 25947 25950 25953 25956 25959 25962 25965 25968 25971 25974 25977 25980 25983 25986 25989 25992 25995 25998 26001 26004 26007 26010 26013 26016 26019 26022 26025 26028 26031 26034 26037 26040 26043 26046 26049 26052 26055 26058 26061 26064 26067 26070 26073 26076 26079 26082 26085 26088 26091 26094 26097 26100 26103 26106 26109 26112 26115 26118 26121 26124 26127 26130 26133 26136 26139 26142 26145 26148 26151 26154 26157 26160 26163 26166 26169 26172 26175 26178 26181 26184 26187 26190 26193 26196 26199 26202 26205 26208 26211 26214 26217 26220 26223 26226 26229 26232 26235 26238 26241 26244 26247 26250 26253 26256 26259 26262 26265 26268 26271 26274 26277 26280 26283 26286 26289 26292 26295 26298 26301 26304 26307 26310 26313 26316 26319 26322 26325 26328 26331 26334 26337 26340 26343 26346 26349 26352 26355 26358 26361 26364 26367 26370 26373 26376 26379 26382 26385 26388 26391 26394 26397 26400 26403 26406 26409 26412 26415 26418 26421 26424 26427 26430 26433 26436 26439 26442 26445 26448 26451 26454 26457 26460 26463 26466 26469 26472 26475 26478 26481 26484 26487 26490 26493 26496 26499 26502 26505 26508 26511 26514 26517 26520 26523 26526 26529 26532 26535 26538 26541 26544 26547 26550 26553 26556 26559 26562 26565 26568 26571 26574 26577 26580 26583 26586 26589 26592 26595 26598 26601 26604 26607 26610 26613 26616 26619 26622 26625 26628 26631 26634 26637 26640 26643 26646 26649 26652 26655 26658 26661 26664 26667 26670 26673 26676 26679 26682 26685 26688 26691 26694 26697 26700 26703 26706 26709 26712 26715 26718 26721 26724 26727 26730 26733 26736 26739 26742 26745 26748 26751 26754 26757 26760 26763 26766 26769 26772 26775 26778 26781 26784 26787 26790 26793 26796 26799 26802 26805 26808 26811 26814 26817 26820 26823 26826 26829 26832 26835 26838 26841 26844 26847 26850 26853 26856 26859 26862 26865 26868 26871 26874 26877 26880 26883 26886 26889 26892 26895 26898 26901 26904 26907 26910 26913 26916 26919 26922 26925 26928 26931 26934 26937 26940 26943 26946 26949 26952 26955 26958 26961 26964 26967 26970 26973 26976 26979 26982 26985 26988 26991 26994 26997 27000 27003 27006 27009 27012 27015 27018 27021 27024 27027 27030 27033 27036 27039 27042 27045 27048 27051 27054 27057 27060 27063 27066 27069 27072 27075 27078 27081 27084 27087 27090 27093 27096 27099 27102 27105 27108 27111 27114 27117 27120 27123 27126 27129 27132 27135 27138 27141 27144 27147 27150 27153 27156 27159 27162 27165 27168 27171 27174 27177 27180 27183 27186 27189 27192 27195 27198 27201 27204 27207 27210 27213 27216 27219 27222 27225 27228 27231 27234 27237 27240 27243 27246 27249 27252 27255 27258 27261 27264 27267 27270 27273 27276 27279 27282 27285 27288 27291 27294 27297 27300 27303 27306 27309 27312 27315 27318 27321 27324 27327 27330 27333 27336 27339 27342 27345 27348 27351 27354 27357 27360 27363 27366 27369 27372 27375 27378 27381 27384 27387 27390 27393 27396 27399 27402 27405 27408 27411 27414 27417 27420 27423 27426 27429 27432 27435 27438 27441 27444 27447 27450 27453 27456 27459 27462 27465 27468 27471 27474 27477 27480 27483 27486 27489 27492 27495 27498 27501 27504 27507 27510 27513 27516 27519 27522 27525 27528 27531 27534 27537 27540 27543 27546 27549 27552 27555 27558 27561 27564 27567 27570 27573 27576 27579 27582 27585 27588 27591 27594 27597 27600 27603 27606 27609 27612 27615 27618 27621 27624 27627 27630 27633 27636 27639 27642 27645 27648 27651 27654 27657 27660 27663 27666 27669 27672 27675 27678 27681 27684 27687 27690 27693 27696 27699 27702 27705 27708 27711 27714 27717 27720 27723 27726 27729 27732 27735 27738 27741 27744 27747 27750 27753 27756 27759 27762 27765 27768 27771 27774 27777 27780 27783 27786 27789 27792 27795 27798 27801 27804 27807 27810 27813 27816 27819 27822 27825 27828 27831 27834 27837 27840 27843 27846 27849 27852 27855 27858 27861 27864 27867 27870 27873 27876 27879 27882 27885 27888 27891 27894 27897 27900 27903 27906 27909 27912 27915 27918 27921 27924 27927 27930 27933 27936 27939 27942 27945 27948 27951 27954 27957 27960 27963 27966 27969 27972 27975 27978 27981 27984 27987 27990 27993 27996 27999 28002 28005 28008 28011 28014 28017 28020 28023 28026 28029 28032 28035 28038 28041 28044 28047 28050 28053 28056 28059 28062 28065 28068 28071 28074 28077 28080 28083 28086 28089 28092 28095 28098 28101 28104 28107 28110 28113 28116 28119 28122 28125 28128 28131 28134 28137 28140 28143 28146 28149 28152 28155 28158 28161 28164 28167 28170 28173 28176 28179 28182 28185 28188 28191 28194 28197 28200 28203 28206 28209 28212 28215 28218 28221 28224 28227 28230 28233 28236 28239 28242 28245 28248 28251 28254 28257 28260 28263 28266 28269 28272 28275 28278 28281 28284 28287 28290 28293 28296 28299 28302 28305 28308 28311 28314 28317 28320 28323 28326 28329 28332 28335 28338 28341 28344 28347 28350 28353 28356 28359 28362 28365 28368 28371 28374 28377 28380 28383 28386 28389 28392 28395 28398 28401 28404 28407 28410 28413 28416 28419 28422 28425 28428 28431 28434 28437 28440 28443 28446 28449 28452 28455 28458 28461 28464 28467 28470 28473 28476 28479 28482 28485 28488 28491 28494 28497 28500 28503 28506 28509 28512 28515 28518 28521 28524 28527 28530 28533 28536 28539 28542 28545 28548 28551 28554 28557 28560 28563 28566 28569 28572 28575 28578 28581 28584 28587 28590 28593 28596 28599 28602 28605 28608 28611 28614 28617 28620 28623 28626 28629 28632 28635 28638 28641 28644 28647 28650 28653 28656 28659 28662 28665 28668 28671 28674 28677 28680 28683 28686 28689 28692 28695 28698 28701 28704 28707 28710 28713 28716 28719 28722 28725 28728 28731 28734 28737 28740 28743 28746 28749 28752 28755 28758 28761 28764 28767 28770 28773 28776 28779 28782 28785 28788 28791 28794 28797 28800 28803 28806 28809 28812 28815 28818 28821 28824 28827 28830 28833 28836 28839 28842 28845 28848 28851 28854 28857 28860 28863 28866 28869 28872 28875 28878 28881 28884 28887 28890 28893 28896 28899 28902 28905 28908 28911 28914 28917 28920 28923 28926 28929 28932 28935 28938 28941 28944 28947 28950 28953 28956 28959 28962 28965 28968 28971 28974 28977 28980 28983 28986 28989 28992 28995 28998 29001 29004 29007 29010 29013 29016 29019 29022 29025 29028 29031 29034 29037 29040 29043 29046 29049 29052 29055 29058 29061 29064 29067 29070 29073 29076 29079 29082 29085 29088 29091 29094 29097 29100 29103 29106 29109 29112 29115 29118 29121 29124 29127 29130 29133 29136 29139 29142 29145 29148 29151 29154 29157 29160 29163 29166 29169 29172 29175 29178 29181 29184 29187 29190 29193 29196 29199 29202 29205 29208 29211 29214 29217 29220 29223 29226 29229 29232 29235 29238 29241 29244 29247 29250 29253 29256 29259 29262 29265 29268 29271 29274 29277 29280 29283 29286 29289 29292 29295 29298 29301 29304 29307 29310 29313 29316 29319 29322 29325 29328 29331 29334 29337 29340 29343 29346 29349 29352 29355 29358 29361 29364 29367 29370 29373 29376 29379 29382 29385 29388 29391 29394 29397 29400 29403 29406 29409 29412 29415 29418 29421 29424 29427 29430 29433 29436 29439 29442 29445 29448 29451 29454 29457 29460 29463 29466 29469 29472 29475 29478 29481 29484 29487 29490 29493 29496 29499 29502 29505 29508 29511 29514 29517 29520 29523 29526 29529 29532 29535 29538 29541 29544 29547 29550 29553 29556 29559 29562 29565 29568 29571 29574 29577 29580 29583 29586 29589 29592 29595 29598 29601 29604 29607 29610 29613 29616 29619 29622 29625 29628 29631 29634 29637 29640 29643 29646 29649 29652 29655 29658 29661 29664 29667 29670 29673 29676 29679 29682 29685 29688 29691 29694 29697 29700 29703 29706 29709 29712 29715 29718 29721 29724 29727 29730 29733 29736 29739 29742 29745 29748 29751 29754 29757 29760 29763 29766 29769 29772 29775 29778 29781 29784 29787 29790 29793 29796 29799 29802 29805 29808 29811 29814 29817 29820 29823 29826 29829 29832 29835 29838 29841 29844 29847 29850 29853 29856 29859 29862 29865 29868 29871 29874 29877 29880 29883 29886 29889 29892 29895 29898 29901 29904 29907 29910 29913 29916 29919 29922 29925 29928 29931 29934 29937 29940 29943 29946 29949 29952 29955 29958 29961 29964 29967 29970 29973 29976 29979 29982 29985 29988 29991 29994 29997 30000 30003 30006 30009 30012 30015 30018 30021 30024 30027 30030 30033 30036 30039 30042 30045 30048 30051 30054 30057 30060 30063 30066 30069 30072 30075 30078 30081 30084 30087 30090 30093 30096 30099 30102 30105 30108 30111 30114 30117 30120 30123 30126 30129 30132 30135 30138 30141 30144 30147 30150 30153 30156 30159 30162 30165 30168 30171 30174 30177 30180 30183 30186 30189 30192 30195 30198 30201 30204 30207 30210 30213 30216 30219 30222 30225 30228 30231 30234 30237 30240 30243 30246 30249 30252 30255 30258 30261 30264 30267 30270 30273 30276 30279 30282 30285 30288 30291 30294 30297 30300 30303 30306 30309 30312 30315 30318 30321 30324 30327 30330 30333 30336 30339 30342 30345 30348 30351 30354 30357 30360 30363 30366 30369 30372 30375 30378 30381 30384 30387 30390 30393 30396 30399 30402 30405 30408 30411 30414 30417 30420 30423 30426 30429 30432 30435 30438 30441 30444 30447 30450 30453 30456 30459 30462 30465 30468 30471 30474 30477 30480 30483 30486 30489 30492 30495 30498 30501 30504 30507 30510 30513 30516 30519 30522 30525 30528 30531 30534 30537 30540 30543 30546 30549 30552 30555 30558 30561 30564 30567 30570 30573 30576 30579 30582 30585 30588 30591 30594 30597 30600 30603 30606 30609 30612 30615 30618 30621 30624 30627 30630 30633 30636 30639 30642 30645 30648 30651 30654 30657 30660 30663 30666 30669 30672 30675 30678 30681 30684 30687 30690 30693 30696 30699 30702 30705 30708 30711 30714 30717 30720 30723 30726 30729 30732 30735 30738 30741 30744 30747 30750 30753 30756 30759 30762 30765 30768 30771 30774 30777 30780 30783 30786 30789 30792 30795 30798 30801 30804 30807 30810 30813 30816 30819 30822 30825 30828 30831 30834 30837 30840 30843 30846 30849 30852 30855 30858 30861 30864 30867 30870 30873 30876 30879 30882 30885 30888 30891 30894 30897 30900 30903 30906 30909 30912 30915 30918 30921 30924 30927 30930 30933 30936 30939 30942 30945 30948 30951 30954 30957 30960 30963 30966 30969 30972 30975 30978 30981 30984 30987 30990 30993 30996 30999 31002 31005 31008 31011 31014 31017 31020 31023 31026 31029 31032 31035 31038 31041 31044 31047 31050 31053 31056 31059 31062 31065 31068 31071 31074 31077 31080 31083 31086 31089 31092 31095 31098 31101 31104 31107 31110 31113 31116 31119 31122 31125 31128 31131 31134 31137 31140 31143 31146 31149 31152 31155 31158 31161 31164 31167 31170 31173 31176 31179 31182 31185 31188 31191 31194 31197 31200 31203 31206 31209 31212 31215 31218 31221 31224 31227 31230 31233 31236 31239 31242 31245 31248 31251 31254 31257 31260 31263 31266 31269 31272 31275 31278 31281 31284 31287 31290 31293 31296 31299 31302 31305 31308 31311 31314 31317 31320 31323 31326 31329 31332 31335 31338 31341 31344 31347 31350 31353 31356 31359 31362 31365 31368 31371 31374 31377 31380 31383 31386 31389 31392 31395 31398 31401 31404 31407 31410 31413 31416 31419 31422 31425 31428 31431 31434 31437 31440 31443 31446 31449 31452 31455 31458 31461 31464 31467 31470 31473 31476 31479 31482 31485 31488 31491 31494 31497 31500 31503 31506 31509 31512 31515 31518 31521 31524 31527 31530 31533 31536 31539 31542 31545 31548 31551 31554 31557 31560 31563 31566 31569 31572 31575 31578 31581 31584 31587 31590 31593 31596 31599 31602 31605 31608 31611 31614 31617 31620 31623 31626 31629 31632 31635 31638 31641 31644 31647 31650 31653 31656 31659 31662 31665 31668 31671 31674 31677 31680 31683 31686 31689 31692 31695 31698 31701 31704 31707 31710 31713 31716 31719 31722 31725 31728 31731 31734 31737 31740 31743 31746 31749 31752 31755 31758 31761 31764 31767 31770 31773 31776 31779 31782 31785 31788 31791 31794 31797 31800 31803 31806 31809 31812 31815 31818 31821 31824 31827 31830 31833 31836 31839 31842 31845 31848 31851 31854 31857 31860 31863 31866 31869 31872 31875 31878 31881 31884 31887 31890 31893 31896 31899 31902 31905 31908 31911 31914 31917 31920 31923 31926 31929 31932 31935 31938 31941 31944 31947 31950 31953 31956 31959 31962 31965 31968 31971 31974 31977 31980 31983 31986 31989 31992 31995 31998 32001 32004 32007 32010 32013 32016 32019 32022 32025 32028 32031 32034 32037 32040 32043 32046 32049 32052 32055 32058 32061 32064 32067 32070 32073 32076 32079 32082 32085 32088 32091 32094 32097 32100 32103 32106 32109 32112 32115 32118 32121 32124 32127 32130 32133 32136 32139 32142 32145 32148 32151 32154 32157 32160 32163 32166 32169 32172 32175 32178 32181 32184 32187 32190 32193 32196 32199 32202 32205 32208 32211 32214 32217 32220 32223 32226 32229 32232 32235 32238 32241 32244 32247 32250 32253 32256 32259 32262 32265 32268 32271 32274 32277 32280 32283 32286 32289 32292 32295 32298 32301 32304 32307 32310 32313 32316 32319 32322 32325 32328 32331 32334 32337 32340 32343 32346 32349 32352 32355 32358 32361 32364 32367 32370 32373 32376 32379 32382 32385 32388 32391 32394 32397 32400 32403 32406 32409 32412 32415 32418 32421 32424 32427 32430 32433 32436 32439 32442 32445 32448 32451 32454 32457 32460 32463 32466 32469 32472 32475 32478 32481 32484 32487 32490 32493 32496 32499 32502 32505 32508 32511 32514 32517 32520 32523 32526 32529 32532 32535 32538 32541 32544 32547 32550 32553 32556 32559 32562 32565 32568 32571 32574 32577 32580 32583 32586 32589 32592 32595 32598 32601 32604 32607 32610 32613 32616 32619 32622 32625 32628 32631 32634 32637 32640 32643 32646 32649 32652 32655 32658 32661 32664 32667 32670 32673 32676 32679 32682 32685 32688 32691 32694 32697 32700 32703 32706 32709 32712 32715 32718 32721 32724 32727 32730 32733 32736 32739 32742 32745 32748 32751 32754 32757 32760 32763 32766 32769 32772 32775 32778 32781 32784 32787 32790 32793 32796 32799 32802 32805 32808 32811 32814 32817 32820 32823 32826 32829 32832 32835 32838 32841 32844 32847 32850 32853 32856 32859 32862 32865 32868 32871 32874 32877 32880 32883 32886 32889 32892 32895 32898 32901 32904 32907 32910 32913 32916 32919 32922 32925 32928 32931 32934 32937 32940 32943 32946 32949 32952 32955 32958 32961 32964 32967 32970 32973 32976 32979 32982 32985 32988 32991 32994 32997 33000 33003 33006 33009 33012 33015 33018 33021 33024 33027 33030 33033 33036 33039 33042 33045 33048 33051 33054 33057 33060 33063 33066 33069 33072 33075 33078 33081 33084 33087 33090 33093 33096 33099 33102 33105 33108 33111 33114 33117 33120 33123 33126 33129 33132 33135 33138 33141 33144 33147 33150 33153 33156 33159 33162 33165 33168 33171 33174 33177 33180 33183 33186 33189 33192 33195 33198 33201 33204 33207 33210 33213 33216 33219 33222 33225 33228 33231 33234 33237 33240 33243 33246 33249 33252 33255 33258 33261 33264 33267 33270 33273 33276 33279 33282 33285 33288 33291 33294 33297 33300 33303 33306 33309 33312 33315 33318 33321 33324 33327 33330 33333 33336 33339 33342 33345 33348 33351 33354 33357 33360 33363 33366 33369 33372 33375 33378 33381 33384 33387 33390 33393 33396 33399 33402 33405 33408 33411 33414 33417 33420 33423 33426 33429 33432 33435 33438 33441 33444 33447 33450 33453 33456 33459 33462 33465 33468 33471 33474 33477 33480 33483 33486 33489 33492 33495 33498 33501 33504 33507 33510 33513 33516 33519 33522 33525 33528 33531 33534 33537 33540 33543 33546 33549 33552 33555 33558 33561 33564 33567 33570 33573 33576 33579 33582 33585 33588 33591 33594 33597 33600 33603 33606 33609 33612 33615 33618 33621 33624 33627 33630 33633 33636 33639 33642 33645 33648 33651 33654 33657 33660 33663 33666 33669 33672 33675 33678 33681 33684 33687 33690 33693 33696 33699 33702 33705 33708 33711 33714 33717 33720 33723 33726 33729 33732 33735 33738 33741 33744 33747 33750 33753 33756 33759 33762 33765 33768 33771 33774 33777 33780 33783 33786 33789 33792 33795 33798 33801 33804 33807 33810 33813 33816 33819 33822 33825 33828 33831 33834 33837 33840 33843 33846 33849 33852 33855 33858 33861 33864 33867 33870 33873 33876 33879 33882 33885 33888 33891 33894 33897 33900 33903 33906 33909 33912 33915 33918 33921 33924 33927 33930 33933 33936 33939 33942 33945 33948 33951 33954 33957 33960 33963 33966 33969 33972 33975 33978 33981 33984 33987 33990 33993 33996 33999 34002 34005 34008 34011 34014 34017 34020 34023 34026 34029 34032 34035 34038 34041 34044 34047 34050 34053 34056 34059 34062 34065 34068 34071 34074 34077 34080 34083 34086 34089 34092 34095 34098 34101 34104 34107 34110 34113 34116 34119 34122 34125 34128 34131 34134 34137 34140 34143 34146 34149 34152 34155 34158 34161 34164 34167 34170 34173 34176 34179 34182 34185 34188 34191 34194 34197 34200 34203 34206 34209 34212 34215 34218 34221 34224 34227 34230 34233 34236 34239 34242 34245 34248 34251 34254 34257 34260 34263 34266 34269 34272 34275 34278 34281 34284 34287 34290 34293 34296 34299 34302 34305 34308 34311 34314 34317 34320 34323 34326 34329 34332 34335 34338 34341 34344 34347 34350 34353 34356 34359 34362 34365 34368 34371 34374 34377 34380 34383 34386 34389 34392 34395 34398 34401 34404 34407 34410 34413 34416 34419 34422 34425 34428 34431 34434 34437 34440 34443 34446 34449 34452 34455 34458 34461 34464 34467 34470 34473 34476 34479 34482 34485 34488 34491 34494 34497 34500 34503 34506 34509 34512 34515 34518 34521 34524 34527 34530 34533 34536 34539 34542 34545 34548 34551 34554 34557 34560 34563 34566 34569 34572 34575 34578 34581 34584 34587 34590 34593 34596 34599 34602 34605 34608 34611 34614 34617 34620 34623 34626 34629 34632 34635 34638 34641 34644 34647 34650 34653 34656 34659 34662 34665 34668 34671 34674 34677 34680 34683 34686 34689 34692 34695 34698 34701 34704 34707 34710 34713 34716 34719 34722 34725 34728 34731 34734 34737 34740 34743 34746 34749 34752 34755 34758 34761 34764 34767 34770 34773 34776 34779 34782 34785 34788 34791 34794 34797 34800 34803 34806 34809 34812 34815 34818 34821 34824 34827 34830 34833 34836 34839 34842 34845 34848 34851 34854 34857 34860 34863 34866 34869 34872 34875 34878 34881 34884 34887 34890 34893 34896 34899 34902 34905 34908 34911 34914 34917 34920 34923 34926 34929 34932 34935 34938 34941 34944 34947 34950 34953 34956 34959 34962 34965 34968 34971 34974 34977 34980 34983 34986 34989 34992 34995 34998 35001 35004 35007 35010 35013 35016 35019 35022 35025 35028 35031 35034 35037 35040 35043 35046 35049 35052 35055 35058 35061 35064 35067 35070 35073 35076 35079 35082 35085 35088 35091 35094 35097 35100 35103 35106 35109 35112 35115 35118 35121 35124 35127 35130 35133 35136 35139 35142 35145 35148 35151 35154 35157 35160 35163 35166 35169 35172 35175 35178 35181 35184 35187 35190 35193 35196 35199 35202 35205 35208 35211 35214 35217 35220 35223 35226 35229 35232 35235 35238 35241 35244 35247 35250 35253 35256 35259 35262 35265 35268 35271 35274 35277 35280 35283 35286 35289 35292 35295 35298 35301 35304 35307 35310 35313 35316 35319 35322 35325 35328 35331 35334 35337 35340 35343 35346 35349 35352 35355 35358 35361 35364 35367 35370 35373 35376 35379 35382 35385 35388 35391 35394 35397 35400 35403 35406 35409 35412 35415 35418 35421 35424 35427 35430 35433 35436 35439 35442 35445 35448 35451 35454 35457 35460 35463 35466 35469 35472 35475 35478 35481 35484 35487 35490 35493 35496 35499 35502 35505 35508 35511 35514 35517 35520 35523 35526 35529 35532 35535 35538 35541 35544 35547 35550 35553 35556 35559 35562 35565 35568 35571 35574 35577 35580 35583 35586 35589 35592 35595 35598 35601 35604 35607 35610 35613 35616 35619 35622 35625 35628 35631 35634 35637 35640 35643 35646 35649 35652 35655 35658 35661 35664 35667 35670 35673 35676 35679 35682 35685 35688 35691 35694 35697 35700 35703 35706 35709 35712 35715 35718 35721 35724 35727 35730 35733 35736 35739 35742 35745 35748 35751 35754 35757 35760 35763 35766 35769 35772 35775 35778 35781 35784 35787 35790 35793 35796 35799 35802 35805 35808 35811 35814 35817 35820 35823 35826 35829 35832 35835 35838 35841 35844 35847 35850 35853 35856 35859 35862 35865 35868 35871 35874 35877 35880 35883 35886 35889 35892 35895 35898 35901 35904 35907 35910 35913 35916 35919 35922 35925 35928 35931 35934 35937 35940 35943 35946 35949 35952 35955 35958 35961 35964 35967 35970 35973 35976 35979 35982 35985 35988 35991 35994 35997 36000 36003 36006 36009 36012 36015 36018 36021 36024 36027 36030 36033 36036 36039 36042 36045 36048 36051 36054 36057 36060 36063 36066 36069 36072 36075 36078 36081 36084 36087 36090 36093 36096 36099 36102 36105 36108 36111 36114 36117 36120 36123 36126 36129 36132 36135 36138 36141 36144 36147 36150 36153 36156 36159 36162 36165 36168 36171 36174 36177 36180 36183 36186 36189 36192 36195 36198 36201 36204 36207 36210 36213 36216 36219 36222 36225 36228 36231 36234 36237 36240 36243 36246 36249 36252 36255 36258 36261 36264 36267 36270 36273 36276 36279 36282 36285 36288 36291 36294 36297 36300 36303 36306 36309 36312 36315 36318 36321 36324 36327 36330 36333 36336 36339 36342 36345 36348 36351 36354 36357 36360 36363 36366 36369 36372 36375 36378 36381 36384 36387 36390 36393 36396 36399 36402 36405 36408 36411 36414 36417 36420 36423 36426 36429 36432 36435 36438 36441 36444 36447 36450 36453 36456 36459 36462 36465 36468 36471 36474 36477 36480 36483 36486 36489 36492 36495 36498 36501 36504 36507 36510 36513 36516 36519 36522 36525 36528 36531 36534 36537 36540 36543 36546 36549 36552 36555 36558 36561 36564 36567 36570 36573 36576 36579 36582 36585 36588 36591 36594 36597 36600 36603 36606 36609 36612 36615 36618 36621 36624 36627 36630 36633 36636 36639 36642 36645 36648 36651 36654 36657 36660 36663 36666 36669 36672 36675 36678 36681 36684 36687 36690 36693 36696 36699 36702 36705 36708 36711 36714 36717 36720 36723 36726 36729 36732 36735 36738 36741 36744 36747 36750 36753 36756 36759 36762 36765 36768 36771 36774 36777 36780 36783 36786 36789 36792 36795 36798 36801 36804 36807 36810 36813 36816 36819 36822 36825 36828 36831 36834 36837 36840 36843 36846 36849 36852 36855 36858 36861 36864 36867 36870 36873 36876 36879 36882 36885 36888 36891 36894 36897 36900 36903 36906 36909 36912 36915 36918 36921 36924 36927 36930 36933 36936 36939 36942 36945 36948 36951 36954 36957 36960 36963 36966 36969 36972 36975 36978 36981 36984 36987 36990 36993 36996 36999 37002 37005 37008 37011 37014 37017 37020 37023 37026 37029 37032 37035 37038 37041 37044 37047 37050 37053 37056 37059 37062 37065 37068 37071 37074 37077 37080 37083 37086 37089 37092 37095 37098 37101 37104 37107 37110 37113 37116 37119 37122 37125 37128 37131 37134 37137 37140 37143 37146 37149 37152 37155 37158 37161 37164 37167 37170 37173 37176 37179 37182 37185 37188 37191 37194 37197 37200 37203 37206 37209 37212 37215 37218 37221 37224 37227 37230 37233 37236 37239 37242 37245 37248 37251 37254 37257 37260 37263 37266 37269 37272 37275 37278 37281 37284 37287 37290 37293 37296 37299 37302 37305 37308 37311 37314 37317 37320 37323 37326 37329 37332 37335 37338 37341 37344 37347 37350 37353 37356 37359 37362 37365 37368 37371 37374 37377 37380 37383 37386 37389 37392 37395 37398 37401 37404 37407 37410 37413 37416 37419 37422 37425 37428 37431 37434 37437 37440 37443 37446 37449 37452 37455 37458 37461 37464 37467 37470 37473 37476 37479 37482 37485 37488 37491 37494 37497 37500 37503 37506 37509 37512 37515 37518 37521 37524 37527 37530 37533 37536 37539 37542 37545 37548 37551 37554 37557 37560 37563 37566 37569 37572 37575 37578 37581 37584 37587 37590 37593 37596 37599 37602 37605 37608 37611 37614 37617 37620 37623 37626 37629 37632 37635 37638 37641 37644 37647 37650 37653 37656 37659 37662 37665 37668 37671 37674 37677 37680 37683 37686 37689 37692 37695 37698 37701 37704 37707 37710 37713 37716 37719 37722 37725 37728 37731 37734 37737 37740 37743 37746 37749 37752 37755 37758 37761 37764 37767 37770 37773 37776 37779 37782 37785 37788 37791 37794 37797 37800 37803 37806 37809 37812 37815 37818 37821 37824 37827 37830 37833 37836 37839 37842 37845 37848 37851 37854 37857 37860 37863 37866 37869 37872 37875 37878 37881 37884 37887 37890 37893 37896 37899 37902 37905 37908 37911 37914 37917 37920 37923 37926 37929 37932 37935 37938 37941 37944 37947 37950 37953 37956 37959 37962 37965 37968 37971 37974 37977 37980 37983 37986 37989 37992 37995 37998 38001 38004 38007 38010 38013 38016 38019 38022 38025 38028 38031 38034 38037 38040 38043 38046 38049 38052 38055 38058 38061 38064 38067 38070 38073 38076 38079 38082 38085 38088 38091 38094 38097 38100 38103 38106 38109 38112 38115 38118 38121 38124 38127 38130 38133 38136 38139 38142 38145 38148 38151 38154 38157 38160 38163 38166 38169 38172 38175 38178 38181 38184 38187 38190 38193 38196 38199 38202 38205 38208 38211 38214 38217 38220 38223 38226 38229 38232 38235 38238 38241 38244 38247 38250 38253 38256 38259 38262 38265 38268 38271 38274 38277 38280 38283 38286 38289 38292 38295 38298 38301 38304 38307 38310 38313 38316 38319 38322 38325 38328 38331 38334 38337 38340 38343 38346 38349 38352 38355 38358 38361 38364 38367 38370 38373 38376 38379 38382 38385 38388 38391 38394 38397 38400 38403 38406 38409 38412 38415 38418 38421 38424 38427 38430 38433 38436 38439 38442 38445 38448 38451 38454 38457 38460 38463 38466 38469 38472 38475 38478 38481 38484 38487 38490 38493 38496 38499 38502 38505 38508 38511 38514 38517 38520 38523 38526 38529 38532 38535 38538 38541 38544 38547 38550 38553 38556 38559 38562 38565 38568 38571 38574 38577 38580 38583 38586 38589 38592 38595 38598 38601 38604 38607 38610 38613 38616 38619 38622 38625 38628 38631 38634 38637 38640 38643 38646 38649 38652 38655 38658 38661 38664 38667 38670 38673 38676 38679 38682 38685 38688 38691 38694 38697 38700 38703 38706 38709 38712 38715 38718 38721 38724 38727 38730 38733 38736 38739 38742 38745 38748 38751 38754 38757 38760 38763 38766 38769 38772 38775 38778 38781 38784 38787 38790 38793 38796 38799 38802 38805 38808 38811 38814 38817 38820 38823 38826 38829 38832 38835 38838 38841 38844 38847 38850 38853 38856 38859 38862 38865 38868 38871 38874 38877 38880 38883 38886 38889 38892 38895 38898 38901 38904 38907 38910 38913 38916 38919 38922 38925 38928 38931 38934 38937 38940 38943 38946 38949 38952 38955 38958 38961 38964 38967 38970 38973 38976 38979 38982 38985 38988 38991 38994 38997 39000 39003 39006 39009 39012 39015 39018 39021 39024 39027 39030 39033 39036 39039 39042 39045 39048 39051 39054 39057 39060 39063 39066 39069 39072 39075 39078 39081 39084 39087 39090 39093 39096 39099 39102 39105 39108 39111 39114 39117 39120 39123 39126 39129 39132 39135 39138 39141 39144 39147 39150 39153 39156 39159 39162 39165 39168 39171 39174 39177 39180 39183 39186 39189 39192 39195 39198 39201 39204 39207 39210 39213 39216 39219 39222 39225 39228 39231 39234 39237 39240 39243 39246 39249 39252 39255 39258 39261 39264 39267 39270 39273 39276 39279 39282 39285 39288 39291 39294 39297 39300 39303 39306 39309 39312 39315 39318 39321 39324 39327 39330 39333 39336 39339 39342 39345 39348 39351 39354 39357 39360 39363 39366 39369 39372 39375 39378 39381 39384 39387 39390 39393 39396 39399 39402 39405 39408 39411 39414 39417 39420 39423 39426 39429 39432 39435 39438 39441 39444 39447 39450 39453 39456 39459 39462 39465 39468 39471 39474 39477 39480 39483 39486 39489 39492 39495 39498 39501 39504 39507 39510 39513 39516 39519 39522 39525 39528 39531 39534 39537 39540 39543 39546 39549 39552 39555 39558 39561 39564 39567 39570 39573 39576 39579 39582 39585 39588 39591 39594 39597 39600 39603 39606 39609 39612 39615 39618 39621 39624 39627 39630 39633 39636 39639 39642 39645 39648 39651 39654 39657 39660 39663 39666 39669 39672 39675 39678 39681 39684 39687 39690 39693 39696 39699 39702 39705 39708 39711 39714 39717 39720 39723 39726 39729 39732 39735 39738 39741 39744 39747 39750 39753 39756 39759 39762 39765 39768 39771 39774 39777 39780 39783 39786 39789 39792 39795 39798 39801 39804 39807 39810 39813 39816 39819 39822 39825 39828 39831 39834 39837 39840 39843 39846 39849 39852 39855 39858 39861 39864 39867 39870 39873 39876 39879 39882 39885 39888 39891 39894 39897 39900 39903 39906 39909 39912 39915 39918 39921 39924 39927 39930 39933 39936 39939 39942 39945 39948 39951 39954 39957 39960 39963 39966 39969 39972 39975 39978 39981 39984 39987 39990 39993 39996 39999 40002 40005 40008 40011 40014 40017 40020 40023 40026 40029 40032 40035 40038 40041 40044 40047 40050 40053 40056 40059 40062 40065 40068 40071 40074 40077 40080 40083 40086 40089 40092 40095 40098 40101 40104 40107 40110 40113 40116 40119 40122 40125 40128 40131 40134 40137 40140 40143 40146 40149 40152 40155 40158 40161 40164 40167 40170 40173 40176 40179 40182 40185 40188 40191 40194 40197 40200 40203 40206 40209 40212 40215 40218 40221 40224 40227 40230 40233 40236 40239 40242 40245 40248 40251 40254 40257 40260 40263 40266 40269 40272 40275 40278 40281 40284 40287 40290 40293 40296 40299 40302 40305 40308 40311 40314 40317 40320 40323 40326 40329 40332 40335 40338 40341 40344 40347 40350 40353 40356 40359 40362 40365 40368 40371 40374 40377 40380 40383 40386 40389 40392 40395 40398 40401 40404 40407 40410 40413 40416 40419 40422 40425 40428 40431 40434 40437 40440 40443 40446 40449 40452 40455 40458 40461 40464 40467 40470 40473 40476 40479 40482 40485 40488 40491 40494 40497 40500 40503 40506 40509 40512 40515 40518 40521 40524 40527 40530 40533 40536 40539 40542 40545 40548 40551 40554 40557 40560 40563 40566 40569 40572 40575 40578 40581 40584 40587 40590 40593 40596 40599 40602 40605 40608 40611 40614 40617 40620 40623 40626 40629 40632 40635 40638 40641 40644 40647 40650 40653 40656 40659 40662 40665 40668 40671 40674 40677 40680 40683 40686 40689 40692 40695 40698 40701 40704 40707 40710 40713 40716 40719 40722 40725 40728 40731 40734 40737 40740 40743 40746 40749 40752 40755 40758 40761 40764 40767 40770 40773 40776 40779 40782 40785 40788 40791 40794 40797 40800 40803 40806 40809 40812 40815 40818 40821 40824 40827 40830 40833 40836 40839 40842 40845 40848 40851 40854 40857 40860 40863 40866 40869 40872 40875 40878 40881 40884 40887 40890 40893 40896 40899 40902 40905 40908 40911 40914 40917 40920 40923 40926 40929 40932 40935 40938 40941 40944 40947 40950 40953 40956 40959 40962 40965 40968 40971 40974 40977 40980 40983 40986 40989 40992 40995 40998 41001 41004 41007 41010 41013 41016 41019 41022 41025 41028 41031 41034 41037 41040 41043 41046 41049 41052 41055 41058 41061 41064 41067 41070 41073 41076 41079 41082 41085 41088 41091 41094 41097 41100 41103 41106 41109 41112 41115 41118 41121 41124 41127 41130 41133 41136 41139 41142 41145 41148 41151 41154 41157 41160 41163 41166 41169 41172 41175 41178 41181 41184 41187 41190 41193 41196 41199 41202 41205 41208 41211 41214 41217 41220 41223 41226 41229 41232 41235 41238 41241 41244 41247 41250 41253 41256 41259 41262 41265 41268 41271 41274 41277 41280 41283 41286 41289 41292 41295 41298 41301 41304 41307 41310 41313 41316 41319 41322 41325 41328 41331 41334 41337 41340 41343 41346 41349 41352 41355 41358 41361 41364 41367 41370 41373 41376 41379 41382 41385 41388 41391 41394 41397 41400 41403 41406 41409 41412 41415 41418 41421 41424 41427 41430 41433 41436 41439 41442 41445 41448 41451 41454 41457 41460 41463 41466 41469 41472 41475 41478 41481 41484 41487 41490 41493 41496 41499 41502 41505 41508 41511 41514 41517 41520 41523 41526 41529 41532 41535 41538 41541 41544 41547 41550 41553 41556 41559 41562 41565 41568 41571 41574 41577 41580 41583 41586 41589 41592 41595 41598 41601 41604 41607 41610 41613 41616 41619 41622 41625 41628 41631 41634 41637 41640 41643 41646 41649 41652 41655 41658 41661 41664 41667 41670 41673 41676 41679 41682 41685 41688 41691 41694 41697 41700 41703 41706 41709 41712 41715 41718 41721 41724 41727 41730 41733 41736 41739 41742 41745 41748 41751 41754 41757 41760 41763 41766 41769 41772 41775 41778 41781 41784 41787 41790 41793 41796 41799 41802 41805 41808 41811 41814 41817 41820 41823 41826 41829 41832 41835 41838 41841 41844 41847 41850 41853 41856 41859 41862 41865 41868 41871 41874 41877 41880 41883 41886 41889 41892 41895 41898 41901 41904 41907 41910 41913 41916 41919 41922 41925 41928 41931 41934 41937 41940 41943 41946 41949 41952 41955 41958 41961 41964 41967 41970 41973 41976 41979 41982 41985 41988 41991 41994 41997 42000 42003 42006 42009 42012 42015 42018 42021 42024 42027 42030 42033 42036 42039 42042 42045 42048 42051 42054 42057 42060 42063 42066 42069 42072 42075 42078 42081 42084 42087 42090 42093 42096 42099 42102 42105 42108 42111 42114 42117 42120 42123 42126 42129 42132 42135 42138 42141 42144 42147 42150 42153 42156 42159 42162 42165 42168 42171 42174 42177 42180 42183 42186 42189 42192 42195 42198 42201 42204 42207 42210 42213 42216 42219 42222 42225 42228 42231 42234 42237 42240 42243 42246 42249 42252 42255 42258 42261 42264 42267 42270 42273 42276 42279 42282 42285 42288 42291 42294 42297 42300 42303 42306 42309 42312 42315 42318 42321 42324 42327 42330 42333 42336 42339 42342 42345 42348 42351 42354 42357 42360 42363 42366 42369 42372 42375 42378 42381 42384 42387 42390 42393 42396 42399 42402 42405 42408 42411 42414 42417 42420 42423 42426 42429 42432 42435 42438 42441 42444 42447 42450 42453 42456 42459 42462 42465 42468 42471 42474 42477 42480 42483 42486 42489 42492 42495 42498 42501 42504 42507 42510 42513 42516 42519 42522 42525 42528 42531 42534 42537 42540 42543 42546 42549 42552 42555 42558 42561 42564 42567 42570 42573 42576 42579 42582 42585 42588 42591 42594 42597 42600 42603 42606 42609 42612 42615 42618 42621 42624 42627 42630 42633 42636 42639 42642 42645 42648 42651 42654 42657 42660 42663 42666 42669 42672 42675 42678 42681 42684 42687 42690 42693 42696 42699 42702 42705 42708 42711 42714 42717 42720 42723 42726 42729 42732 42735 42738 42741 42744 42747 42750 42753 42756 42759 42762 42765 42768 42771 42774 42777 42780 42783 42786 42789 42792 42795 42798 42801 42804 42807 42810 42813 42816 42819 42822 42825 42828 42831 42834 42837 42840 42843 42846 42849 42852 42855 42858 42861 42864 42867 42870 42873 42876 42879 42882 42885 42888 42891 42894 42897 42900 42903 42906 42909 42912 42915 42918 42921 42924 42927 42930 42933 42936 42939 42942 42945 42948 42951 42954 42957 42960 42963 42966 42969 42972 42975 42978 42981 42984 42987 42990 42993 42996 42999 43002 43005 43008 43011 43014 43017 43020 43023 43026 43029 43032 43035 43038 43041 43044 43047 43050 43053 43056 43059 43062 43065 43068 43071 43074 43077 43080 43083 43086 43089 43092 43095 43098 43101 43104 43107 43110 43113 43116 43119 43122 43125 43128 43131 43134 43137 43140 43143 43146 43149 43152 43155 43158 43161 43164 43167 43170 43173 43176 43179 43182 43185 43188 43191 43194 43197 43200 43203 43206 43209 43212 43215 43218 43221 43224 43227 43230 43233 43236 43239 43242 43245 43248 43251 43254 43257 43260 43263 43266 43269 43272 43275 43278 43281 43284 43287 43290 43293 43296 43299 43302 43305 43308 43311 43314 43317 43320 43323 43326 43329 43332 43335 43338 43341 43344 43347 43350 43353 43356 43359 43362 43365 43368 43371 43374 43377 43380 43383 43386 43389 43392 43395 43398 43401 43404 43407 43410 43413 43416 43419 43422 43425 43428 43431 43434 43437 43440 43443 43446 43449 43452 43455 43458 43461 43464 43467 43470 43473 43476 43479 43482 43485 43488 43491 43494 43497 43500 43503 43506 43509 43512 43515 43518 43521 43524 43527 43530 43533 43536 43539 43542 43545 43548 43551 43554 43557 43560 43563 43566 43569 43572 43575 43578 43581 43584 43587 43590 43593 43596 43599 43602 43605 43608 43611 43614 43617 43620 43623 43626 43629 43632 43635 43638 43641 43644 43647 43650 43653 43656 43659 43662 43665 43668 43671 43674 43677 43680 43683 43686 43689 43692 43695 43698 43701 43704 43707 43710 43713 43716 43719 43722 43725 43728 43731 43734 43737 43740 43743 43746 43749 43752 43755 43758 43761 43764 43767 43770 43773 43776 43779 43782 43785 43788 43791 43794 43797 43800 43803 43806 43809 43812 43815 43818 43821 43824 43827 43830 43833 43836 43839 43842 43845 43848 43851 43854 43857 43860 43863 43866 43869 43872 43875 43878 43881 43884 43887 43890 43893 43896 43899 43902 43905 43908 43911 43914 43917 43920 43923 43926 43929 43932 43935 43938 43941 43944 43947 43950 43953 43956 43959 43962 43965 43968 43971 43974 43977 43980 43983 43986 43989 43992 43995 43998 44001 44004 44007 44010 44013 44016 44019 44022 44025 44028 44031 44034 44037 44040 44043 44046 44049 44052 44055 44058 44061 44064 44067 44070 44073 44076 44079 44082 44085 44088 44091 44094 44097 44100 44103 44106 44109 44112 44115 44118 44121 44124 44127 44130 44133 44136 44139 44142 44145 44148 44151 44154 44157 44160 44163 44166 44169 44172 44175 44178 44181 44184 44187 44190 44193 44196 44199 44202 44205 44208 44211 44214 44217 44220 44223 44226 44229 44232 44235 44238 44241 44244 44247 44250 44253 44256 44259 44262 44265 44268 44271 44274 44277 44280 44283 44286 44289 44292 44295 44298 44301 44304 44307 44310 44313 44316 44319 44322 44325 44328 44331 44334 44337 44340 44343 44346 44349 44352 44355 44358 44361 44364 44367 44370 44373 44376 44379 44382 44385 44388 44391 44394 44397 44400 44403 44406 44409 44412 44415 44418 44421 44424 44427 44430 44433 44436 44439 44442 44445 44448 44451 44454 44457 44460 44463 44466 44469 44472 44475 44478 44481 44484 44487 44490 44493 44496 44499 44502 44505 44508 44511 44514 44517 44520 44523 44526 44529 44532 44535 44538 44541 44544 44547 44550 44553 44556 44559 44562 44565 44568 44571 44574 44577 44580 44583 44586 44589 44592 44595 44598 44601 44604 44607 44610 44613 44616 44619 44622 44625 44628 44631 44634 44637 44640 44643 44646 44649 44652 44655 44658 44661 44664 44667 44670 44673 44676 44679 44682 44685 44688 44691 44694 44697 44700 44703 44706 44709 44712 44715 44718 44721 44724 44727 44730 44733 44736 44739 44742 44745 44748 44751 44754 44757 44760 44763 44766 44769 44772 44775 44778 44781 44784 44787 44790 44793 44796 44799 44802 44805 44808 44811 44814 44817 44820 44823 44826 44829 44832 44835 44838 44841 44844 44847 44850 44853 44856 44859 44862 44865 44868 44871 44874 44877 44880 44883 44886 44889 44892 44895 44898 44901 44904 44907 44910 44913 44916 44919 44922 44925 44928 44931 44934 44937 44940 44943 44946 44949 44952 44955 44958 44961 44964 44967 44970 44973 44976 44979 44982 44985 44988 44991 44994 44997 45000 45003 45006 45009 45012 45015 45018 45021 45024 45027 45030 45033 45036 45039 45042 45045 45048 45051 45054 45057 45060 45063 45066 45069 45072 45075 45078 45081 45084 45087 45090 45093 45096 45099 45102 45105 45108 45111 45114 45117 45120 45123 45126 45129 45132 45135 45138 45141 45144 45147 45150 45153 45156 45159 45162 45165 45168 45171 45174 45177 45180 45183 45186 45189 45192 45195 45198 45201 45204 45207 45210 45213 45216 45219 45222 45225 45228 45231 45234 45237 45240 45243 45246 45249 45252 45255 45258 45261 45264 45267 45270 45273 45276 45279 45282 45285 45288 45291 45294 45297 45300 45303 45306 45309 45312 45315 45318 45321 45324 45327 45330 45333 45336 45339 45342 45345 45348 45351 45354 45357 45360 45363 45366 45369 45372 45375 45378 45381 45384 45387 45390 45393 45396 45399 45402 45405 45408 45411 45414 45417 45420 45423 45426 45429 45432 45435 45438 45441 45444 45447 45450 45453 45456 45459 45462 45465 45468 45471 45474 45477 45480 45483 45486 45489 45492 45495 45498 45501 45504 45507 45510 45513 45516 45519 45522 45525 45528 45531 45534 45537 45540 45543 45546 45549 45552 45555 45558 45561 45564 45567 45570 45573 45576 45579 45582 45585 45588 45591 45594 45597 45600 45603 45606 45609 45612 45615 45618 45621 45624 45627 45630 45633 45636 45639 45642 45645 45648 45651 45654 45657 45660 45663 45666 45669 45672 45675 45678 45681 45684 45687 45690 45693 45696 45699 45702 45705 45708 45711 45714 45717 45720 45723 45726 45729 45732 45735 45738 45741 45744 45747 45750 45753 45756 45759 45762 45765 45768 45771 45774 45777 45780 45783 45786 45789 45792 45795 45798 45801 45804 45807 45810 45813 45816 45819 45822 45825 45828 45831 45834 45837 45840 45843 45846 45849 45852 45855 45858 45861 45864 45867 45870 45873 45876 45879 45882 45885 45888 45891 45894 45897 45900 45903 45906 45909 45912 45915 45918 45921 45924 45927 45930 45933 45936 45939 45942 45945 45948 45951 45954 45957 45960 45963 45966 45969 45972 45975 45978 45981 45984 45987 45990 45993 45996 45999 46002 46005 46008 46011 46014 46017 46020 46023 46026 46029 46032 46035 46038 46041 46044 46047 46050 46053 46056 46059 46062 46065 46068 46071 46074 46077 46080 46083 46086 46089 46092 46095 46098 46101 46104 46107 46110 46113 46116 46119 46122 46125 46128 46131 46134 46137 46140 46143 46146 46149 46152 46155 46158 46161 46164 46167 46170 46173 46176 46179 46182 46185 46188 46191 46194 46197 46200 46203 46206 46209 46212 46215 46218 46221 46224 46227 46230 46233 46236 46239 46242 46245 46248 46251 46254 46257 46260 46263 46266 46269 46272 46275 46278 46281 46284 46287 46290 46293 46296 46299 46302 46305 46308 46311 46314 46317 46320 46323 46326 46329 46332 46335 46338 46341 46344 46347 46350 46353 46356 46359 46362 46365 46368 46371 46374 46377 46380 46383 46386 46389 46392 46395 46398 46401 46404 46407 46410 46413 46416 46419 46422 46425 46428 46431 46434 46437 46440 46443 46446 46449 46452 46455 46458 46461 46464 46467 46470 46473 46476 46479 46482 46485 46488 46491 46494 46497 46500 46503 46506 46509 46512 46515 46518 46521 46524 46527 46530 46533 46536 46539 46542 46545 46548 46551 46554 46557 46560 46563 46566 46569 46572 46575 46578 46581 46584 46587 46590 46593 46596 46599 46602 46605 46608 46611 46614 46617 46620 46623 46626 46629 46632 46635 46638 46641 46644 46647 46650 46653 46656 46659 46662 46665 46668 46671 46674 46677 46680 46683 46686 46689 46692 46695 46698 46701 46704 46707 46710 46713 46716 46719 46722 46725 46728 46731 46734 46737 46740 46743 46746 46749 46752 46755 46758 46761 46764 46767 46770 46773 46776 46779 46782 46785 46788 46791 46794 46797 46800 46803 46806 46809 46812 46815 46818 46821 46824 46827 46830 46833 46836 46839 46842 46845 46848 46851 46854 46857 46860 46863 46866 46869 46872 46875 46878 46881 46884 46887 46890 46893 46896 46899 46902 46905 46908 46911 46914 46917 46920 46923 46926 46929 46932 46935 46938 46941 46944 46947 46950 46953 46956 46959 46962 46965 46968 46971 46974 46977 46980 46983 46986 46989 46992 46995 46998 47001 47004 47007 47010 47013 47016 47019 47022 47025 47028 47031 47034 47037 47040 47043 47046 47049 47052 47055 47058 47061 47064 47067 47070 47073 47076 47079 47082 47085 47088 47091 47094 47097 47100 47103 47106 47109 47112 47115 47118 47121 47124 47127 47130 47133 47136 47139 47142 47145 47148 47151 47154 47157 47160 47163 47166 47169 47172 47175 47178 47181 47184 47187 47190 47193 47196 47199 47202 47205 47208 47211 47214 47217 47220 47223 47226 47229 47232 47235 47238 47241 47244 47247 47250 47253 47256 47259 47262 47265 47268 47271 47274 47277 47280 47283 47286 47289 47292 47295 47298 47301 47304 47307 47310 47313 47316 47319 47322 47325 47328 47331 47334 47337 47340 47343 47346 47349 47352 47355 47358 47361 47364 47367 47370 47373 47376 47379 47382 47385 47388 47391 47394 47397 47400 47403 47406 47409 47412 47415 47418 47421 47424 47427 47430 47433 47436 47439 47442 47445 47448 47451 47454 47457 47460 47463 47466 47469 47472 47475 47478 47481 47484 47487 47490 47493 47496 47499 47502 47505 47508 47511 47514 47517 47520 47523 47526 47529 47532 47535 47538 47541 47544 47547 47550 47553 47556 47559 47562 47565 47568 47571 47574 47577 47580 47583 47586 47589 47592 47595 47598 47601 47604 47607 47610 47613 47616 47619 47622 47625 47628 47631 47634 47637 47640 47643 47646 47649 47652 47655 47658 47661 47664 47667 47670 47673 47676 47679 47682 47685 47688 47691 47694 47697 47700 47703 47706 47709 47712 47715 47718 47721 47724 47727 47730 47733 47736 47739 47742 47745 47748 47751 47754 47757 47760 47763 47766 47769 47772 47775 47778 47781 47784 47787 47790 47793 47796 47799 47802 47805 47808 47811 47814 47817 47820 47823 47826 47829 47832 47835 47838 47841 47844 47847 47850 47853 47856 47859 47862 47865 47868 47871 47874 47877 47880 47883 47886 47889 47892 47895 47898 47901 47904 47907 47910 47913 47916 47919 47922 47925 47928 47931 47934 47937 47940 47943 47946 47949 47952 47955 47958 47961 47964 47967 47970 47973 47976 47979 47982 47985 47988 47991 47994 47997 48000 48003 48006 48009 48012 48015 48018 48021 48024 48027 48030 48033 48036 48039 48042 48045 48048 48051 48054 48057 48060 48063 48066 48069 48072 48075 48078 48081 48084 48087 48090 48093 48096 48099 48102 48105 48108 48111 48114 48117 48120 48123 48126 48129 48132 48135 48138 48141 48144 48147 48150 48153 48156 48159 48162 48165 48168 48171 48174 48177 48180 48183 48186 48189 48192 48195 48198 48201 48204 48207 48210 48213 48216 48219 48222 48225 48228 48231 48234 48237 48240 48243 48246 48249 48252 48255 48258 48261 48264 48267 48270 48273 48276 48279 48282 48285 48288 48291 48294 48297 48300 48303 48306 48309 48312 48315 48318 48321 48324 48327 48330 48333 48336 48339 48342 48345 48348 48351 48354 48357 48360 48363 48366 48369 48372 48375 48378 48381 48384 48387 48390 48393 48396 48399 48402 48405 48408 48411 48414 48417 48420 48423 48426 48429 48432 48435 48438 48441 48444 48447 48450 48453 48456 48459 48462 48465 48468 48471 48474 48477 48480 48483 48486 48489 48492 48495 48498 48501 48504 48507 48510 48513 48516 48519 48522 48525 48528 48531 48534 48537 48540 48543 48546 48549 48552 48555 48558 48561 48564 48567 48570 48573 48576 48579 48582 48585 48588 48591 48594 48597 48600 48603 48606 48609 48612 48615 48618 48621 48624 48627 48630 48633 48636 48639 48642 48645 48648 48651 48654 48657 48660 48663 48666 48669 48672 48675 48678 48681 48684 48687 48690 48693 48696 48699 48702 48705 48708 48711 48714 48717 48720 48723 48726 48729 48732 48735 48738 48741 48744 48747 48750 48753 48756 48759 48762 48765 48768 48771 48774 48777 48780 48783 48786 48789 48792 48795 48798 48801 48804 48807 48810 48813 48816 48819 48822 48825 48828 48831 48834 48837 48840 48843 48846 48849 48852 48855 48858 48861 48864 48867 48870 48873 48876 48879 48882 48885 48888 48891 48894 48897 48900 48903 48906 48909 48912 48915 48918 48921 48924 48927 48930 48933 48936 48939 48942 48945 48948 48951 48954 48957 48960 48963 48966 48969 48972 48975 48978 48981 48984 48987 48990 48993 48996 48999 49002 49005 49008 49011 49014 49017 49020 49023 49026 49029 49032 49035 49038 49041 49044 49047 49050 49053 49056 49059 49062 49065 49068 49071 49074 49077 49080 49083 49086 49089 49092 49095 49098 49101 49104 49107 49110 49113 49116 49119 49122 49125 49128 49131 49134 49137 49140 49143 49146 49149 49152 49155 49158 49161 49164 49167 49170 49173 49176 49179 49182 49185 49188 49191 49194 49197 49200 49203 49206 49209 49212 49215 49218 49221 49224 49227 49230 49233 49236 49239 49242 49245 49248 49251 49254 49257 49260 49263 49266 49269 49272 49275 49278 49281 49284 49287 49290 49293 49296 49299 49302 49305 49308 49311 49314 49317 49320 49323 49326 49329 49332 49335 49338 49341 49344 49347 49350 49353 49356 49359 49362 49365 49368 49371 49374 49377 49380 49383 49386 49389 49392 49395 49398 49401 49404 49407 49410 49413 49416 49419 49422 49425 49428 49431 49434 49437 49440 49443 49446 49449 49452 49455 49458 49461 49464 49467 49470 49473 49476 49479 49482 49485 49488 49491 49494 49497 49500 49503 49506 49509 49512 49515 49518 49521 49524 49527 49530 49533 49536 49539 49542 49545 49548 49551 49554 49557 49560 49563 49566 49569 49572 49575 49578 49581 49584 49587 49590 49593 49596 49599 49602 49605 49608 49611 49614 49617 49620 49623 49626 49629 49632 49635 49638 49641 49644 49647 49650 49653 49656 49659 49662 49665 49668 49671 49674 49677 49680 49683 49686 49689 49692 49695 49698 49701 49704 49707 49710 49713 49716 49719 49722 49725 49728 49731 49734 49737 49740 49743 49746 49749 49752 49755 49758 49761 49764 49767 49770 49773 49776 49779 49782 49785 49788 49791 49794 49797 49800 49803 49806 49809 49812 49815 49818 49821 49824 49827 49830 49833 49836 49839 49842 49845 49848 49851 49854 49857 49860 49863 49866 49869 49872 49875 49878 49881 49884 49887 49890 49893 49896 49899 49902 49905 49908 49911 49914 49917 49920 49923 49926 49929 49932 49935 49938 49941 49944 49947 49950 49953 49956 49959 49962 49965 49968 49971 49974 49977 49980 49983 49986 49989 49992 49995 49998 50001 50004 50007 50010 50013 50016 50019 50022 50025 50028 50031 50034 50037 50040 50043 50046 50049 50052 50055 50058 50061 50064 50067 50070 50073 50076 50079 50082 50085 50088 50091 50094 50097 50100 50103 50106 50109 50112 50115 50118 50121 50124 50127 50130 50133 50136 50139 50142 50145 50148 50151 50154 50157 50160 50163 50166 50169 50172 50175 50178 50181 50184 50187 50190 50193 50196 50199 50202 50205 50208 50211 50214 50217 50220 50223 50226 50229 50232 50235 50238 50241 50244 50247 50250 50253 50256 50259 50262 50265 50268 50271 50274 50277 50280 50283 50286 50289 50292 50295 50298 50301 50304 50307 50310 50313 50316 50319 50322 50325 50328 50331 50334 50337 50340 50343 50346 50349 50352 50355 50358 50361 50364 50367 50370 50373 50376 50379 50382 50385 50388 50391 50394 50397 50400 50403 50406 50409 50412 50415 50418 50421 50424 50427 50430 50433 50436 50439 50442 50445 50448 50451 50454 50457 50460 50463 50466 50469 50472 50475 50478 50481 50484 50487 50490 50493 50496 50499 50502 50505 50508 50511 50514 50517 50520 50523 50526 50529 50532 50535 50538 50541 50544 50547 50550 50553 50556 50559 50562 50565 50568 50571 50574 50577 50580 50583 50586 50589 50592 50595 50598 50601 50604 50607 50610 50613 50616 50619 50622 50625 50628 50631 50634 50637 50640 50643 50646 50649 50652 50655 50658 50661 50664 50667 50670 50673 50676 50679 50682 50685 50688 50691 50694 50697 50700 50703 50706 50709 50712 50715 50718 50721 50724 50727 50730 50733 50736 50739 50742 50745 50748 50751 50754 50757 50760 50763 50766 50769 50772 50775 50778 50781 50784 50787 50790 50793 50796 50799 50802 50805 50808 50811 50814 50817 50820 50823 50826 50829 50832 50835 50838 50841 50844 50847 50850 50853 50856 50859 50862 50865 50868 50871 50874 50877 50880 50883 50886 50889 50892 50895 50898 50901 50904 50907 50910 50913 50916 50919 50922 50925 50928 50931 50934 50937 50940 50943 50946 50949 50952 50955 50958 50961 50964 50967 50970 50973 50976 50979 50982 50985 50988 50991 50994 50997 51000 51003 51006 51009 51012 51015 51018 51021 51024 51027 51030 51033 51036 51039 51042 51045 51048 51051 51054 51057 51060 51063 51066 51069 51072 51075 51078 51081 51084 51087 51090 51093 51096 51099 51102 51105 51108 51111 51114 51117 51120 51123 51126 51129 51132 51135 51138 51141 51144 51147 51150 51153 51156 51159 51162 51165 51168 51171 51174 51177 51180 51183 51186 51189 51192 51195 51198 51201 51204 51207 51210 51213 51216 51219 51222 51225 51228 51231 51234 51237 51240 51243 51246 51249 51252 51255 51258 51261 51264 51267 51270 51273 51276 51279 51282 51285 51288 51291 51294 51297 51300 51303 51306 51309 51312 51315 51318 51321 51324 51327 51330 51333 51336 51339 51342 51345 51348 51351 51354 51357 51360 51363 51366 51369 51372 51375 51378 51381 51384 51387 51390 51393 51396 51399 51402 51405 51408 51411 51414 51417 51420 51423 51426 51429 51432 51435 51438 51441 51444 51447 51450 51453 51456 51459 51462 51465 51468 51471 51474 51477 51480 51483 51486 51489 51492 51495 51498 51501 51504 51507 51510 51513 51516 51519 51522 51525 51528 51531 51534 51537 51540 51543 51546 51549 51552 51555 51558 51561 51564 51567 51570 51573 51576 51579 51582 51585 51588 51591 51594 51597 51600 51603 51606 51609 51612 51615 51618 51621 51624 51627 51630 51633 51636 51639 51642 51645 51648 51651 51654 51657 51660 51663 51666 51669 51672 51675 51678 51681 51684 51687 51690 51693 51696 51699 51702 51705 51708 51711 51714 51717 51720 51723 51726 51729 51732 51735 51738 51741 51744 51747 51750 51753 51756 51759 51762 51765 51768 51771 51774 51777 51780 51783 51786 51789 51792 51795 51798 51801 51804 51807 51810 51813 51816 51819 51822 51825 51828 51831 51834 51837 51840 51843 51846 51849 51852 51855 51858 51861 51864 51867 51870 51873 51876 51879 51882 51885 51888 51891 51894 51897 51900 51903 51906 51909 51912 51915 51918 51921 51924 51927 51930 51933 51936 51939 51942 51945 51948 51951 51954 51957 51960 51963 51966 51969 51972 51975 51978 51981 51984 51987 51990 51993 51996 51999 52002 52005 52008 52011 52014 52017 52020 52023 52026 52029 52032 52035 52038 52041 52044 52047 52050 52053 52056 52059 52062 52065 52068 52071 52074 52077 52080 52083 52086 52089 52092 52095 52098 52101 52104 52107 52110 52113 52116 52119 52122 52125 52128 52131 52134 52137 52140 52143 52146 52149 52152 52155 52158 52161 52164 52167 52170 52173 52176 52179 52182 52185 52188 52191 52194 52197 52200 52203 52206 52209 52212 52215 52218 52221 52224 52227 52230 52233 52236 52239 52242 52245 52248 52251 52254 52257 52260 52263 52266 52269 52272 52275 52278 52281 52284 52287 52290 52293 52296 52299 52302 52305 52308 52311 52314 52317 52320 52323 52326 52329 52332 52335 52338 52341 52344 52347 52350 52353 52356 52359 52362 52365 52368 52371 52374 52377 52380 52383 52386 52389 52392 52395 52398 52401 52404 52407 52410 52413 52416 52419 52422 52425 52428 52431 52434 52437 52440 52443 52446 52449 52452 52455 52458 52461 52464 52467 52470 52473 52476 52479 52482 52485 52488 52491 52494 52497 52500 52503 52506 52509 52512 52515 52518 52521 52524 52527 52530 52533 52536 52539 52542 52545 52548 52551 52554 52557 52560 52563 52566 52569 52572 52575 52578 52581 52584 52587 52590 52593 52596 52599 52602 52605 52608 52611 52614 52617 52620 52623 52626 52629 52632 52635 52638 52641 52644 52647 52650 52653 52656 52659 52662 52665 52668 52671 52674 52677 52680 52683 52686 52689 52692 52695 52698 52701 52704 52707 52710 52713 52716 52719 52722 52725 52728 52731 52734 52737 52740 52743 52746 52749 52752 52755 52758 52761 52764 52767 52770 52773 52776 52779 52782 52785 52788 52791 52794 52797 52800 52803 52806 52809 52812 52815 52818 52821 52824 52827 52830 52833 52836 52839 52842 52845 52848 52851 52854 52857 52860 52863 52866 52869 52872 52875 52878 52881 52884 52887 52890 52893 52896 52899 52902 52905 52908 52911 52914 52917 52920 52923 52926 52929 52932 52935 52938 52941 52944 52947 52950 52953 52956 52959 52962 52965 52968 52971 52974 52977 52980 52983 52986 52989 52992 52995 52998 53001 53004 53007 53010 53013 53016 53019 53022 53025 53028 53031 53034 53037 53040 53043 53046 53049 53052 53055 53058 53061 53064 53067 53070 53073 53076 53079 53082 53085 53088 53091 53094 53097 53100 53103 53106 53109 53112 53115 53118 53121 53124 53127 53130 53133 53136 53139 53142 53145 53148 53151 53154 53157 53160 53163 53166 53169 53172 53175 53178 53181 53184 53187 53190 53193 53196 53199 53202 53205 53208 53211 53214 53217 53220 53223 53226 53229 53232 53235 53238 53241 53244 53247 53250 53253 53256 53259 53262 53265 53268 53271 53274 53277 53280 53283 53286 53289 53292 53295 53298 53301 53304 53307 53310 53313 53316 53319 53322 53325 53328 53331 53334 53337 53340 53343 53346 53349 53352 53355 53358 53361 53364 53367 53370 53373 53376 53379 53382 53385 53388 53391 53394 53397 53400 53403 53406 53409 53412 53415 53418 53421 53424 53427 53430 53433 53436 53439 53442 53445 53448 53451 53454 53457 53460 53463 53466 53469 53472 53475 53478 53481 53484 53487 53490 53493 53496 53499 53502 53505 53508 53511 53514 53517 53520 53523 53526 53529 53532 53535 53538 53541 53544 53547 53550 53553 53556 53559 53562 53565 53568 53571 53574 53577 53580 53583 53586 53589 53592 53595 53598 53601 53604 53607 53610 53613 53616 53619 53622 53625 53628 53631 53634 53637 53640 53643 53646 53649 53652 53655 53658 53661 53664 53667 53670 53673 53676 53679 53682 53685 53688 53691 53694 53697 53700 53703 53706 53709 53712 53715 53718 53721 53724 53727 53730 53733 53736 53739 53742 53745 53748 53751 53754 53757 53760 53763 53766 53769 53772 53775 53778 53781 53784 53787 53790 53793 53796 53799 53802 53805 53808 53811 53814 53817 53820 53823 53826 53829 53832 53835 53838 53841 53844 53847 53850 53853 53856 53859 53862 53865 53868 53871 53874 53877 53880 53883 53886 53889 53892 53895 53898 53901 53904 53907 53910 53913 53916 53919 53922 53925 53928 53931 53934 53937 53940 53943 53946 53949 53952 53955 53958 53961 53964 53967 53970 53973 53976 53979 53982 53985 53988 53991 53994 53997 54000 54003 54006 54009 54012 54015 54018 54021 54024 54027 54030 54033 54036 54039 54042 54045 54048 54051 54054 54057 54060 54063 54066 54069 54072 54075 54078 54081 54084 54087 54090 54093 54096 54099 54102 54105 54108 54111 54114 54117 54120 54123 54126 54129 54132 54135 54138 54141 54144 54147 54150 54153 54156 54159 54162 54165 54168 54171 54174 54177 54180 54183 54186 54189 54192 54195 54198 54201 54204 54207 54210 54213 54216 54219 54222 54225 54228 54231 54234 54237 54240 54243 54246 54249 54252 54255 54258 54261 54264 54267 54270 54273 54276 54279 54282 54285 54288 54291 54294 54297 54300 54303 54306 54309 54312 54315 54318 54321 54324 54327 54330 54333 54336 54339 54342 54345 54348 54351 54354 54357 54360 54363 54366 54369 54372 54375 54378 54381 54384 54387 54390 54393 54396 54399 54402 54405 54408 54411 54414 54417 54420 54423 54426 54429 54432 54435 54438 54441 54444 54447 54450 54453 54456 54459 54462 54465 54468 54471 54474 54477 54480 54483 54486 54489 54492 54495 54498 54501 54504 54507 54510 54513 54516 54519 54522 54525 54528 54531 54534 54537 54540 54543 54546 54549 54552 54555 54558 54561 54564 54567 54570 54573 54576 54579 54582 54585 54588 54591 54594 54597 54600 54603 54606 54609 54612 54615 54618 54621 54624 54627 54630 54633 54636 54639 54642 54645 54648 54651 54654 54657 54660 54663 54666 54669 54672 54675 54678 54681 54684 54687 54690 54693 54696 54699 54702 54705 54708 54711 54714 54717 54720 54723 54726 54729 54732 54735 54738 54741 54744 54747 54750 54753 54756 54759 54762 54765 54768 54771 54774 54777 54780 54783 54786 54789 54792 54795 54798 54801 54804 54807 54810 54813 54816 54819 54822 54825 54828 54831 54834 54837 54840 54843 54846 54849 54852 54855 54858 54861 54864 54867 54870 54873 54876 54879 54882 54885 54888 54891 54894 54897 54900 54903 54906 54909 54912 54915 54918 54921 54924 54927 54930 54933 54936 54939 54942 54945 54948 54951 54954 54957 54960 54963 54966 54969 54972 54975 54978 54981 54984 54987 54990 54993 54996 54999 55002 55005 55008 55011 55014 55017 55020 55023 55026 55029 55032 55035 55038 55041 55044 55047 55050 55053 55056 55059 55062 55065 55068 55071 55074 55077 55080 55083 55086 55089 55092 55095 55098 55101 55104 55107 55110 55113 55116 55119 55122 55125 55128 55131 55134 55137 55140 55143 55146 55149 55152 55155 55158 55161 55164 55167 55170 55173 55176 55179 55182 55185 55188 55191 55194 55197 55200 55203 55206 55209 55212 55215 55218 55221 55224 55227 55230 55233 55236 55239 55242 55245 55248 55251 55254 55257 55260 55263 55266 55269 55272 55275 55278 55281 55284 55287 55290 55293 55296 55299 55302 55305 55308 55311 55314 55317 55320 55323 55326 55329 55332 55335 55338 55341 55344 55347 55350 55353 55356 55359 55362 55365 55368 55371 55374 55377 55380 55383 55386 55389 55392 55395 55398 55401 55404 55407 55410 55413 55416 55419 55422 55425 55428 55431 55434 55437 55440 55443 55446 55449 55452 55455 55458 55461 55464 55467 55470 55473 55476 55479 55482 55485 55488 55491 55494 55497 55500 55503 55506 55509 55512 55515 55518 55521 55524 55527 55530 55533 55536 55539 55542 55545 55548 55551 55554 55557 55560 55563 55566 55569 55572 55575 55578 55581 55584 55587 55590 55593 55596 55599 55602 55605 55608 55611 55614 55617 55620 55623 55626 55629 55632 55635 55638 55641 55644 55647 55650 55653 55656 55659 55662 55665 55668 55671 55674 55677 55680 55683 55686 55689 55692 55695 55698 55701 55704 55707 55710 55713 55716 55719 55722 55725 55728 55731 55734 55737 55740 55743 55746 55749 55752 55755 55758 55761 55764 55767 55770 55773 55776 55779 55782 55785 55788 55791 55794 55797 55800 55803 55806 55809 55812 55815 55818 55821 55824 55827 55830 55833 55836 55839 55842 55845 55848 55851 55854 55857 55860 55863 55866 55869 55872 55875 55878 55881 55884 55887 55890 55893 55896 55899 55902 55905 55908 55911 55914 55917 55920 55923 55926 55929 55932 55935 55938 55941 55944 55947 55950 55953 55956 55959 55962 55965 55968 55971 55974 55977 55980 55983 55986 55989 55992 55995 55998 56001 56004 56007 56010 56013 56016 56019 56022 56025 56028 56031 56034 56037 56040 56043 56046 56049 56052 56055 56058 56061 56064 56067 56070 56073 56076 56079 56082 56085 56088 56091 56094 56097 56100 56103 56106 56109 56112 56115 56118 56121 56124 56127 56130 56133 56136 56139 56142 56145 56148 56151 56154 56157 56160 56163 56166 56169 56172 56175 56178 56181 56184 56187 56190 56193 56196 56199 56202 56205 56208 56211 56214 56217 56220 56223 56226 56229 56232 56235 56238 56241 56244 56247 56250 56253 56256 56259 56262 56265 56268 56271 56274 56277 56280 56283 56286 56289 56292 56295 56298 56301 56304 56307 56310 56313 56316 56319 56322 56325 56328 56331 56334 56337 56340 56343 56346 56349 56352 56355 56358 56361 56364 56367 56370 56373 56376 56379 56382 56385 56388 56391 56394 56397 56400 56403 56406 56409 56412 56415 56418 56421 56424 56427 56430 56433 56436 56439 56442 56445 56448 56451 56454 56457 56460 56463 56466 56469 56472 56475 56478 56481 56484 56487 56490 56493 56496 56499 56502 56505 56508 56511 56514 56517 56520 56523 56526 56529 56532 56535 56538 56541 56544 56547 56550 56553 56556 56559 56562 56565 56568 56571 56574 56577 56580 56583 56586 56589 56592 56595 56598 56601 56604 56607 56610 56613 56616 56619 56622 56625 56628 56631 56634 56637 56640 56643 56646 56649 56652 56655 56658 56661 56664 56667 56670 56673 56676 56679 56682 56685 56688 56691 56694 56697 56700 56703 56706 56709 56712 56715 56718 56721 56724 56727 56730 56733 56736 56739 56742 56745 56748 56751 56754 56757 56760 56763 56766 56769 56772 56775 56778 56781 56784 56787 56790 56793 56796 56799 56802 56805 56808 56811 56814 56817 56820 56823 56826 56829 56832 56835 56838 56841 56844 56847 56850 56853 56856 56859 56862 56865 56868 56871 56874 56877 56880 56883 56886 56889 56892 56895 56898 56901 56904 56907 56910 56913 56916 56919 56922 56925 56928 56931 56934 56937 56940 56943 56946 56949 56952 56955 56958 56961 56964 56967 56970 56973 56976 56979 56982 56985 56988 56991 56994 56997 57000 57003 57006 57009 57012 57015 57018 57021 57024 57027 57030 57033 57036 57039 57042 57045 57048 57051 57054 57057 57060 57063 57066 57069 57072 57075 57078 57081 57084 57087 57090 57093 57096 57099 57102 57105 57108 57111 57114 57117 57120 57123 57126 57129 57132 57135 57138 57141 57144 57147 57150 57153 57156 57159 57162 57165 57168 57171 57174 57177 57180 57183 57186 57189 57192 57195 57198 57201 57204 57207 57210 57213 57216 57219 57222 57225 57228 57231 57234 57237 57240 57243 57246 57249 57252 57255 57258 57261 57264 57267 57270 57273 57276 57279 57282 57285 57288 57291 57294 57297 57300 57303 57306 57309 57312 57315 57318 57321 57324 57327 57330 57333 57336 57339 57342 57345 57348 57351 57354 57357 57360 57363 57366 57369 57372 57375 57378 57381 57384 57387 57390 57393 57396 57399 57402 57405 57408 57411 57414 57417 57420 57423 57426 57429 57432 57435 57438 57441 57444 57447 57450 57453 57456 57459 57462 57465 57468 57471 57474 57477 57480 57483 57486 57489 57492 57495 57498 57501 57504 57507 57510 57513 57516 57519 57522 57525 57528 57531 57534 57537 57540 57543 57546 57549 57552 57555 57558 57561 57564 57567 57570 57573 57576 57579 57582 57585 57588 57591 57594 57597 57600 57603 57606 57609 57612 57615 57618 57621 57624 57627 57630 57633 57636 57639 57642 57645 57648 57651 57654 57657 57660 57663 57666 57669 57672 57675 57678 57681 57684 57687 57690 57693 57696 57699 57702 57705 57708 57711 57714 57717 57720 57723 57726 57729 57732 57735 57738 57741 57744 57747 57750 57753 57756 57759 57762 57765 57768 57771 57774 57777 57780 57783 57786 57789 57792 57795 57798 57801 57804 57807 57810 57813 57816 57819 57822 57825 57828 57831 57834 57837 57840 57843 57846 57849 57852 57855 57858 57861 57864 57867 57870 57873 57876 57879 57882 57885 57888 57891 57894 57897 57900 57903 57906 57909 57912 57915 57918 57921 57924 57927 57930 57933 57936 57939 57942 57945 57948 57951 57954 57957 57960 57963 57966 57969 57972 57975 57978 57981 57984 57987 57990 57993 57996 57999 58002 58005 58008 58011 58014 58017 58020 58023 58026 58029 58032 58035 58038 58041 58044 58047 58050 58053 58056 58059 58062 58065 58068 58071 58074 58077 58080 58083 58086 58089 58092 58095 58098 58101 58104 58107 58110 58113 58116 58119 58122 58125 58128 58131 58134 58137 58140 58143 58146 58149 58152 58155 58158 58161 58164 58167 58170 58173 58176 58179 58182 58185 58188 58191 58194 58197 58200 58203 58206 58209 58212 58215 58218 58221 58224 58227 58230 58233 58236 58239 58242 58245 58248 58251 58254 58257 58260 58263 58266 58269 58272 58275 58278 58281 58284 58287 58290 58293 58296 58299 58302 58305 58308 58311 58314 58317 58320 58323 58326 58329 58332 58335 58338 58341 58344 58347 58350 58353 58356 58359 58362 58365 58368 58371 58374 58377 58380 58383 58386 58389 58392 58395 58398 58401 58404 58407 58410 58413 58416 58419 58422 58425 58428 58431 58434 58437 58440 58443 58446 58449 58452 58455 58458 58461 58464 58467 58470 58473 58476 58479 58482 58485 58488 58491 58494 58497 58500 58503 58506 58509 58512 58515 58518 58521 58524 58527 58530 58533 58536 58539 58542 58545 58548 58551 58554 58557 58560 58563 58566 58569 58572 58575 58578 58581 58584 58587 58590 58593 58596 58599 58602 58605 58608 58611 58614 58617 58620 58623 58626 58629 58632 58635 58638 58641 58644 58647 58650 58653 58656 58659 58662 58665 58668 58671 58674 58677 58680 58683 58686 58689 58692 58695 58698 58701 58704 58707 58710 58713 58716 58719 58722 58725 58728 58731 58734 58737 58740 58743 58746 58749 58752 58755 58758 58761 58764 58767 58770 58773 58776 58779 58782 58785 58788 58791 58794 58797 58800 58803 58806 58809 58812 58815 58818 58821 58824 58827 58830 58833 58836 58839 58842 58845 58848 58851 58854 58857 58860 58863 58866 58869 58872 58875 58878 58881 58884 58887 58890 58893 58896 58899 58902 58905 58908 58911 58914 58917 58920 58923 58926 58929 58932 58935 58938 58941 58944 58947 58950 58953 58956 58959 58962 58965 58968 58971 58974 58977 58980 58983 58986 58989 58992 58995 58998 59001 59004 59007 59010 59013 59016 59019 59022 59025 59028 59031 59034 59037 59040 59043 59046 59049 59052 59055 59058 59061 59064 59067 59070 59073 59076 59079 59082 59085 59088 59091 59094 59097 59100 59103 59106 59109 59112 59115 59118 59121 59124 59127 59130 59133 59136 59139 59142 59145 59148 59151 59154 59157 59160 59163 59166 59169 59172 59175 59178 59181 59184 59187 59190 59193 59196 59199 59202 59205 59208 59211 59214 59217 59220 59223 59226 59229 59232 59235 59238 59241 59244 59247 59250 59253 59256 59259 59262 59265 59268 59271 59274 59277 59280 59283 59286 59289 59292 59295 59298 59301 59304 59307 59310 59313 59316 59319 59322 59325 59328 59331 59334 59337 59340 59343 59346 59349 59352 59355 59358 59361 59364 59367 59370 59373 59376 59379 59382 59385 59388 59391 59394 59397 59400 59403 59406 59409 59412 59415 59418 59421 59424 59427 59430 59433 59436 59439 59442 59445 59448 59451 59454 59457 59460 59463 59466 59469 59472 59475 59478 59481 59484 59487 59490 59493 59496 59499 59502 59505 59508 59511 59514 59517 59520 59523 59526 59529 59532 59535 59538 59541 59544 59547 59550 59553 59556 59559 59562 59565 59568 59571 59574 59577 59580 59583 59586 59589 59592 59595 59598 59601 59604 59607 59610 59613 59616 59619 59622 59625 59628 59631 59634 59637 59640 59643 59646 59649 59652 59655 59658 59661 59664 59667 59670 59673 59676 59679 59682 59685 59688 59691 59694 59697 59700 59703 59706 59709 59712 59715 59718 59721 59724 59727 59730 59733 59736 59739 59742 59745 59748 59751 59754 59757 59760 59763 59766 59769 59772 59775 59778 59781 59784 59787 59790 59793 59796 59799 59802 59805 59808 59811 59814 59817 59820 59823 59826 59829 59832 59835 59838 59841 59844 59847 59850 59853 59856 59859 59862 59865 59868 59871 59874 59877 59880 59883 59886 59889 59892 59895 59898 59901 59904 59907 59910 59913 59916 59919 59922 59925 59928 59931 59934 59937 59940 59943 59946 59949 59952 59955 59958 59961 59964 59967 59970 59973 59976 59979 59982 59985 59988 59991 59994 59997 60000 60003 60006 60009 60012 60015 60018 60021 60024 60027 60030 60033 60036 60039 60042 60045 60048 60051 60054 60057 60060 60063 60066 60069 60072 60075 60078 60081 60084 60087 60090 60093 60096 60099 60102 60105 60108 60111 60114 60117 60120 60123 60126 60129 60132 60135 60138 60141 60144 60147 60150 60153 60156 60159 60162 60165 60168 60171 60174 60177 60180 60183 60186 60189 60192 60195 60198 60201 60204 60207 60210 60213 60216 60219 60222 60225 60228 60231 60234 60237 60240 60243 60246 60249 60252 60255 60258 60261 60264 60267 60270 60273 60276 60279 60282 60285 60288 60291 60294 60297 60300 60303 60306 60309 60312 60315 60318 60321 60324 60327 60330 60333 60336 60339 60342 60345 60348 60351 60354 60357 60360 60363 60366 60369 60372 60375 60378 60381 60384 60387 60390 60393 60396 60399 60402 60405 60408 60411 60414 60417 60420 60423 60426 60429 60432 60435 60438 60441 60444 60447 60450 60453 60456 60459 60462 60465 60468 60471 60474 60477 60480 60483 60486 60489 60492 60495 60498 60501 60504 60507 60510 60513 60516 60519 60522 60525 60528 60531 60534 60537 60540 60543 60546 60549 60552 60555 60558 60561 60564 60567 60570 60573 60576 60579 60582 60585 60588 60591 60594 60597 60600 60603 60606 60609 60612 60615 60618 60621 60624 60627 60630 60633 60636 60639 60642 60645 60648 60651 60654 60657 60660 60663 60666 60669 60672 60675 60678 60681 60684 60687 60690 60693 60696 60699 60702 60705 60708 60711 60714 60717 60720 60723 60726 60729 60732 60735 60738 60741 60744 60747 60750 60753 60756 60759 60762 60765 60768 60771 60774 60777 60780 60783 60786 60789 60792 60795 60798 60801 60804 60807 60810 60813 60816 60819 60822 60825 60828 60831 60834 60837 60840 60843 60846 60849 60852 60855 60858 60861 60864 60867 60870 60873 60876 60879 60882 60885 60888 60891 60894 60897 60900 60903 60906 60909 60912 60915 60918 60921 60924 60927 60930 60933 60936 60939 60942 60945 60948 60951 60954 60957 60960 60963 60966 60969 60972 60975 60978 60981 60984 60987 60990 60993 60996 60999 61002 61005 61008 61011 61014 61017 61020 61023 61026 61029 61032 61035 61038 61041 61044 61047 61050 61053 61056 61059 61062 61065 61068 61071 61074 61077 61080 61083 61086 61089 61092 61095 61098 61101 61104 61107 61110 61113 61116 61119 61122 61125 61128 61131 61134 61137 61140 61143 61146 61149 61152 61155 61158 61161 61164 61167 61170 61173 61176 61179 61182 61185 61188 61191 61194 61197 61200 61203 61206 61209 61212 61215 61218 61221 61224 61227 61230 61233 61236 61239 61242 61245 61248 61251 61254 61257 61260 61263 61266 61269 61272 61275 61278 61281 61284 61287 61290 61293 61296 61299 61302 61305 61308 61311 61314 61317 61320 61323 61326 61329 61332 61335 61338 61341 61344 61347 61350 61353 61356 61359 61362 61365 61368 61371 61374 61377 61380 61383 61386 61389 61392 61395 61398 61401 61404 61407 61410 61413 61416 61419 61422 61425 61428 61431 61434 61437 61440 61443 61446 61449 61452 61455 61458 61461 61464 61467 61470 61473 61476 61479 61482 61485 61488 61491 61494 61497 61500 61503 61506 61509 61512 61515 61518 61521 61524 61527 61530 61533 61536 61539 61542 61545 61548 61551 61554 61557 61560 61563 61566 61569 61572 61575 61578 61581 61584 61587 61590 61593 61596 61599 61602 61605 61608 61611 61614 61617 61620 61623 61626 61629 61632 61635 61638 61641 61644 61647 61650 61653 61656 61659 61662 61665 61668 61671 61674 61677 61680 61683 61686 61689 61692 61695 61698 61701 61704 61707 61710 61713 61716 61719 61722 61725 61728 61731 61734 61737 61740 61743 61746 61749 61752 61755 61758 61761 61764 61767 61770 61773 61776 61779 61782 61785 61788 61791 61794 61797 61800 61803 61806 61809 61812 61815 61818 61821 61824 61827 61830 61833 61836 61839 61842 61845 61848 61851 61854 61857 61860 61863 61866 61869 61872 61875 61878 61881 61884 61887 61890 61893 61896 61899 61902 61905 61908 61911 61914 61917 61920 61923 61926 61929 61932 61935 61938 61941 61944 61947 61950 61953 61956 61959 61962 61965 61968 61971 61974 61977 61980 61983 61986 61989 61992 61995 61998 62001 62004 62007 62010 62013 62016 62019 62022 62025 62028 62031 62034 62037 62040 62043 62046 62049 62052 62055 62058 62061 62064 62067 62070 62073 62076 62079 62082 62085 62088 62091 62094 62097 62100 62103 62106 62109 62112 62115 62118 62121 62124 62127 62130 62133 62136 62139 62142 62145 62148 62151 62154 62157 62160 62163 62166 62169 62172 62175 62178 62181 62184 62187 62190 62193 62196 62199 62202 62205 62208 62211 62214 62217 62220 62223 62226 62229 62232 62235 62238 62241 62244 62247 62250 62253 62256 62259 62262 62265 62268 62271 62274 62277 62280 62283 62286 62289 62292 62295 62298 62301 62304 62307 62310 62313 62316 62319 62322 62325 62328 62331 62334 62337 62340 62343 62346 62349 62352 62355 62358 62361 62364 62367 62370 62373 62376 62379 62382 62385 62388 62391 62394 62397 62400 62403 62406 62409 62412 62415 62418 62421 62424 62427 62430 62433 62436 62439 62442 62445 62448 62451 62454 62457 62460 62463 62466 62469 62472 62475 62478 62481 62484 62487 62490 62493 62496 62499 62502 62505 62508 62511 62514 62517 62520 62523 62526 62529 62532 62535 62538 62541 62544 62547 62550 62553 62556 62559 62562 62565 62568 62571 62574 62577 62580 62583 62586 62589 62592 62595 62598 62601 62604 62607 62610 62613 62616 62619 62622 62625 62628 62631 62634 62637 62640 62643 62646 62649 62652 62655 62658 62661 62664 62667 62670 62673 62676 62679 62682 62685 62688 62691 62694 62697 62700 62703 62706 62709 62712 62715 62718 62721 62724 62727 62730 62733 62736 62739 62742 62745 62748 62751 62754 62757 62760 62763 62766 62769 62772 62775 62778 62781 62784 62787 62790 62793 62796 62799 62802 62805 62808 62811 62814 62817 62820 62823 62826 62829 62832 62835 62838 62841 62844 62847 62850 62853 62856 62859 62862 62865 62868 62871 62874 62877 62880 62883 62886 62889 62892 62895 62898 62901 62904 62907 62910 62913 62916 62919 62922 62925 62928 62931 62934 62937 62940 62943 62946 62949 62952 62955 62958 62961 62964 62967 62970 62973 62976 62979 62982 62985 62988 62991 62994 62997 63000 63003 63006 63009 63012 63015 63018 63021 63024 63027 63030 63033 63036 63039 63042 63045 63048 63051 63054 63057 63060 63063 63066 63069 63072 63075 63078 63081 63084 63087 63090 63093 63096 63099 63102 63105 63108 63111 63114 63117 63120 63123 63126 63129 63132 63135 63138 63141 63144 63147 63150 63153 63156 63159 63162 63165 63168 63171 63174 63177 63180 63183 63186 63189 63192 63195 63198 63201 63204 63207 63210 63213 63216 63219 63222 63225 63228 63231 63234 63237 63240 63243 63246 63249 63252 63255 63258 63261 63264 63267 63270 63273 63276 63279 63282 63285 63288 63291 63294 63297 63300 63303 63306 63309 63312 63315 63318 63321 63324 63327 63330 63333 63336 63339 63342 63345 63348 63351 63354 63357 63360 63363 63366 63369 63372 63375 63378 63381 63384 63387 63390 63393 63396 63399 63402 63405 63408 63411 63414 63417 63420 63423 63426 63429 63432 63435 63438 63441 63444 63447 63450 63453 63456 63459 63462 63465 63468 63471 63474 63477 63480 63483 63486 63489 63492 63495 63498 63501 63504 63507 63510 63513 63516 63519 63522 63525 63528 63531 63534 63537 63540 63543 63546 63549 63552 63555 63558 63561 63564 63567 63570 63573 63576 63579 63582 63585 63588 63591 63594 63597 63600 63603 63606 63609 63612 63615 63618 63621 63624 63627 63630 63633 63636 63639 63642 63645 63648 63651 63654 63657 63660 63663 63666 63669 63672 63675 63678 63681 63684 63687 63690 63693 63696 63699 63702 63705 63708 63711 63714 63717 63720 63723 63726 63729 63732 63735 63738 63741 63744 63747 63750 63753 63756 63759 63762 63765 63768 63771 63774 63777 63780 63783 63786 63789 63792 63795 63798 63801 63804 63807 63810 63813 63816 63819 63822 63825 63828 63831 63834 63837 63840 63843 63846 63849 63852 63855 63858 63861 63864 63867 63870 63873 63876 63879 63882 63885 63888 63891 63894 63897 63900 63903 63906 63909 63912 63915 63918 63921 63924 63927 63930 63933 63936 63939 63942 63945 63948 63951 63954 63957 63960 63963 63966 63969 63972 63975 63978 63981 63984 63987 63990 63993 63996 63999 64002 64005 64008 64011 64014 64017 64020 64023 64026 64029 64032 64035 64038 64041 64044 64047 64050 64053 64056 64059 64062 64065 64068 64071 64074 64077 64080 64083 64086 64089 64092 64095 64098 64101 64104 64107 64110 64113 64116 64119 64122 64125 64128 64131 64134 64137 64140 64143 64146 64149 64152 64155 64158 64161 64164 64167 64170 64173 64176 64179 64182 64185 64188 64191 64194 64197 64200 64203 64206 64209 64212 64215 64218 64221 64224 64227 64230 64233 64236 64239 64242 64245 64248 64251 64254 64257 64260 64263 64266 64269 64272 64275 64278 64281 64284 64287 64290 64293 64296 64299 64302 64305 64308 64311 64314 64317 64320 64323 64326 64329 64332 64335 64338 64341 64344 64347 64350 64353 64356 64359 64362 64365 64368 64371 64374 64377 64380 64383 64386 64389 64392 64395 64398 64401 64404 64407 64410 64413 64416 64419 64422 64425 64428 64431 64434 64437 64440 64443 64446 64449 64452 64455 64458 64461 64464 64467 64470 64473 64476 64479 64482 64485 64488 64491 64494 64497 64500 64503 64506 64509 64512 64515 64518 64521 64524 64527 64530 64533 64536 64539 64542 64545 64548 64551 64554 64557 64560 64563 64566 64569 64572 64575 64578 64581 64584 64587 64590 64593 64596 64599 64602 64605 64608 64611 64614 64617 64620 64623 64626 64629 64632 64635 64638 64641 64644 64647 64650 64653 64656 64659 64662 64665 64668 64671 64674 64677 64680 64683 64686 64689 64692 64695 64698 64701 64704 64707 64710 64713 64716 64719 64722 64725 64728 64731 64734 64737 64740 64743 64746 64749 64752 64755 64758 64761 64764 64767 64770 64773 64776 64779 64782 64785 64788 64791 64794 64797 64800 64803 64806 64809 64812 64815 64818 64821 64824 64827 64830 64833 64836 64839 64842 64845 64848 64851 64854 64857 64860 64863 64866 64869 64872 64875 64878 64881 64884 64887 64890 64893 64896 64899 64902 64905 64908 64911 64914 64917 64920 64923 64926 64929 64932 64935 64938 64941 64944 64947 64950 64953 64956 64959 64962 64965 64968 64971 64974 64977 64980 64983 64986 64989 64992 64995 64998 65001 65004 65007 65010 65013 65016 65019 65022 65025 65028 65031 65034 65037 65040 65043 65046 65049 65052 65055 65058 65061 65064 65067 65070 65073 65076 65079 65082 65085 65088 65091 65094 65097 65100 65103 65106 65109 65112 65115 65118 65121 65124 65127 65130 65133 65136 65139 65142 65145 65148 65151 65154 65157 65160 65163 65166 65169 65172 65175 65178 65181 65184 65187 65190 65193 65196 65199 65202 65205 65208 65211 65214 65217 65220 65223 65226 65229 65232 65235 65238 65241 65244 65247 65250 65253 65256 65259 65262 65265 65268 65271 65274 65277 65280 65283 65286 65289 65292 65295 65298 65301 65304 65307 65310 65313 65316 65319 65322 65325 65328 65331 65334 65337 65340 65343 65346 65349 65352 65355 65358 65361 65364 65367 65370 65373 65376 65379 65382 65385 65388 65391 65394 65397 65400 65403 65406 65409 65412 65415 65418 65421 65424 65427 65430 65433 65436 65439 65442 65445 65448 65451 65454 65457 65460 65463 65466 65469 65472 65475 65478 65481 65484 65487 65490 65493 65496 65499 65502 65505 65508 65511 65514 65517 65520 65523 65526 65529 65532 65535 65538 65541 65544 65547 65550 65553 65556 65559 65562 65565 65568 65571 65574 65577 65580 65583 65586 65589 65592 65595 65598 65601 65604 65607 65610 65613 65616 65619 65622 65625 65628 65631 65634 65637 65640 65643 65646 65649 65652 65655 65658 65661 65664 65667 65670 65673 65676 65679 65682 65685 65688 65691 65694 65697 65700 65703 65706 65709 65712 65715 65718 65721 65724 65727 65730 65733 65736 65739 65742 65745 65748 65751 65754 65757 65760 65763 65766 65769 65772 65775 65778 65781 65784 65787 65790 65793 65796 65799 65802 65805 65808 65811 65814 65817 65820 65823 65826 65829 65832 65835 65838 65841 65844 65847 65850 65853 65856 65859 65862 65865 65868 65871 65874 65877 65880 65883 65886 65889 65892 65895 65898 65901 65904 65907 65910 65913 65916 65919 65922 65925 65928 65931 65934 65937 65940 65943 65946 65949 65952 65955 65958 65961 65964 65967 65970 65973 65976 65979 65982 65985 65988 65991 65994 65997 66000 66003 66006 66009 66012 66015 66018 66021 66024 66027 66030 66033 66036 66039 66042 66045 66048 66051 66054 66057 66060 66063 66066 66069 66072 66075 66078 66081 66084 66087 66090 66093 66096 66099 66102 66105 66108 66111 66114 66117 66120 66123 66126 66129 66132 66135 66138 66141 66144 66147 66150 66153 66156 66159 66162 66165 66168 66171 66174 66177 66180 66183 66186 66189 66192 66195 66198 66201 66204 66207 66210 66213 66216 66219 66222 66225 66228 66231 66234 66237 66240 66243 66246 66249 66252 66255 66258 66261 66264 66267 66270 66273 66276 66279 66282 66285 66288 66291 66294 66297 66300 66303 66306 66309 66312 66315 66318 66321 66324 66327 66330 66333 66336 66339 66342 66345 66348 66351 66354 66357 66360 66363 66366 66369 66372 66375 66378 66381 66384 66387 66390 66393 66396 66399 66402 66405 66408 66411 66414 66417 66420 66423 66426 66429 66432 66435 66438 66441 66444 66447 66450 66453 66456 66459 66462 66465 66468 66471 66474 66477 66480 66483 66486 66489 66492 66495 66498 66501 66504 66507 66510 66513 66516 66519 66522 66525 66528 66531 66534 66537 66540 66543 66546 66549 66552 66555 66558 66561 66564 66567 66570 66573 66576 66579 66582 66585 66588 66591 66594 66597 66600 66603 66606 66609 66612 66615 66618 66621 66624 66627 66630 66633 66636 66639 66642 66645 66648 66651 66654 66657 66660 66663 66666 66669 66672 66675 66678 66681 66684 66687 66690 66693 66696 66699 66702 66705 66708 66711 66714 66717 66720 66723 66726 66729 66732 66735 66738 66741 66744 66747 66750 66753 66756 66759 66762 66765 66768 66771 66774 66777 66780 66783 66786 66789 66792 66795 66798 66801 66804 66807 66810 66813 66816 66819 66822 66825 66828 66831 66834 66837 66840 66843 66846 66849 66852 66855 66858 66861 66864 66867 66870 66873 66876 66879 66882 66885 66888 66891 66894 66897 66900 66903 66906 66909 66912 66915 66918 66921 66924 66927 66930 66933 66936 66939 66942 66945 66948 66951 66954 66957 66960 66963 66966 66969 66972 66975 66978 66981 66984 66987 66990 66993 66996 66999 67002 67005 67008 67011 67014 67017 67020 67023 67026 67029 67032 67035 67038 67041 67044 67047 67050 67053 67056 67059 67062 67065 67068 67071 67074 67077 67080 67083 67086 67089 67092 67095 67098 67101 67104 67107 67110 67113 67116 67119 67122 67125 67128 67131 67134 67137 67140 67143 67146 67149 67152 67155 67158 67161 67164 67167 67170 67173 67176 67179 67182 67185 67188 67191 67194 67197 67200 67203 67206 67209 67212 67215 67218 67221 67224 67227 67230 67233 67236 67239 67242 67245 67248 67251 67254 67257 67260 67263 67266 67269 67272 67275 67278 67281 67284 67287 67290 67293 67296 67299 67302 67305 67308 67311 67314 67317 67320 67323 67326 67329 67332 67335 67338 67341 67344 67347 67350 67353 67356 67359 67362 67365 67368 67371 67374 67377 67380 67383 67386 67389 67392 67395 67398 67401 67404 67407 67410 67413 67416 67419 67422 67425 67428 67431 67434 67437 67440 67443 67446 67449 67452 67455 67458 67461 67464 67467 67470 67473 67476 67479 67482 67485 67488 67491 67494 67497 67500 67503 67506 67509 67512 67515 67518 67521 67524 67527 67530 67533 67536 67539 67542 67545 67548 67551 67554 67557 67560 67563 67566 67569 67572 67575 67578 67581 67584 67587 67590 67593 67596 67599 67602 67605 67608 67611 67614 67617 67620 67623 67626 67629 67632 67635 67638 67641 67644 67647 67650 67653 67656 67659 67662 67665 67668 67671 67674 67677 67680 67683 67686 67689 67692 67695 67698 67701 67704 67707 67710 67713 67716 67719 67722 67725 67728 67731 67734 67737 67740 67743 67746 67749 67752 67755 67758 67761 67764 67767 67770 67773 67776 67779 67782 67785 67788 67791 67794 67797 67800 67803 67806 67809 67812 67815 67818 67821 67824 67827 67830 67833 67836 67839 67842 67845 67848 67851 67854 67857 67860 67863 67866 67869 67872 67875 67878 67881 67884 67887 67890 67893 67896 67899 67902 67905 67908 67911 67914 67917 67920 67923 67926 67929 67932 67935 67938 67941 67944 67947 67950 67953 67956 67959 67962 67965 67968 67971 67974 67977 67980 67983 67986 67989 67992 67995 67998 68001 68004 68007 68010 68013 68016 68019 68022 68025 68028 68031 68034 68037 68040 68043 68046 68049 68052 68055 68058 68061 68064 68067 68070 68073 68076 68079 68082 68085 68088 68091 68094 68097 68100 68103 68106 68109 68112 68115 68118 68121 68124 68127 68130 68133 68136 68139 68142 68145 68148 68151 68154 68157 68160 68163 68166 68169 68172 68175 68178 68181 68184 68187 68190 68193 68196 68199 68202 68205 68208 68211 68214 68217 68220 68223 68226 68229 68232 68235 68238 68241 68244 68247 68250 68253 68256 68259 68262 68265 68268 68271 68274 68277 68280 68283 68286 68289 68292 68295 68298 68301 68304 68307 68310 68313 68316 68319 68322 68325 68328 68331 68334 68337 68340 68343 68346 68349 68352 68355 68358 68361 68364 68367 68370 68373 68376 68379 68382 68385 68388 68391 68394 68397 68400 68403 68406 68409 68412 68415 68418 68421 68424 68427 68430 68433 68436 68439 68442 68445 68448 68451 68454 68457 68460 68463 68466 68469 68472 68475 68478 68481 68484 68487 68490 68493 68496 68499 68502 68505 68508 68511 68514 68517 68520 68523 68526 68529 68532 68535 68538 68541 68544 68547 68550 68553 68556 68559 68562 68565 68568 68571 68574 68577 68580 68583 68586 68589 68592 68595 68598 68601 68604 68607 68610 68613 68616 68619 68622 68625 68628 68631 68634 68637 68640 68643 68646 68649 68652 68655 68658 68661 68664 68667 68670 68673 68676 68679 68682 68685 68688 68691 68694 68697 68700 68703 68706 68709 68712 68715 68718 68721 68724 68727 68730 68733 68736 68739 68742 68745 68748 68751 68754 68757 68760 68763 68766 68769 68772 68775 68778 68781 68784 68787 68790 68793 68796 68799 68802 68805 68808 68811 68814 68817 68820 68823 68826 68829 68832 68835 68838 68841 68844 68847 68850 68853 68856 68859 68862 68865 68868 68871 68874 68877 68880 68883 68886 68889 68892 68895 68898 68901 68904 68907 68910 68913 68916 68919 68922 68925 68928 68931 68934 68937 68940 68943 68946 68949 68952 68955 68958 68961 68964 68967 68970 68973 68976 68979 68982 68985 68988 68991 68994 68997 69000 69003 69006 69009 69012 69015 69018 69021 69024 69027 69030 69033 69036 69039 69042 69045 69048 69051 69054 69057 69060 69063 69066 69069 69072 69075 69078 69081 69084 69087 69090 69093 69096 69099 69102 69105 69108 69111 69114 69117 69120 69123 69126 69129 69132 69135 69138 69141 69144 69147 69150 69153 69156 69159 69162 69165 69168 69171 69174 69177 69180 69183 69186 69189 69192 69195 69198 69201 69204 69207 69210 69213 69216 69219 69222 69225 69228 69231 69234 69237 69240 69243 69246 69249 69252 69255 69258 69261 69264 69267 69270 69273 69276 69279 69282 69285 69288 69291 69294 69297 69300 69303 69306 69309 69312 69315 69318 69321 69324 69327 69330 69333 69336 69339 69342 69345 69348 69351 69354 69357 69360 69363 69366 69369 69372 69375 69378 69381 69384 69387 69390 69393 69396 69399 69402 69405 69408 69411 69414 69417 69420 69423 69426 69429 69432 69435 69438 69441 69444 69447 69450 69453 69456 69459 69462 69465 69468 69471 69474 69477 69480 69483 69486 69489 69492 69495 69498 69501 69504 69507 69510 69513 69516 69519 69522 69525 69528 69531 69534 69537 69540 69543 69546 69549 69552 69555 69558 69561 69564 69567 69570 69573 69576 69579 69582 69585 69588 69591 69594 69597 69600 69603 69606 69609 69612 69615 69618 69621 69624 69627 69630 69633 69636 69639 69642 69645 69648 69651 69654 69657 69660 69663 69666 69669 69672 69675 69678 69681 69684 69687 69690 69693 69696 69699 69702 69705 69708 69711 69714 69717 69720 69723 69726 69729 69732 69735 69738 69741 69744 69747 69750 69753 69756 69759 69762 69765 69768 69771 69774 69777 69780 69783 69786 69789 69792 69795 69798 69801 69804 69807 69810 69813 69816 69819 69822 69825 69828 69831 69834 69837 69840 69843 69846 69849 69852 69855 69858 69861 69864 69867 69870 69873 69876 69879 69882 69885 69888 69891 69894 69897 69900 69903 69906 69909 69912 69915 69918 69921 69924 69927 69930 69933 69936 69939 69942 69945 69948 69951 69954 69957 69960 69963 69966 69969 69972 69975 69978 69981 69984 69987 69990 69993 69996 69999 70002 70005 70008 70011 70014 70017 70020 70023 70026 70029 70032 70035 70038 70041 70044 70047 70050 70053 70056 70059 70062 70065 70068 70071 70074 70077 70080 70083 70086 70089 70092 70095 70098 70101 70104 70107 70110 70113 70116 70119 70122 70125 70128 70131 70134 70137 70140 70143 70146 70149 70152 70155 70158 70161 70164 70167 70170 70173 70176 70179 70182 70185 70188 70191 70194 70197 70200 70203 70206 70209 70212 70215 70218 70221 70224 70227 70230 70233 70236 70239 70242 70245 70248 70251 70254 70257 70260 70263 70266 70269 70272 70275 70278 70281 70284 70287 70290 70293 70296 70299 70302 70305 70308 70311 70314 70317 70320 70323 70326 70329 70332 70335 70338 70341 70344 70347 70350 70353 70356 70359 70362 70365 70368 70371 70374 70377 70380 70383 70386 70389 70392 70395 70398 70401 70404 70407 70410 70413 70416 70419 70422 70425 70428 70431 70434 70437 70440 70443 70446 70449 70452 70455 70458 70461 70464 70467 70470 70473 70476 70479 70482 70485 70488 70491 70494 70497 70500 70503 70506 70509 70512 70515 70518 70521 70524 70527 70530 70533 70536 70539 70542 70545 70548 70551 70554 70557 70560 70563 70566 70569 70572 70575 70578 70581 70584 70587 70590 70593 70596 70599 70602 70605 70608 70611 70614 70617 70620 70623 70626 70629 70632 70635 70638 70641 70644 70647 70650 70653 70656 70659 70662 70665 70668 70671 70674 70677 70680 70683 70686 70689 70692 70695 70698 70701 70704 70707 70710 70713 70716 70719 70722 70725 70728 70731 70734 70737 70740 70743 70746 70749 70752 70755 70758 70761 70764 70767 70770 70773 70776 70779 70782 70785 70788 70791 70794 70797 70800 70803 70806 70809 70812 70815 70818 70821 70824 70827 70830 70833 70836 70839 70842 70845 70848 70851 70854 70857 70860 70863 70866 70869 70872 70875 70878 70881 70884 70887 70890 70893 70896 70899 70902 70905 70908 70911 70914 70917 70920 70923 70926 70929 70932 70935 70938 70941 70944 70947 70950 70953 70956 70959 70962 70965 70968 70971 70974 70977 70980 70983 70986 70989 70992 70995 70998 71001 71004 71007 71010 71013 71016 71019 71022 71025 71028 71031 71034 71037 71040 71043 71046 71049 71052 71055 71058 71061 71064 71067 71070 71073 71076 71079 71082 71085 71088 71091 71094 71097 71100 71103 71106 71109 71112 71115 71118 71121 71124 71127 71130 71133 71136 71139 71142 71145 71148 71151 71154 71157 71160 71163 71166 71169 71172 71175 71178 71181 71184 71187 71190 71193 71196 71199 71202 71205 71208 71211 71214 71217 71220 71223 71226 71229 71232 71235 71238 71241 71244 71247 71250 71253 71256 71259 71262 71265 71268 71271 71274 71277 71280 71283 71286 71289 71292 71295 71298 71301 71304 71307 71310 71313 71316 71319 71322 71325 71328 71331 71334 71337 71340 71343 71346 71349 71352 71355 71358 71361 71364 71367 71370 71373 71376 71379 71382 71385 71388 71391 71394 71397 71400 71403 71406 71409 71412 71415 71418 71421 71424 71427 71430 71433 71436 71439 71442 71445 71448 71451 71454 71457 71460 71463 71466 71469 71472 71475 71478 71481 71484 71487 71490 71493 71496 71499 71502 71505 71508 71511 71514 71517 71520 71523 71526 71529 71532 71535 71538 71541 71544 71547 71550 71553 71556 71559 71562 71565 71568 71571 71574 71577 71580 71583 71586 71589 71592 71595 71598 71601 71604 71607 71610 71613 71616 71619 71622 71625 71628 71631 71634 71637 71640 71643 71646 71649 71652 71655 71658 71661 71664 71667 71670 71673 71676 71679 71682 71685 71688 71691 71694 71697 71700 71703 71706 71709 71712 71715 71718 71721 71724 71727 71730 71733 71736 71739 71742 71745 71748 71751 71754 71757 71760 71763 71766 71769 71772 71775 71778 71781 71784 71787 71790 71793 71796 71799 71802 71805 71808 71811 71814 71817 71820 71823 71826 71829 71832 71835 71838 71841 71844 71847 71850 71853 71856 71859 71862 71865 71868 71871 71874 71877 71880 71883 71886 71889 71892 71895 71898 71901 71904 71907 71910 71913 71916 71919 71922 71925 71928 71931 71934 71937 71940 71943 71946 71949 71952 71955 71958 71961 71964 71967 71970 71973 71976 71979 71982 71985 71988 71991 71994 71997 72000 72003 72006 72009 72012 72015 72018 72021 72024 72027 72030 72033 72036 72039 72042 72045 72048 72051 72054 72057 72060 72063 72066 72069 72072 72075 72078 72081 72084 72087 72090 72093 72096 72099 72102 72105 72108 72111 72114 72117 72120 72123 72126 72129 72132 72135 72138 72141 72144 72147 72150 72153 72156 72159 72162 72165 72168 72171 72174 72177 72180 72183 72186 72189 72192 72195 72198 72201 72204 72207 72210 72213 72216 72219 72222 72225 72228 72231 72234 72237 72240 72243 72246 72249 72252 72255 72258 72261 72264 72267 72270 72273 72276 72279 72282 72285 72288 72291 72294 72297 72300 72303 72306 72309 72312 72315 72318 72321 72324 72327 72330 72333 72336 72339 72342 72345 72348 72351 72354 72357 72360 72363 72366 72369 72372 72375 72378 72381 72384 72387 72390 72393 72396 72399 72402 72405 72408 72411 72414 72417 72420 72423 72426 72429 72432 72435 72438 72441 72444 72447 72450 72453 72456 72459 72462 72465 72468 72471 72474 72477 72480 72483 72486 72489 72492 72495 72498 72501 72504 72507 72510 72513 72516 72519 72522 72525 72528 72531 72534 72537 72540 72543 72546 72549 72552 72555 72558 72561 72564 72567 72570 72573 72576 72579 72582 72585 72588 72591 72594 72597 72600 72603 72606 72609 72612 72615 72618 72621 72624 72627 72630 72633 72636 72639 72642 72645 72648 72651 72654 72657 72660 72663 72666 72669 72672 72675 72678 72681 72684 72687 72690 72693 72696 72699 72702 72705 72708 72711 72714 72717 72720 72723 72726 72729 72732 72735 72738 72741 72744 72747 72750 72753 72756 72759 72762 72765 72768 72771 72774 72777 72780 72783 72786 72789 72792 72795 72798 72801 72804 72807 72810 72813 72816 72819 72822 72825 72828 72831 72834 72837 72840 72843 72846 72849 72852 72855 72858 72861 72864 72867 72870 72873 72876 72879 72882 72885 72888 72891 72894 72897 72900 72903 72906 72909 72912 72915 72918 72921 72924 72927 72930 72933 72936 72939 72942 72945 72948 72951 72954 72957 72960 72963 72966 72969 72972 72975 72978 72981 72984 72987 72990 72993 72996 72999 73002 73005 73008 73011 73014 73017 73020 73023 73026 73029 73032 73035 73038 73041 73044 73047 73050 73053 73056 73059 73062 73065 73068 73071 73074 73077 73080 73083 73086 73089 73092 73095 73098 73101 73104 73107 73110 73113 73116 73119 73122 73125 73128 73131 73134 73137 73140 73143 73146 73149 73152 73155 73158 73161 73164 73167 73170 73173 73176 73179 73182 73185 73188 73191 73194 73197 73200 73203 73206 73209 73212 73215 73218 73221 73224 73227 73230 73233 73236 73239 73242 73245 73248 73251 73254 73257 73260 73263 73266 73269 73272 73275 73278 73281 73284 73287 73290 73293 73296 73299 73302 73305 73308 73311 73314 73317 73320 73323 73326 73329 73332 73335 73338 73341 73344 73347 73350 73353 73356 73359 73362 73365 73368 73371 73374 73377 73380 73383 73386 73389 73392 73395 73398 73401 73404 73407 73410 73413 73416 73419 73422 73425 73428 73431 73434 73437 73440 73443 73446 73449 73452 73455 73458 73461 73464 73467 73470 73473 73476 73479 73482 73485 73488 73491 73494 73497 73500 73503 73506 73509 73512 73515 73518 73521 73524 73527 73530 73533 73536 73539 73542 73545 73548 73551 73554 73557 73560 73563 73566 73569 73572 73575 73578 73581 73584 73587 73590 73593 73596 73599 73602 73605 73608 73611 73614 73617 73620 73623 73626 73629 73632 73635 73638 73641 73644 73647 73650 73653 73656 73659 73662 73665 73668 73671 73674 73677 73680 73683 73686 73689 73692 73695 73698 73701 73704 73707 73710 73713 73716 73719 73722 73725 73728 73731 73734 73737 73740 73743 73746 73749 73752 73755 73758 73761 73764 73767 73770 73773 73776 73779 73782 73785 73788 73791 73794 73797 73800 73803 73806 73809 73812 73815 73818 73821 73824 73827 73830 73833 73836 73839 73842 73845 73848 73851 73854 73857 73860 73863 73866 73869 73872 73875 73878 73881 73884 73887 73890 73893 73896 73899 73902 73905 73908 73911 73914 73917 73920 73923 73926 73929 73932 73935 73938 73941 73944 73947 73950 73953 73956 73959 73962 73965 73968 73971 73974 73977 73980 73983 73986 73989 73992 73995 73998 74001 74004 74007 74010 74013 74016 74019 74022 74025 74028 74031 74034 74037 74040 74043 74046 74049 74052 74055 74058 74061 74064 74067 74070 74073 74076 74079 74082 74085 74088 74091 74094 74097 74100 74103 74106 74109 74112 74115 74118 74121 74124 74127 74130 74133 74136 74139 74142 74145 74148 74151 74154 74157 74160 74163 74166 74169 74172 74175 74178 74181 74184 74187 74190 74193 74196 74199 74202 74205 74208 74211 74214 74217 74220 74223 74226 74229 74232 74235 74238 74241 74244 74247 74250 74253 74256 74259 74262 74265 74268 74271 74274 74277 74280 74283 74286 74289 74292 74295 74298 74301 74304 74307 74310 74313 74316 74319 74322 74325 74328 74331 74334 74337 74340 74343 74346 74349 74352 74355 74358 74361 74364 74367 74370 74373 74376 74379 74382 74385 74388 74391 74394 74397 74400 74403 74406 74409 74412 74415 74418 74421 74424 74427 74430 74433 74436 74439 74442 74445 74448 74451 74454 74457 74460 74463 74466 74469 74472 74475 74478 74481 74484 74487 74490 74493 74496 74499 74502 74505 74508 74511 74514 74517 74520 74523 74526 74529 74532 74535 74538 74541 74544 74547 74550 74553 74556 74559 74562 74565 74568 74571 74574 74577 74580 74583 74586 74589 74592 74595 74598 74601 74604 74607 74610 74613 74616 74619 74622 74625 74628 74631 74634 74637 74640 74643 74646 74649 74652 74655 74658 74661 74664 74667 74670 74673 74676 74679 74682 74685 74688 74691 74694 74697 74700 74703 74706 74709 74712 74715 74718 74721 74724 74727 74730 74733 74736 74739 74742 74745 74748 74751 74754 74757 74760 74763 74766 74769 74772 74775 74778 74781 74784 74787 74790 74793 74796 74799 74802 74805 74808 74811 74814 74817 74820 74823 74826 74829 74832 74835 74838 74841 74844 74847 74850 74853 74856 74859 74862 74865 74868 74871 74874 74877 74880 74883 74886 74889 74892 74895 74898 74901 74904 74907 74910 74913 74916 74919 74922 74925 74928 74931 74934 74937 74940 74943 74946 74949 74952 74955 74958 74961 74964 74967 74970 74973 74976 74979 74982 74985 74988 74991 74994 74997 75000 75003 75006 75009 75012 75015 75018 75021 75024 75027 75030 75033 75036 75039 75042 75045 75048 75051 75054 75057 75060 75063 75066 75069 75072 75075 75078 75081 75084 75087 75090 75093 75096 75099 75102 75105 75108 75111 75114 75117 75120 75123 75126 75129 75132 75135 75138 75141 75144 75147 75150 75153 75156 75159 75162 75165 75168 75171 75174 75177 75180 75183 75186 75189 75192 75195 75198 75201 75204 75207 75210 75213 75216 75219 75222 75225 75228 75231 75234 75237 75240 75243 75246 75249 75252 75255 75258 75261 75264 75267 75270 75273 75276 75279 75282 75285 75288 75291 75294 75297 75300 75303 75306 75309 75312 75315 75318 75321 75324 75327 75330 75333 75336 75339 75342 75345 75348 75351 75354 75357 75360 75363 75366 75369 75372 75375 75378 75381 75384 75387 75390 75393 75396 75399 75402 75405 75408 75411 75414 75417 75420 75423 75426 75429 75432 75435 75438 75441 75444 75447 75450 75453 75456 75459 75462 75465 75468 75471 75474 75477 75480 75483 75486 75489 75492 75495 75498 75501 75504 75507 75510 75513 75516 75519 75522 75525 75528 75531 75534 75537 75540 75543 75546 75549 75552 75555 75558 75561 75564 75567 75570 75573 75576 75579 75582 75585 75588 75591 75594 75597 75600 75603 75606 75609 75612 75615 75618 75621 75624 75627 75630 75633 75636 75639 75642 75645 75648 75651 75654 75657 75660 75663 75666 75669 75672 75675 75678 75681 75684 75687 75690 75693 75696 75699 75702 75705 75708 75711 75714 75717 75720 75723 75726 75729 75732 75735 75738 75741 75744 75747 75750 75753 75756 75759 75762 75765 75768 75771 75774 75777 75780 75783 75786 75789 75792 75795 75798 75801 75804 75807 75810 75813 75816 75819 75822 75825 75828 75831 75834 75837 75840 75843 75846 75849 75852 75855 75858 75861 75864 75867 75870 75873 75876 75879 75882 75885 75888 75891 75894 75897 75900 75903 75906 75909 75912 75915 75918 75921 75924 75927 75930 75933 75936 75939 75942 75945 75948 75951 75954 75957 75960 75963 75966 75969 75972 75975 75978 75981 75984 75987 75990 75993 75996 75999 76002 76005 76008 76011 76014 76017 76020 76023 76026 76029 76032 76035 76038 76041 76044 76047 76050 76053 76056 76059 76062 76065 76068 76071 76074 76077 76080 76083 76086 76089 76092 76095 76098 76101 76104 76107 76110 76113 76116 76119 76122 76125 76128 76131 76134 76137 76140 76143 76146 76149 76152 76155 76158 76161 76164 76167 76170 76173 76176 76179 76182 76185 76188 76191 76194 76197 76200 76203 76206 76209 76212 76215 76218 76221 76224 76227 76230 76233 76236 76239 76242 76245 76248 76251 76254 76257 76260 76263 76266 76269 76272 76275 76278 76281 76284 76287 76290 76293 76296 76299 76302 76305 76308 76311 76314 76317 76320 76323 76326 76329 76332 76335 76338 76341 76344 76347 76350 76353 76356 76359 76362 76365 76368 76371 76374 76377 76380 76383 76386 76389 76392 76395 76398 76401 76404 76407 76410 76413 76416 76419 76422 76425 76428 76431 76434 76437 76440 76443 76446 76449 76452 76455 76458 76461 76464 76467 76470 76473 76476 76479 76482 76485 76488 76491 76494 76497 76500 76503 76506 76509 76512 76515 76518 76521 76524 76527 76530 76533 76536 76539 76542 76545 76548 76551 76554 76557 76560 76563 76566 76569 76572 76575 76578 76581 76584 76587 76590 76593 76596 76599 76602 76605 76608 76611 76614 76617 76620 76623 76626 76629 76632 76635 76638 76641 76644 76647 76650 76653 76656 76659 76662 76665 76668 76671 76674 76677 76680 76683 76686 76689 76692 76695 76698 76701 76704 76707 76710 76713 76716 76719 76722 76725 76728 76731 76734 76737 76740 76743 76746 76749 76752 76755 76758 76761 76764 76767 76770 76773 76776 76779 76782 76785 76788 76791 76794 76797 76800 76803 76806 76809 76812 76815 76818 76821 76824 76827 76830 76833 76836 76839 76842 76845 76848 76851 76854 76857 76860 76863 76866 76869 76872 76875 76878 76881 76884 76887 76890 76893 76896 76899 76902 76905 76908 76911 76914 76917 76920 76923 76926 76929 76932 76935 76938 76941 76944 76947 76950 76953 76956 76959 76962 76965 76968 76971 76974 76977 76980 76983 76986 76989 76992 76995 76998 77001 77004 77007 77010 77013 77016 77019 77022 77025 77028 77031 77034 77037 77040 77043 77046 77049 77052 77055 77058 77061 77064 77067 77070 77073 77076 77079 77082 77085 77088 77091 77094 77097 77100 77103 77106 77109 77112 77115 77118 77121 77124 77127 77130 77133 77136 77139 77142 77145 77148 77151 77154 77157 77160 77163 77166 77169 77172 77175 77178 77181 77184 77187 77190 77193 77196 77199 77202 77205 77208 77211 77214 77217 77220 77223 77226 77229 77232 77235 77238 77241 77244 77247 77250 77253 77256 77259 77262 77265 77268 77271 77274 77277 77280 77283 77286 77289 77292 77295 77298 77301 77304 77307 77310 77313 77316 77319 77322 77325 77328 77331 77334 77337 77340 77343 77346 77349 77352 77355 77358 77361 77364 77367 77370 77373 77376 77379 77382 77385 77388 77391 77394 77397 77400 77403 77406 77409 77412 77415 77418 77421 77424 77427 77430 77433 77436 77439 77442 77445 77448 77451 77454 77457 77460 77463 77466 77469 77472 77475 77478 77481 77484 77487 77490 77493 77496 77499 77502 77505 77508 77511 77514 77517 77520 77523 77526 77529 77532 77535 77538 77541 77544 77547 77550 77553 77556 77559 77562 77565 77568 77571 77574 77577 77580 77583 77586 77589 77592 77595 77598 77601 77604 77607 77610 77613 77616 77619 77622 77625 77628 77631 77634 77637 77640 77643 77646 77649 77652 77655 77658 77661 77664 77667 77670 77673 77676 77679 77682 77685 77688 77691 77694 77697 77700 77703 77706 77709 77712 77715 77718 77721 77724 77727 77730 77733 77736 77739 77742 77745 77748 77751 77754 77757 77760 77763 77766 77769 77772 77775 77778 77781 77784 77787 77790 77793 77796 77799 77802 77805 77808 77811 77814 77817 77820 77823 77826 77829 77832 77835 77838 77841 77844 77847 77850 77853 77856 77859 77862 77865 77868 77871 77874 77877 77880 77883 77886 77889 77892 77895 77898 77901 77904 77907 77910 77913 77916 77919 77922 77925 77928 77931 77934 77937 77940 77943 77946 77949 77952 77955 77958 77961 77964 77967 77970 77973 77976 77979 77982 77985 77988 77991 77994 77997 78000 78003 78006 78009 78012 78015 78018 78021 78024 78027 78030 78033 78036 78039 78042 78045 78048 78051 78054 78057 78060 78063 78066 78069 78072 78075 78078 78081 78084 78087 78090 78093 78096 78099 78102 78105 78108 78111 78114 78117 78120 78123 78126 78129 78132 78135 78138 78141 78144 78147 78150 78153 78156 78159 78162 78165 78168 78171 78174 78177 78180 78183 78186 78189 78192 78195 78198 78201 78204 78207 78210 78213 78216 78219 78222 78225 78228 78231 78234 78237 78240 78243 78246 78249 78252 78255 78258 78261 78264 78267 78270 78273 78276 78279 78282 78285 78288 78291 78294 78297 78300 78303 78306 78309 78312 78315 78318 78321 78324 78327 78330 78333 78336 78339 78342 78345 78348 78351 78354 78357 78360 78363 78366 78369 78372 78375 78378 78381 78384 78387 78390 78393 78396 78399 78402 78405 78408 78411 78414 78417 78420 78423 78426 78429 78432 78435 78438 78441 78444 78447 78450 78453 78456 78459 78462 78465 78468 78471 78474 78477 78480 78483 78486 78489 78492 78495 78498 78501 78504 78507 78510 78513 78516 78519 78522 78525 78528 78531 78534 78537 78540 78543 78546 78549 78552 78555 78558 78561 78564 78567 78570 78573 78576 78579 78582 78585 78588 78591 78594 78597 78600 78603 78606 78609 78612 78615 78618 78621 78624 78627 78630 78633 78636 78639 78642 78645 78648 78651 78654 78657 78660 78663 78666 78669 78672 78675 78678 78681 78684 78687 78690 78693 78696 78699 78702 78705 78708 78711 78714 78717 78720 78723 78726 78729 78732 78735 78738 78741 78744 78747 78750 78753 78756 78759 78762 78765 78768 78771 78774 78777 78780 78783 78786 78789 78792 78795 78798 78801 78804 78807 78810 78813 78816 78819 78822 78825 78828 78831 78834 78837 78840 78843 78846 78849 78852 78855 78858 78861 78864 78867 78870 78873 78876 78879 78882 78885 78888 78891 78894 78897 78900 78903 78906 78909 78912 78915 78918 78921 78924 78927 78930 78933 78936 78939 78942 78945 78948 78951 78954 78957 78960 78963 78966 78969 78972 78975 78978 78981 78984 78987 78990 78993 78996 78999 79002 79005 79008 79011 79014 79017 79020 79023 79026 79029 79032 79035 79038 79041 79044 79047 79050 79053 79056 79059 79062 79065 79068 79071 79074 79077 79080 79083 79086 79089 79092 79095 79098 79101 79104 79107 79110 79113 79116 79119 79122 79125 79128 79131 79134 79137 79140 79143 79146 79149 79152 79155 79158 79161 79164 79167 79170 79173 79176 79179 79182 79185 79188 79191 79194 79197 79200 79203 79206 79209 79212 79215 79218 79221 79224 79227 79230 79233 79236 79239 79242 79245 79248 79251 79254 79257 79260 79263 79266 79269 79272 79275 79278 79281 79284 79287 79290 79293 79296 79299 79302 79305 79308 79311 79314 79317 79320 79323 79326 79329 79332 79335 79338 79341 79344 79347 79350 79353 79356 79359 79362 79365 79368 79371 79374 79377 79380 79383 79386 79389 79392 79395 79398 79401 79404 79407 79410 79413 79416 79419 79422 79425 79428 79431 79434 79437 79440 79443 79446 79449 79452 79455 79458 79461 79464 79467 79470 79473 79476 79479 79482 79485 79488 79491 79494 79497 79500 79503 79506 79509 79512 79515 79518 79521 79524 79527 79530 79533 79536 79539 79542 79545 79548 79551 79554 79557 79560 79563 79566 79569 79572 79575 79578 79581 79584 79587 79590 79593 79596 79599 79602 79605 79608 79611 79614 79617 79620 79623 79626 79629 79632 79635 79638 79641 79644 79647 79650 79653 79656 79659 79662 79665 79668 79671 79674 79677 79680 79683 79686 79689 79692 79695 79698 79701 79704 79707 79710 79713 79716 79719 79722 79725 79728 79731 79734 79737 79740 79743 79746 79749 79752 79755 79758 79761 79764 79767 79770 79773 79776 79779 79782 79785 79788 79791 79794 79797 79800 79803 79806 79809 79812 79815 79818 79821 79824 79827 79830 79833 79836 79839 79842 79845 79848 79851 79854 79857 79860 79863 79866 79869 79872 79875 79878 79881 79884 79887 79890 79893 79896 79899 79902 79905 79908 79911 79914 79917 79920 79923 79926 79929 79932 79935 79938 79941 79944 79947 79950 79953 79956 79959 79962 79965 79968 79971 79974 79977 79980 79983 79986 79989 79992 79995 79998 80001 80004 80007 80010 80013 80016 80019 80022 80025 80028 80031 80034 80037 80040 80043 80046 80049 80052 80055 80058 80061 80064 80067 80070 80073 80076 80079 80082 80085 80088 80091 80094 80097 80100 80103 80106 80109 80112 80115 80118 80121 80124 80127 80130 80133 80136 80139 80142 80145 80148 80151 80154 80157 80160 80163 80166 80169 80172 80175 80178 80181 80184 80187 80190 80193 80196 80199 80202 80205 80208 80211 80214 80217 80220 80223 80226 80229 80232 80235 80238 80241 80244 80247 80250 80253 80256 80259 80262 80265 80268 80271 80274 80277 80280 80283 80286 80289 80292 80295 80298 80301 80304 80307 80310 80313 80316 80319 80322 80325 80328 80331 80334 80337 80340 80343 80346 80349 80352 80355 80358 80361 80364 80367 80370 80373 80376 80379 80382 80385 80388 80391 80394 80397 80400 80403 80406 80409 80412 80415 80418 80421 80424 80427 80430 80433 80436 80439 80442 80445 80448 80451 80454 80457 80460 80463 80466 80469 80472 80475 80478 80481 80484 80487 80490 80493 80496 80499 80502 80505 80508 80511 80514 80517 80520 80523 80526 80529 80532 80535 80538 80541 80544 80547 80550 80553 80556 80559 80562 80565 80568 80571 80574 80577 80580 80583 80586 80589 80592 80595 80598 80601 80604 80607 80610 80613 80616 80619 80622 80625 80628 80631 80634 80637 80640 80643 80646 80649 80652 80655 80658 80661 80664 80667 80670 80673 80676 80679 80682 80685 80688 80691 80694 80697 80700 80703 80706 80709 80712 80715 80718 80721 80724 80727 80730 80733 80736 80739 80742 80745 80748 80751 80754 80757 80760 80763 80766 80769 80772 80775 80778 80781 80784 80787 80790 80793 80796 80799 80802 80805 80808 80811 80814 80817 80820 80823 80826 80829 80832 80835 80838 80841 80844 80847 80850 80853 80856 80859 80862 80865 80868 80871 80874 80877 80880 80883 80886 80889 80892 80895 80898 80901 80904 80907 80910 80913 80916 80919 80922 80925 80928 80931 80934 80937 80940 80943 80946 80949 80952 80955 80958 80961 80964 80967 80970 80973 80976 80979 80982 80985 80988 80991 80994 80997 81000 81003 81006 81009 81012 81015 81018 81021 81024 81027 81030 81033 81036 81039 81042 81045 81048 81051 81054 81057 81060 81063 81066 81069 81072 81075 81078 81081 81084 81087 81090 81093 81096 81099 81102 81105 81108 81111 81114 81117 81120 81123 81126 81129 81132 81135 81138 81141 81144 81147 81150 81153 81156 81159 81162 81165 81168 81171 81174 81177 81180 81183 81186 81189 81192 81195 81198 81201 81204 81207 81210 81213 81216 81219 81222 81225 81228 81231 81234 81237 81240 81243 81246 81249 81252 81255 81258 81261 81264 81267 81270 81273 81276 81279 81282 81285 81288 81291 81294 81297 81300 81303 81306 81309 81312 81315 81318 81321 81324 81327 81330 81333 81336 81339 81342 81345 81348 81351 81354 81357 81360 81363 81366 81369 81372 81375 81378 81381 81384 81387 81390 81393 81396 81399 81402 81405 81408 81411 81414 81417 81420 81423 81426 81429 81432 81435 81438 81441 81444 81447 81450 81453 81456 81459 81462 81465 81468 81471 81474 81477 81480 81483 81486 81489 81492 81495 81498 81501 81504 81507 81510 81513 81516 81519 81522 81525 81528 81531 81534 81537 81540 81543 81546 81549 81552 81555 81558 81561 81564 81567 81570 81573 81576 81579 81582 81585 81588 81591 81594 81597 81600 81603 81606 81609 81612 81615 81618 81621 81624 81627 81630 81633 81636 81639 81642 81645 81648 81651 81654 81657 81660 81663 81666 81669 81672 81675 81678 81681 81684 81687 81690 81693 81696 81699 81702 81705 81708 81711 81714 81717 81720 81723 81726 81729 81732 81735 81738 81741 81744 81747 81750 81753 81756 81759 81762 81765 81768 81771 81774 81777 81780 81783 81786 81789 81792 81795 81798 81801 81804 81807 81810 81813 81816 81819 81822 81825 81828 81831 81834 81837 81840 81843 81846 81849 81852 81855 81858 81861 81864 81867 81870 81873 81876 81879 81882 81885 81888 81891 81894 81897 81900 81903 81906 81909 81912 81915 81918 81921 81924 81927 81930 81933 81936 81939 81942 81945 81948 81951 81954 81957 81960 81963 81966 81969 81972 81975 81978 81981 81984 81987 81990 81993 81996 81999 82002 82005 82008 82011 82014 82017 82020 82023 82026 82029 82032 82035 82038 82041 82044 82047 82050 82053 82056 82059 82062 82065 82068 82071 82074 82077 82080 82083 82086 82089 82092 82095 82098 82101 82104 82107 82110 82113 82116 82119 82122 82125 82128 82131 82134 82137 82140 82143 82146 82149 82152 82155 82158 82161 82164 82167 82170 82173 82176 82179 82182 82185 82188 82191 82194 82197 82200 82203 82206 82209 82212 82215 82218 82221 82224 82227 82230 82233 82236 82239 82242 82245 82248 82251 82254 82257 82260 82263 82266 82269 82272 82275 82278 82281 82284 82287 82290 82293 82296 82299 82302 82305 82308 82311 82314 82317 82320 82323 82326 82329 82332 82335 82338 82341 82344 82347 82350 82353 82356 82359 82362 82365 82368 82371 82374 82377 82380 82383 82386 82389 82392 82395 82398 82401 82404 82407 82410 82413 82416 82419 82422 82425 82428 82431 82434 82437 82440 82443 82446 82449 82452 82455 82458 82461 82464 82467 82470 82473 82476 82479 82482 82485 82488 82491 82494 82497 82500 82503 82506 82509 82512 82515 82518 82521 82524 82527 82530 82533 82536 82539 82542 82545 82548 82551 82554 82557 82560 82563 82566 82569 82572 82575 82578 82581 82584 82587 82590 82593 82596 82599 82602 82605 82608 82611 82614 82617 82620 82623 82626 82629 82632 82635 82638 82641 82644 82647 82650 82653 82656 82659 82662 82665 82668 82671 82674 82677 82680 82683 82686 82689 82692 82695 82698 82701 82704 82707 82710 82713 82716 82719 82722 82725 82728 82731 82734 82737 82740 82743 82746 82749 82752 82755 82758 82761 82764 82767 82770 82773 82776 82779 82782 82785 82788 82791 82794 82797 82800 82803 82806 82809 82812 82815 82818 82821 82824 82827 82830 82833 82836 82839 82842 82845 82848 82851 82854 82857 82860 82863 82866 82869 82872 82875 82878 82881 82884 82887 82890 82893 82896 82899 82902 82905 82908 82911 82914 82917 82920 82923 82926 82929 82932 82935 82938 82941 82944 82947 82950 82953 82956 82959 82962 82965 82968 82971 82974 82977 82980 82983 82986 82989 82992 82995 82998 83001 83004 83007 83010 83013 83016 83019 83022 83025 83028 83031 83034 83037 83040 83043 83046 83049 83052 83055 83058 83061 83064 83067 83070 83073 83076 83079 83082 83085 83088 83091 83094 83097 83100 83103 83106 83109 83112 83115 83118 83121 83124 83127 83130 83133 83136 83139 83142 83145 83148 83151 83154 83157 83160 83163 83166 83169 83172 83175 83178 83181 83184 83187 83190 83193 83196 83199 83202 83205 83208 83211 83214 83217 83220 83223 83226 83229 83232 83235 83238 83241 83244 83247 83250 83253 83256 83259 83262 83265 83268 83271 83274 83277 83280 83283 83286 83289 83292 83295 83298 83301 83304 83307 83310 83313 83316 83319 83322 83325 83328 83331 83334 83337 83340 83343 83346 83349 83352 83355 83358 83361 83364 83367 83370 83373 83376 83379 83382 83385 83388 83391 83394 83397 83400 83403 83406 83409 83412 83415 83418 83421 83424 83427 83430 83433 83436 83439 83442 83445 83448 83451 83454 83457 83460 83463 83466 83469 83472 83475 83478 83481 83484 83487 83490 83493 83496 83499 83502 83505 83508 83511 83514 83517 83520 83523 83526 83529 83532 83535 83538 83541 83544 83547 83550 83553 83556 83559 83562 83565 83568 83571 83574 83577 83580 83583 83586 83589 83592 83595 83598 83601 83604 83607 83610 83613 83616 83619 83622 83625 83628 83631 83634 83637 83640 83643 83646 83649 83652 83655 83658 83661 83664 83667 83670 83673 83676 83679 83682 83685 83688 83691 83694 83697 83700 83703 83706 83709 83712 83715 83718 83721 83724 83727 83730 83733 83736 83739 83742 83745 83748 83751 83754 83757 83760 83763 83766 83769 83772 83775 83778 83781 83784 83787 83790 83793 83796 83799 83802 83805 83808 83811 83814 83817 83820 83823 83826 83829 83832 83835 83838 83841 83844 83847 83850 83853 83856 83859 83862 83865 83868 83871 83874 83877 83880 83883 83886 83889 83892 83895 83898 83901 83904 83907 83910 83913 83916 83919 83922 83925 83928 83931 83934 83937 83940 83943 83946 83949 83952 83955 83958 83961 83964 83967 83970 83973 83976 83979 83982 83985 83988 83991 83994 83997 84000 84003 84006 84009 84012 84015 84018 84021 84024 84027 84030 84033 84036 84039 84042 84045 84048 84051 84054 84057 84060 84063 84066 84069 84072 84075 84078 84081 84084 84087 84090 84093 84096 84099 84102 84105 84108 84111 84114 84117 84120 84123 84126 84129 84132 84135 84138 84141 84144 84147 84150 84153 84156 84159 84162 84165 84168 84171 84174 84177 84180 84183 84186 84189 84192 84195 84198 84201 84204 84207 84210 84213 84216 84219 84222 84225 84228 84231 84234 84237 84240 84243 84246 84249 84252 84255 84258 84261 84264 84267 84270 84273 84276 84279 84282 84285 84288 84291 84294 84297 84300 84303 84306 84309 84312 84315 84318 84321 84324 84327 84330 84333 84336 84339 84342 84345 84348 84351 84354 84357 84360 84363 84366 84369 84372 84375 84378 84381 84384 84387 84390 84393 84396 84399 84402 84405 84408 84411 84414 84417 84420 84423 84426 84429 84432 84435 84438 84441 84444 84447 84450 84453 84456 84459 84462 84465 84468 84471 84474 84477 84480 84483 84486 84489 84492 84495 84498 84501 84504 84507 84510 84513 84516 84519 84522 84525 84528 84531 84534 84537 84540 84543 84546 84549 84552 84555 84558 84561 84564 84567 84570 84573 84576 84579 84582 84585 84588 84591 84594 84597 84600 84603 84606 84609 84612 84615 84618 84621 84624 84627 84630 84633 84636 84639 84642 84645 84648 84651 84654 84657 84660 84663 84666 84669 84672 84675 84678 84681 84684 84687 84690 84693 84696 84699 84702 84705 84708 84711 84714 84717 84720 84723 84726 84729 84732 84735 84738 84741 84744 84747 84750 84753 84756 84759 84762 84765 84768 84771 84774 84777 84780 84783 84786 84789 84792 84795 84798 84801 84804 84807 84810 84813 84816 84819 84822 84825 84828 84831 84834 84837 84840 84843 84846 84849 84852 84855 84858 84861 84864 84867 84870 84873 84876 84879 84882 84885 84888 84891 84894 84897 84900 84903 84906 84909 84912 84915 84918 84921 84924 84927 84930 84933 84936 84939 84942 84945 84948 84951 84954 84957 84960 84963 84966 84969 84972 84975 84978 84981 84984 84987 84990 84993 84996 84999 85002 85005 85008 85011 85014 85017 85020 85023 85026 85029 85032 85035 85038 85041 85044 85047 85050 85053 85056 85059 85062 85065 85068 85071 85074 85077 85080 85083 85086 85089 85092 85095 85098 85101 85104 85107 85110 85113 85116 85119 85122 85125 85128 85131 85134 85137 85140 85143 85146 85149 85152 85155 85158 85161 85164 85167 85170 85173 85176 85179 85182 85185 85188 85191 85194 85197 85200 85203 85206 85209 85212 85215 85218 85221 85224 85227 85230 85233 85236 85239 85242 85245 85248 85251 85254 85257 85260 85263 85266 85269 85272 85275 85278 85281 85284 85287 85290 85293 85296 85299 85302 85305 85308 85311 85314 85317 85320 85323 85326 85329 85332 85335 85338 85341 85344 85347 85350 85353 85356 85359 85362 85365 85368 85371 85374 85377 85380 85383 85386 85389 85392 85395 85398 85401 85404 85407 85410 85413 85416 85419 85422 85425 85428 85431 85434 85437 85440 85443 85446 85449 85452 85455 85458 85461 85464 85467 85470 85473 85476 85479 85482 85485 85488 85491 85494 85497 85500 85503 85506 85509 85512 85515 85518 85521 85524 85527 85530 85533 85536 85539 85542 85545 85548 85551 85554 85557 85560 85563 85566 85569 85572 85575 85578 85581 85584 85587 85590 85593 85596 85599 85602 85605 85608 85611 85614 85617 85620 85623 85626 85629 85632 85635 85638 85641 85644 85647 85650 85653 85656 85659 85662 85665 85668 85671 85674 85677 85680 85683 85686 85689 85692 85695 85698 85701 85704 85707 85710 85713 85716 85719 85722 85725 85728 85731 85734 85737 85740 85743 85746 85749 85752 85755 85758 85761 85764 85767 85770 85773 85776 85779 85782 85785 85788 85791 85794 85797 85800 85803 85806 85809 85812 85815 85818 85821 85824 85827 85830 85833 85836 85839 85842 85845 85848 85851 85854 85857 85860 85863 85866 85869 85872 85875 85878 85881 85884 85887 85890 85893 85896 85899 85902 85905 85908 85911 85914 85917 85920 85923 85926 85929 85932 85935 85938 85941 85944 85947 85950 85953 85956 85959 85962 85965 85968 85971 85974 85977 85980 85983 85986 85989 85992 85995 85998 86001 86004 86007 86010 86013 86016 86019 86022 86025 86028 86031 86034 86037 86040 86043 86046 86049 86052 86055 86058 86061 86064 86067 86070 86073 86076 86079 86082 86085 86088 86091 86094 86097 86100 86103 86106 86109 86112 86115 86118 86121 86124 86127 86130 86133 86136 86139 86142 86145 86148 86151 86154 86157 86160 86163 86166 86169 86172 86175 86178 86181 86184 86187 86190 86193 86196 86199 86202 86205 86208 86211 86214 86217 86220 86223 86226 86229 86232 86235 86238 86241 86244 86247 86250 86253 86256 86259 86262 86265 86268 86271 86274 86277 86280 86283 86286 86289 86292 86295 86298 86301 86304 86307 86310 86313 86316 86319 86322 86325 86328 86331 86334 86337 86340 86343 86346 86349 86352 86355 86358 86361 86364 86367 86370 86373 86376 86379 86382 86385 86388 86391 86394 86397 86400 86403 86406 86409 86412 86415 86418 86421 86424 86427 86430 86433 86436 86439 86442 86445 86448 86451 86454 86457 86460 86463 86466 86469 86472 86475 86478 86481 86484 86487 86490 86493 86496 86499 86502 86505 86508 86511 86514 86517 86520 86523 86526 86529 86532 86535 86538 86541 86544 86547 86550 86553 86556 86559 86562 86565 86568 86571 86574 86577 86580 86583 86586 86589 86592 86595 86598 86601 86604 86607 86610 86613 86616 86619 86622 86625 86628 86631 86634 86637 86640 86643 86646 86649 86652 86655 86658 86661 86664 86667 86670 86673 86676 86679 86682 86685 86688 86691 86694 86697 86700 86703 86706 86709 86712 86715 86718 86721 86724 86727 86730 86733 86736 86739 86742 86745 86748 86751 86754 86757 86760 86763 86766 86769 86772 86775 86778 86781 86784 86787 86790 86793 86796 86799 86802 86805 86808 86811 86814 86817 86820 86823 86826 86829 86832 86835 86838 86841 86844 86847 86850 86853 86856 86859 86862 86865 86868 86871 86874 86877 86880 86883 86886 86889 86892 86895 86898 86901 86904 86907 86910 86913 86916 86919 86922 86925 86928 86931 86934 86937 86940 86943 86946 86949 86952 86955 86958 86961 86964 86967 86970 86973 86976 86979 86982 86985 86988 86991 86994 86997 87000 87003 87006 87009 87012 87015 87018 87021 87024 87027 87030 87033 87036 87039 87042 87045 87048 87051 87054 87057 87060 87063 87066 87069 87072 87075 87078 87081 87084 87087 87090 87093 87096 87099 87102 87105 87108 87111 87114 87117 87120 87123 87126 87129 87132 87135 87138 87141 87144 87147 87150 87153 87156 87159 87162 87165 87168 87171 87174 87177 87180 87183 87186 87189 87192 87195 87198 87201 87204 87207 87210 87213 87216 87219 87222 87225 87228 87231 87234 87237 87240 87243 87246 87249 87252 87255 87258 87261 87264 87267 87270 87273 87276 87279 87282 87285 87288 87291 87294 87297 87300 87303 87306 87309 87312 87315 87318 87321 87324 87327 87330 87333 87336 87339 87342 87345 87348 87351 87354 87357 87360 87363 87366 87369 87372 87375 87378 87381 87384 87387 87390 87393 87396 87399 87402 87405 87408 87411 87414 87417 87420 87423 87426 87429 87432 87435 87438 87441 87444 87447 87450 87453 87456 87459 87462 87465 87468 87471 87474 87477 87480 87483 87486 87489 87492 87495 87498 87501 87504 87507 87510 87513 87516 87519 87522 87525 87528 87531 87534 87537 87540 87543 87546 87549 87552 87555 87558 87561 87564 87567 87570 87573 87576 87579 87582 87585 87588 87591 87594 87597 87600 87603 87606 87609 87612 87615 87618 87621 87624 87627 87630 87633 87636 87639 87642 87645 87648 87651 87654 87657 87660 87663 87666 87669 87672 87675 87678 87681 87684 87687 87690 87693 87696 87699 87702 87705 87708 87711 87714 87717 87720 87723 87726 87729 87732 87735 87738 87741 87744 87747 87750 87753 87756 87759 87762 87765 87768 87771 87774 87777 87780 87783 87786 87789 87792 87795 87798 87801 87804 87807 87810 87813 87816 87819 87822 87825 87828 87831 87834 87837 87840 87843 87846 87849 87852 87855 87858 87861 87864 87867 87870 87873 87876 87879 87882 87885 87888 87891 87894 87897 87900 87903 87906 87909 87912 87915 87918 87921 87924 87927 87930 87933 87936 87939 87942 87945 87948 87951 87954 87957 87960 87963 87966 87969 87972 87975 87978 87981 87984 87987 87990 87993 87996 87999 88002 88005 88008 88011 88014 88017 88020 88023 88026 88029 88032 88035 88038 88041 88044 88047 88050 88053 88056 88059 88062 88065 88068 88071 88074 88077 88080 88083 88086 88089 88092 88095 88098 88101 88104 88107 88110 88113 88116 88119 88122 88125 88128 88131 88134 88137 88140 88143 88146 88149 88152 88155 88158 88161 88164 88167 88170 88173 88176 88179 88182 88185 88188 88191 88194 88197 88200 88203 88206 88209 88212 88215 88218 88221 88224 88227 88230 88233 88236 88239 88242 88245 88248 88251 88254 88257 88260 88263 88266 88269 88272 88275 88278 88281 88284 88287 88290 88293 88296 88299 88302 88305 88308 88311 88314 88317 88320 88323 88326 88329 88332 88335 88338 88341 88344 88347 88350 88353 88356 88359 88362 88365 88368 88371 88374 88377 88380 88383 88386 88389 88392 88395 88398 88401 88404 88407 88410 88413 88416 88419 88422 88425 88428 88431 88434 88437 88440 88443 88446 88449 88452 88455 88458 88461 88464 88467 88470 88473 88476 88479 88482 88485 88488 88491 88494 88497 88500 88503 88506 88509 88512 88515 88518 88521 88524 88527 88530 88533 88536 88539 88542 88545 88548 88551 88554 88557 88560 88563 88566 88569 88572 88575 88578 88581 88584 88587 88590 88593 88596 88599 88602 88605 88608 88611 88614 88617 88620 88623 88626 88629 88632 88635 88638 88641 88644 88647 88650 88653 88656 88659 88662 88665 88668 88671 88674 88677 88680 88683 88686 88689 88692 88695 88698 88701 88704 88707 88710 88713 88716 88719 88722 88725 88728 88731 88734 88737 88740 88743 88746 88749 88752 88755 88758 88761 88764 88767 88770 88773 88776 88779 88782 88785 88788 88791 88794 88797 88800 88803 88806 88809 88812 88815 88818 88821 88824 88827 88830 88833 88836 88839 88842 88845 88848 88851 88854 88857 88860 88863 88866 88869 88872 88875 88878 88881 88884 88887 88890 88893 88896 88899 88902 88905 88908 88911 88914 88917 88920 88923 88926 88929 88932 88935 88938 88941 88944 88947 88950 88953 88956 88959 88962 88965 88968 88971 88974 88977 88980 88983 88986 88989 88992 88995 88998 89001 89004 89007 89010 89013 89016 89019 89022 89025 89028 89031 89034 89037 89040 89043 89046 89049 89052 89055 89058 89061 89064 89067 89070 89073 89076 89079 89082 89085 89088 89091 89094 89097 89100 89103 89106 89109 89112 89115 89118 89121 89124 89127 89130 89133 89136 89139 89142 89145 89148 89151 89154 89157 89160 89163 89166 89169 89172 89175 89178 89181 89184 89187 89190 89193 89196 89199 89202 89205 89208 89211 89214 89217 89220 89223 89226 89229 89232 89235 89238 89241 89244 89247 89250 89253 89256 89259 89262 89265 89268 89271 89274 89277 89280 89283 89286 89289 89292 89295 89298 89301 89304 89307 89310 89313 89316 89319 89322 89325 89328 89331 89334 89337 89340 89343 89346 89349 89352 89355 89358 89361 89364 89367 89370 89373 89376 89379 89382 89385 89388 89391 89394 89397 89400 89403 89406 89409 89412 89415 89418 89421 89424 89427 89430 89433 89436 89439 89442 89445 89448 89451 89454 89457 89460 89463 89466 89469 89472 89475 89478 89481 89484 89487 89490 89493 89496 89499 89502 89505 89508 89511 89514 89517 89520 89523 89526 89529 89532 89535 89538 89541 89544 89547 89550 89553 89556 89559 89562 89565 89568 89571 89574 89577 89580 89583 89586 89589 89592 89595 89598 89601 89604 89607 89610 89613 89616 89619 89622 89625 89628 89631 89634 89637 89640 89643 89646 89649 89652 89655 89658 89661 89664 89667 89670 89673 89676 89679 89682 89685 89688 89691 89694 89697 89700 89703 89706 89709 89712 89715 89718 89721 89724 89727 89730 89733 89736 89739 89742 89745 89748 89751 89754 89757 89760 89763 89766 89769 89772 89775 89778 89781 89784 89787 89790 89793 89796 89799 89802 89805 89808 89811 89814 89817 89820 89823 89826 89829 89832 89835 89838 89841 89844 89847 89850 89853 89856 89859 89862 89865 89868 89871 89874 89877 89880 89883 89886 89889 89892 89895 89898 89901 89904 89907 89910 89913 89916 89919 89922 89925 89928 89931 89934 89937 89940 89943 89946 89949 89952 89955 89958 89961 89964 89967 89970 89973 89976 89979 89982 89985 89988 89991 89994 89997 90000 90003 90006 90009 90012 90015 90018 90021 90024 90027 90030 90033 90036 90039 90042 90045 90048 90051 90054 90057 90060 90063 90066 90069 90072 90075 90078 90081 90084 90087 90090 90093 90096 90099 90102 90105 90108 90111 90114 90117 90120 90123 90126 90129 90132 90135 90138 90141 90144 90147 90150 90153 90156 90159 90162 90165 90168 90171 90174 90177 90180 90183 90186 90189 90192 90195 90198 90201 90204 90207 90210 90213 90216 90219 90222 90225 90228 90231 90234 90237 90240 90243 90246 90249 90252 90255 90258 90261 90264 90267 90270 90273 90276 90279 90282 90285 90288 90291 90294 90297 90300 90303 90306 90309 90312 90315 90318 90321 90324 90327 90330 90333 90336 90339 90342 90345 90348 90351 90354 90357 90360 90363 90366 90369 90372 90375 90378 90381 90384 90387 90390 90393 90396 90399 90402 90405 90408 90411 90414 90417 90420 90423 90426 90429 90432 90435 90438 90441 90444 90447 90450 90453 90456 90459 90462 90465 90468 90471 90474 90477 90480 90483 90486 90489 90492 90495 90498 90501 90504 90507 90510 90513 90516 90519 90522 90525 90528 90531 90534 90537 90540 90543 90546 90549 90552 90555 90558 90561 90564 90567 90570 90573 90576 90579 90582 90585 90588 90591 90594 90597 90600 90603 90606 90609 90612 90615 90618 90621 90624 90627 90630 90633 90636 90639 90642 90645 90648 90651 90654 90657 90660 90663 90666 90669 90672 90675 90678 90681 90684 90687 90690 90693 90696 90699 90702 90705 90708 90711 90714 90717 90720 90723 90726 90729 90732 90735 90738 90741 90744 90747 90750 90753 90756 90759 90762 90765 90768 90771 90774 90777 90780 90783 90786 90789 90792 90795 90798 90801 90804 90807 90810 90813 90816 90819 90822 90825 90828 90831 90834 90837 90840 90843 90846 90849 90852 90855 90858 90861 90864 90867 90870 90873 90876 90879 90882 90885 90888 90891 90894 90897 90900 90903 90906 90909 90912 90915 90918 90921 90924 90927 90930 90933 90936 90939 90942 90945 90948 90951 90954 90957 90960 90963 90966 90969 90972 90975 90978 90981 90984 90987 90990 90993 90996 90999 91002 91005 91008 91011 91014 91017 91020 91023 91026 91029 91032 91035 91038 91041 91044 91047 91050 91053 91056 91059 91062 91065 91068 91071 91074 91077 91080 91083 91086 91089 91092 91095 91098 91101 91104 91107 91110 91113 91116 91119 91122 91125 91128 91131 91134 91137 91140 91143 91146 91149 91152 91155 91158 91161 91164 91167 91170 91173 91176 91179 91182 91185 91188 91191 91194 91197 91200 91203 91206 91209 91212 91215 91218 91221 91224 91227 91230 91233 91236 91239 91242 91245 91248 91251 91254 91257 91260 91263 91266 91269 91272 91275 91278 91281 91284 91287 91290 91293 91296 91299 91302 91305 91308 91311 91314 91317 91320 91323 91326 91329 91332 91335 91338 91341 91344 91347 91350 91353 91356 91359 91362 91365 91368 91371 91374 91377 91380 91383 91386 91389 91392 91395 91398 91401 91404 91407 91410 91413 91416 91419 91422 91425 91428 91431 91434 91437 91440 91443 91446 91449 91452 91455 91458 91461 91464 91467 91470 91473 91476 91479 91482 91485 91488 91491 91494 91497 91500 91503 91506 91509 91512 91515 91518 91521 91524 91527 91530 91533 91536 91539 91542 91545 91548 91551 91554 91557 91560 91563 91566 91569 91572 91575 91578 91581 91584 91587 91590 91593 91596 91599 91602 91605 91608 91611 91614 91617 91620 91623 91626 91629 91632 91635 91638 91641 91644 91647 91650 91653 91656 91659 91662 91665 91668 91671 91674 91677 91680 91683 91686 91689 91692 91695 91698 91701 91704 91707 91710 91713 91716 91719 91722 91725 91728 91731 91734 91737 91740 91743 91746 91749 91752 91755 91758 91761 91764 91767 91770 91773 91776 91779 91782 91785 91788 91791 91794 91797 91800 91803 91806 91809 91812 91815 91818 91821 91824 91827 91830 91833 91836 91839 91842 91845 91848 91851 91854 91857 91860 91863 91866 91869 91872 91875 91878 91881 91884 91887 91890 91893 91896 91899 91902 91905 91908 91911 91914 91917 91920 91923 91926 91929 91932 91935 91938 91941 91944 91947 91950 91953 91956 91959 91962 91965 91968 91971 91974 91977 91980 91983 91986 91989 91992 91995 91998 92001 92004 92007 92010 92013 92016 92019 92022 92025 92028 92031 92034 92037 92040 92043 92046 92049 92052 92055 92058 92061 92064 92067 92070 92073 92076 92079 92082 92085 92088 92091 92094 92097 92100 92103 92106 92109 92112 92115 92118 92121 92124 92127 92130 92133 92136 92139 92142 92145 92148 92151 92154 92157 92160 92163 92166 92169 92172 92175 92178 92181 92184 92187 92190 92193 92196 92199 92202 92205 92208 92211 92214 92217 92220 92223 92226 92229 92232 92235 92238 92241 92244 92247 92250 92253 92256 92259 92262 92265 92268 92271 92274 92277 92280 92283 92286 92289 92292 92295 92298 92301 92304 92307 92310 92313 92316 92319 92322 92325 92328 92331 92334 92337 92340 92343 92346 92349 92352 92355 92358 92361 92364 92367 92370 92373 92376 92379 92382 92385 92388 92391 92394 92397 92400 92403 92406 92409 92412 92415 92418 92421 92424 92427 92430 92433 92436 92439 92442 92445 92448 92451 92454 92457 92460 92463 92466 92469 92472 92475 92478 92481 92484 92487 92490 92493 92496 92499 92502 92505 92508 92511 92514 92517 92520 92523 92526 92529 92532 92535 92538 92541 92544 92547 92550 92553 92556 92559 92562 92565 92568 92571 92574 92577 92580 92583 92586 92589 92592 92595 92598 92601 92604 92607 92610 92613 92616 92619 92622 92625 92628 92631 92634 92637 92640 92643 92646 92649 92652 92655 92658 92661 92664 92667 92670 92673 92676 92679 92682 92685 92688 92691 92694 92697 92700 92703 92706 92709 92712 92715 92718 92721 92724 92727 92730 92733 92736 92739 92742 92745 92748 92751 92754 92757 92760 92763 92766 92769 92772 92775 92778 92781 92784 92787 92790 92793 92796 92799 92802 92805 92808 92811 92814 92817 92820 92823 92826 92829 92832 92835 92838 92841 92844 92847 92850 92853 92856 92859 92862 92865 92868 92871 92874 92877 92880 92883 92886 92889 92892 92895 92898 92901 92904 92907 92910 92913 92916 92919 92922 92925 92928 92931 92934 92937 92940 92943 92946 92949 92952 92955 92958 92961 92964 92967 92970 92973 92976 92979 92982 92985 92988 92991 92994 92997 93000 93003 93006 93009 93012 93015 93018 93021 93024 93027 93030 93033 93036 93039 93042 93045 93048 93051 93054 93057 93060 93063 93066 93069 93072 93075 93078 93081 93084 93087 93090 93093 93096 93099 93102 93105 93108 93111 93114 93117 93120 93123 93126 93129 93132 93135 93138 93141 93144 93147 93150 93153 93156 93159 93162 93165 93168 93171 93174 93177 93180 93183 93186 93189 93192 93195 93198 93201 93204 93207 93210 93213 93216 93219 93222 93225 93228 93231 93234 93237 93240 93243 93246 93249 93252 93255 93258 93261 93264 93267 93270 93273 93276 93279 93282 93285 93288 93291 93294 93297 93300 93303 93306 93309 93312 93315 93318 93321 93324 93327 93330 93333 93336 93339 93342 93345 93348 93351 93354 93357 93360 93363 93366 93369 93372 93375 93378 93381 93384 93387 93390 93393 93396 93399 93402 93405 93408 93411 93414 93417 93420 93423 93426 93429 93432 93435 93438 93441 93444 93447 93450 93453 93456 93459 93462 93465 93468 93471 93474 93477 93480 93483 93486 93489 93492 93495 93498 93501 93504 93507 93510 93513 93516 93519 93522 93525 93528 93531 93534 93537 93540 93543 93546 93549 93552 93555 93558 93561 93564 93567 93570 93573 93576 93579 93582 93585 93588 93591 93594 93597 93600 93603 93606 93609 93612 93615 93618 93621 93624 93627 93630 93633 93636 93639 93642 93645 93648 93651 93654 93657 93660 93663 93666 93669 93672 93675 93678 93681 93684 93687 93690 93693 93696 93699 93702 93705 93708 93711 93714 93717 93720 93723 93726 93729 93732 93735 93738 93741 93744 93747 93750 93753 93756 93759 93762 93765 93768 93771 93774 93777 93780 93783 93786 93789 93792 93795 93798 93801 93804 93807 93810 93813 93816 93819 93822 93825 93828 93831 93834 93837 93840 93843 93846 93849 93852 93855 93858 93861 93864 93867 93870 93873 93876 93879 93882 93885 93888 93891 93894 93897 93900 93903 93906 93909 93912 93915 93918 93921 93924 93927 93930 93933 93936 93939 93942 93945 93948 93951 93954 93957 93960 93963 93966 93969 93972 93975 93978 93981 93984 93987 93990 93993 93996 93999 94002 94005 94008 94011 94014 94017 94020 94023 94026 94029 94032 94035 94038 94041 94044 94047 94050 94053 94056 94059 94062 94065 94068 94071 94074 94077 94080 94083 94086 94089 94092 94095 94098 94101 94104 94107 94110 94113 94116 94119 94122 94125 94128 94131 94134 94137 94140 94143 94146 94149 94152 94155 94158 94161 94164 94167 94170 94173 94176 94179 94182 94185 94188 94191 94194 94197 94200 94203 94206 94209 94212 94215 94218 94221 94224 94227 94230 94233 94236 94239 94242 94245 94248 94251 94254 94257 94260 94263 94266 94269 94272 94275 94278 94281 94284 94287 94290 94293 94296 94299 94302 94305 94308 94311 94314 94317 94320 94323 94326 94329 94332 94335 94338 94341 94344 94347 94350 94353 94356 94359 94362 94365 94368 94371 94374 94377 94380 94383 94386 94389 94392 94395 94398 94401 94404 94407 94410 94413 94416 94419 94422 94425 94428 94431 94434 94437 94440 94443 94446 94449 94452 94455 94458 94461 94464 94467 94470 94473 94476 94479 94482 94485 94488 94491 94494 94497 94500 94503 94506 94509 94512 94515 94518 94521 94524 94527 94530 94533 94536 94539 94542 94545 94548 94551 94554 94557 94560 94563 94566 94569 94572 94575 94578 94581 94584 94587 94590 94593 94596 94599 94602 94605 94608 94611 94614 94617 94620 94623 94626 94629 94632 94635 94638 94641 94644 94647 94650 94653 94656 94659 94662 94665 94668 94671 94674 94677 94680 94683 94686 94689 94692 94695 94698 94701 94704 94707 94710 94713 94716 94719 94722 94725 94728 94731 94734 94737 94740 94743 94746 94749 94752 94755 94758 94761 94764 94767 94770 94773 94776 94779 94782 94785 94788 94791 94794 94797 94800 94803 94806 94809 94812 94815 94818 94821 94824 94827 94830 94833 94836 94839 94842 94845 94848 94851 94854 94857 94860 94863 94866 94869 94872 94875 94878 94881 94884 94887 94890 94893 94896 94899 94902 94905 94908 94911 94914 94917 94920 94923 94926 94929 94932 94935 94938 94941 94944 94947 94950 94953 94956 94959 94962 94965 94968 94971 94974 94977 94980 94983 94986 94989 94992 94995 94998 95001 95004 95007 95010 95013 95016 95019 95022 95025 95028 95031 95034 95037 95040 95043 95046 95049 95052 95055 95058 95061 95064 95067 95070 95073 95076 95079 95082 95085 95088 95091 95094 95097 95100 95103 95106 95109 95112 95115 95118 95121 95124 95127 95130 95133 95136 95139 95142 95145 95148 95151 95154 95157 95160 95163 95166 95169 95172 95175 95178 95181 95184 95187 95190 95193 95196 95199 95202 95205 95208 95211 95214 95217 95220 95223 95226 95229 95232 95235 95238 95241 95244 95247 95250 95253 95256 95259 95262 95265 95268 95271 95274 95277 95280 95283 95286 95289 95292 95295 95298 95301 95304 95307 95310 95313 95316 95319 95322 95325 95328 95331 95334 95337 95340 95343 95346 95349 95352 95355 95358 95361 95364 95367 95370 95373 95376 95379 95382 95385 95388 95391 95394 95397 95400 95403 95406 95409 95412 95415 95418 95421 95424 95427 95430 95433 95436 95439 95442 95445 95448 95451 95454 95457 95460 95463 95466 95469 95472 95475 95478 95481 95484 95487 95490 95493 95496 95499 95502 95505 95508 95511 95514 95517 95520 95523 95526 95529 95532 95535 95538 95541 95544 95547 95550 95553 95556 95559 95562 95565 95568 95571 95574 95577 95580 95583 95586 95589 95592 95595 95598 95601 95604 95607 95610 95613 95616 95619 95622 95625 95628 95631 95634 95637 95640 95643 95646 95649 95652 95655 95658 95661 95664 95667 95670 95673 95676 95679 95682 95685 95688 95691 95694 95697 95700 95703 95706 95709 95712 95715 95718 95721 95724 95727 95730 95733 95736 95739 95742 95745 95748 95751 95754 95757 95760 95763 95766 95769 95772 95775 95778 95781 95784 95787 95790 95793 95796 95799 95802 95805 95808 95811 95814 95817 95820 95823 95826 95829 95832 95835 95838 95841 95844 95847 95850 95853 95856 95859 95862 95865 95868 95871 95874 95877 95880 95883 95886 95889 95892 95895 95898 95901 95904 95907 95910 95913 95916 95919 95922 95925 95928 95931 95934 95937 95940 95943 95946 95949 95952 95955 95958 95961 95964 95967 95970 95973 95976 95979 95982 95985 95988 95991 95994 95997 96000 96003 96006 96009 96012 96015 96018 96021 96024 96027 96030 96033 96036 96039 96042 96045 96048 96051 96054 96057 96060 96063 96066 96069 96072 96075 96078 96081 96084 96087 96090 96093 96096 96099 96102 96105 96108 96111 96114 96117 96120 96123 96126 96129 96132 96135 96138 96141 96144 96147 96150 96153 96156 96159 96162 96165 96168 96171 96174 96177 96180 96183 96186 96189 96192 96195 96198 96201 96204 96207 96210 96213 96216 96219 96222 96225 96228 96231 96234 96237 96240 96243 96246 96249 96252 96255 96258 96261 96264 96267 96270 96273 96276 96279 96282 96285 96288 96291 96294 96297 96300 96303 96306 96309 96312 96315 96318 96321 96324 96327 96330 96333 96336 96339 96342 96345 96348 96351 96354 96357 96360 96363 96366 96369 96372 96375 96378 96381 96384 96387 96390 96393 96396 96399 96402 96405 96408 96411 96414 96417 96420 96423 96426 96429 96432 96435 96438 96441 96444 96447 96450 96453 96456 96459 96462 96465 96468 96471 96474 96477 96480 96483 96486 96489 96492 96495 96498 96501 96504 96507 96510 96513 96516 96519 96522 96525 96528 96531 96534 96537 96540 96543 96546 96549 96552 96555 96558 96561 96564 96567 96570 96573 96576 96579 96582 96585 96588 96591 96594 96597 96600 96603 96606 96609 96612 96615 96618 96621 96624 96627 96630 96633 96636 96639 96642 96645 96648 96651 96654 96657 96660 96663 96666 96669 96672 96675 96678 96681 96684 96687 96690 96693 96696 96699 96702 96705 96708 96711 96714 96717 96720 96723 96726 96729 96732 96735 96738 96741 96744 96747 96750 96753 96756 96759 96762 96765 96768 96771 96774 96777 96780 96783 96786 96789 96792 96795 96798 96801 96804 96807 96810 96813 96816 96819 96822 96825 96828 96831 96834 96837 96840 96843 96846 96849 96852 96855 96858 96861 96864 96867 96870 96873 96876 96879 96882 96885 96888 96891 96894 96897 96900 96903 96906 96909 96912 96915 96918 96921 96924 96927 96930 96933 96936 96939 96942 96945 96948 96951 96954 96957 96960 96963 96966 96969 96972 96975 96978 96981 96984 96987 96990 96993 96996 96999 97002 97005 97008 97011 97014 97017 97020 97023 97026 97029 97032 97035 97038 97041 97044 97047 97050 97053 97056 97059 97062 97065 97068 97071 97074 97077 97080 97083 97086 97089 97092 97095 97098 97101 97104 97107 97110 97113 97116 97119 97122 97125 97128 97131 97134 97137 97140 97143 97146 97149 97152 97155 97158 97161 97164 97167 97170 97173 97176 97179 97182 97185 97188 97191 97194 97197 97200 97203 97206 97209 97212 97215 97218 97221 97224 97227 97230 97233 97236 97239 97242 97245 97248 97251 97254 97257 97260 97263 97266 97269 97272 97275 97278 97281 97284 97287 97290 97293 97296 97299 97302 97305 97308 97311 97314 97317 97320 97323 97326 97329 97332 97335 97338 97341 97344 97347 97350 97353 97356 97359 97362 97365 97368 97371 97374 97377 97380 97383 97386 97389 97392 97395 97398 97401 97404 97407 97410 97413 97416 97419 97422 97425 97428 97431 97434 97437 97440 97443 97446 97449 97452 97455 97458 97461 97464 97467 97470 97473 97476 97479 97482 97485 97488 97491 97494 97497 97500 97503 97506 97509 97512 97515 97518 97521 97524 97527 97530 97533 97536 97539 97542 97545 97548 97551 97554 97557 97560 97563 97566 97569 97572 97575 97578 97581 97584 97587 97590 97593 97596 97599 97602 97605 97608 97611 97614 97617 97620 97623 97626 97629 97632 97635 97638 97641 97644 97647 97650 97653 97656 97659 97662 97665 97668 97671 97674 97677 97680 97683 97686 97689 97692 97695 97698 97701 97704 97707 97710 97713 97716 97719 97722 97725 97728 97731 97734 97737 97740 97743 97746 97749 97752 97755 97758 97761 97764 97767 97770 97773 97776 97779 97782 97785 97788 97791 97794 97797 97800 97803 97806 97809 97812 97815 97818 97821 97824 97827 97830 97833 97836 97839 97842 97845 97848 97851 97854 97857 97860 97863 97866 97869 97872 97875 97878 97881 97884 97887 97890 97893 97896 97899 97902 97905 97908 97911 97914 97917 97920 97923 97926 97929 97932 97935 97938 97941 97944 97947 97950 97953 97956 97959 97962 97965 97968 97971 97974 97977 97980 97983 97986 97989 97992 97995 97998 98001 98004 98007 98010 98013 98016 98019 98022 98025 98028 98031 98034 98037 98040 98043 98046 98049 98052 98055 98058 98061 98064 98067 98070 98073 98076 98079 98082 98085 98088 98091 98094 98097 98100 98103 98106 98109 98112 98115 98118 98121 98124 98127 98130 98133 98136 98139 98142 98145 98148 98151 98154 98157 98160 98163 98166 98169 98172 98175 98178 98181 98184 98187 98190 98193 98196 98199 98202 98205 98208 98211 98214 98217 98220 98223 98226 98229 98232 98235 98238 98241 98244 98247 98250 98253 98256 98259 98262 98265 98268 98271 98274 98277 98280 98283 98286 98289 98292 98295 98298 98301 98304 98307 98310 98313 98316 98319 98322 98325 98328 98331 98334 98337 98340 98343 98346 98349 98352 98355 98358 98361 98364 98367 98370 98373 98376 98379 98382 98385 98388 98391 98394 98397 98400 98403 98406 98409 98412 98415 98418 98421 98424 98427 98430 98433 98436 98439 98442 98445 98448 98451 98454 98457 98460 98463 98466 98469 98472 98475 98478 98481 98484 98487 98490 98493 98496 98499 98502 98505 98508 98511 98514 98517 98520 98523 98526 98529 98532 98535 98538 98541 98544 98547 98550 98553 98556 98559 98562 98565 98568 98571 98574 98577 98580 98583 98586 98589 98592 98595 98598 98601 98604 98607 98610 98613 98616 98619 98622 98625 98628 98631 98634 98637 98640 98643 98646 98649 98652 98655 98658 98661 98664 98667 98670 98673 98676 98679 98682 98685 98688 98691 98694 98697 98700 98703 98706 98709 98712 98715 98718 98721 98724 98727 98730 98733 98736 98739 98742 98745 98748 98751 98754 98757 98760 98763 98766 98769 98772 98775 98778 98781 98784 98787 98790 98793 98796 98799 98802 98805 98808 98811 98814 98817 98820 98823 98826 98829 98832 98835 98838 98841 98844 98847 98850 98853 98856 98859 98862 98865 98868 98871 98874 98877 98880 98883 98886 98889 98892 98895 98898 98901 98904 98907 98910 98913 98916 98919 98922 98925 98928 98931 98934 98937 98940 98943 98946 98949 98952 98955 98958 98961 98964 98967 98970 98973 98976 98979 98982 98985 98988 98991 98994 98997 99000 99003 99006 99009 99012 99015 99018 99021 99024 99027 99030 99033 99036 99039 99042 99045 99048 99051 99054 99057 99060 99063 99066 99069 99072 99075 99078 99081 99084 99087 99090 99093 99096 99099 99102 99105 99108 99111 99114 99117 99120 99123 99126 99129 99132 99135 99138 99141 99144 99147 99150 99153 99156 99159 99162 99165 99168 99171 99174 99177 99180 99183 99186 99189 99192 99195 99198 99201 99204 99207 99210 99213 99216 99219 99222 99225 99228 99231 99234 99237 99240 99243 99246 99249 99252 99255 99258 99261 99264 99267 99270 99273 99276 99279 99282 99285 99288 99291 99294 99297 99300 99303 99306 99309 99312 99315 99318 99321 99324 99327 99330 99333 99336 99339 99342 99345 99348 99351 99354 99357 99360 99363 99366 99369 99372 99375 99378 99381 99384 99387 99390 99393 99396 99399 99402 99405 99408 99411 99414 99417 99420 99423 99426 99429 99432 99435 99438 99441 99444 99447 99450 99453 99456 99459 99462 99465 99468 99471 99474 99477 99480 99483 99486 99489 99492 99495 99498 99501 99504 99507 99510 99513 99516 99519 99522 99525 99528 99531 99534 99537 99540 99543 99546 99549 99552 99555 99558 99561 99564 99567 99570 99573 99576 99579 99582 99585 99588 99591 99594 99597 99600 99603 99606 99609 99612 99615 99618 99621 99624 99627 99630 99633 99636 99639 99642 99645 99648 99651 99654 99657 99660 99663 99666 99669 99672 99675 99678 99681 99684 99687 99690 99693 99696 99699 99702 99705 99708 99711 99714 99717 99720 99723 99726 99729 99732 99735 99738 99741 99744 99747 99750 99753 99756 99759 99762 99765 99768 99771 99774 99777 99780 99783 99786 99789 99792 99795 99798 99801 99804 99807 99810 99813 99816 99819 99822 99825 99828 99831 99834 99837 99840 99843 99846 99849 99852 99855 99858 99861 99864 99867 99870 99873 99876 99879 99882 99885 99888 99891 99894 99897 99900 99903 99906 99909 99912 99915 99918 99921 99924 99927 99930 99933 99936 99939 99942 99945 99948 99951 99954 99957 99960 99963 99966 99969 99972 99975 99978 99981 99984 99987 99990 99993 99996 99999 100002 100005 100008 100011 100014 100017 100020 100023 100026 100029 100032 100035 100038 100041 100044 100047 100050 100053 100056 100059 100062 100065 100068 100071 100074 100077 100080 100083 100086 100089 100092 100095 100098 100101 100104 100107 100110 100113 100116 100119 100122 100125 100128 100131 100134 100137 100140 100143 100146 100149 100152 100155 100158 100161 100164 100167 100170 100173 100176 100179 100182 100185 100188 100191 100194 100197 100200 100203 100206 100209 100212 100215 100218 100221 100224 100227 100230 100233 100236 100239 100242 100245 100248 100251 100254 100257 100260 100263 100266 100269 100272 100275 100278 100281 100284 100287 100290 100293 100296 100299 100302 100305 100308 100311 100314 100317 100320 100323 100326 100329 100332 100335 100338 100341 100344 100347 100350 100353 100356 100359 100362 100365 100368 100371 100374 100377 100380 100383 100386 100389 100392 100395 100398 100401 100404 100407 100410 100413 100416 100419 100422 100425 100428 100431 100434 100437 100440 100443 100446 100449 100452 100455 100458 100461 100464 100467 100470 100473 100476 100479 100482 100485 100488 100491 100494 100497 100500 100503 100506 100509 100512 100515 100518 100521 100524 100527 100530 100533 100536 100539 100542 100545 100548 100551 100554 100557 100560 100563 100566 100569 100572 100575 100578 100581 100584 100587 100590 100593 100596 100599 100602 100605 100608 100611 100614 100617 100620 100623 100626 100629 100632 100635 100638 100641 100644 100647 100650 100653 100656 100659 100662 100665 100668 100671 100674 100677 100680 100683 100686 100689 100692 100695 100698 100701 100704 100707 100710 100713 100716 100719 100722 100725 100728 100731 100734 100737 100740 100743 100746 100749 100752 100755 100758 100761 100764 100767 100770 100773 100776 100779 100782 100785 100788 100791 100794 100797 100800 100803 100806 100809 100812 100815 100818 100821 100824 100827 100830 100833 100836 100839 100842 100845 100848 100851 100854 100857 100860 100863 100866 100869 100872 100875 100878 100881 100884 100887 100890 100893 100896 100899 100902 100905 100908 100911 100914 100917 100920 100923 100926 100929 100932 100935 100938 100941 100944 100947 100950 100953 100956 100959 100962 100965 100968 100971 100974 100977 100980 100983 100986 100989 100992 100995 100998 101001 101004 101007 101010 101013 101016 101019 101022 101025 101028 101031 101034 101037 101040 101043 101046 101049 101052 101055 101058 101061 101064 101067 101070 101073 101076 101079 101082 101085 101088 101091 101094 101097 101100 101103 101106 101109 101112 101115 101118 101121 101124 101127 101130 101133 101136 101139 101142 101145 101148 101151 101154 101157 101160 101163 101166 101169 101172 101175 101178 101181 101184 101187 101190 101193 101196 101199 101202 101205 101208 101211 101214 101217 101220 101223 101226 101229 101232 101235 101238 101241 101244 101247 101250 101253 101256 101259 101262 101265 101268 101271 101274 101277 101280 101283 101286 101289 101292 101295 101298 101301 101304 101307 101310 101313 101316 101319 101322 101325 101328 101331 101334 101337 101340 101343 101346 101349 101352 101355 101358 101361 101364 101367 101370 101373 101376 101379 101382 101385 101388 101391 101394 101397 101400 101403 101406 101409 101412 101415 101418 101421 101424 101427 101430 101433 101436 101439 101442 101445 101448 101451 101454 101457 101460 101463 101466 101469 101472 101475 101478 101481 101484 101487 101490 101493 101496 101499 101502 101505 101508 101511 101514 101517 101520 101523 101526 101529 101532 101535 101538 101541 101544 101547 101550 101553 101556 101559 101562 101565 101568 101571 101574 101577 101580 101583 101586 101589 101592 101595 101598 101601 101604 101607 101610 101613 101616 101619 101622 101625 101628 101631 101634 101637 101640 101643 101646 101649 101652 101655 101658 101661 101664 101667 101670 101673 101676 101679 101682 101685 101688 101691 101694 101697 101700 101703 101706 101709 101712 101715 101718 101721 101724 101727 101730 101733 101736 101739 101742 101745 101748 101751 101754 101757 101760 101763 101766 101769 101772 101775 101778 101781 101784 101787 101790 101793 101796 101799 101802 101805 101808 101811 101814 101817 101820 101823 101826 101829 101832 101835 101838 101841 101844 101847 101850 101853 101856 101859 101862 101865 101868 101871 101874 101877 101880 101883 101886 101889 101892 101895 101898 101901 101904 101907 101910 101913 101916 101919 101922 101925 101928 101931 101934 101937 101940 101943 101946 101949 101952 101955 101958 101961 101964 101967 101970 101973 101976 101979 101982 101985 101988 101991 101994 101997 102000 102003 102006 102009 102012 102015 102018 102021 102024 102027 102030 102033 102036 102039 102042 102045 102048 102051 102054 102057 102060 102063 102066 102069 102072 102075 102078 102081 102084 102087 102090 102093 102096 102099 102102 102105 102108 102111 102114 102117 102120 102123 102126 102129 102132 102135 102138 102141 102144 102147 102150 102153 102156 102159 102162 102165 102168 102171 102174 102177 102180 102183 102186 102189 102192 102195 102198 102201 102204 102207 102210 102213 102216 102219 102222 102225 102228 102231 102234 102237 102240 102243 102246 102249 102252 102255 102258 102261 102264 102267 102270 102273 102276 102279 102282 102285 102288 102291 102294 102297 102300 102303 102306 102309 102312 102315 102318 102321 102324 102327 102330 102333 102336 102339 102342 102345 102348 102351 102354 102357 102360 102363 102366 102369 102372 102375 102378 102381 102384 102387 102390 102393 102396 102399 102402 102405 102408 102411 102414 102417 102420 102423 102426 102429 102432 102435 102438 102441 102444 102447 102450 102453 102456 102459 102462 102465 102468 102471 102474 102477 102480 102483 102486 102489 102492 102495 102498 102501 102504 102507 102510 102513 102516 102519 102522 102525 102528 102531 102534 102537 102540 102543 102546 102549 102552 102555 102558 102561 102564 102567 102570 102573 102576 102579 102582 102585 102588 102591 102594 102597 102600 102603 102606 102609 102612 102615 102618 102621 102624 102627 102630 102633 102636 102639 102642 102645 102648 102651 102654 102657 102660 102663 102666 102669 102672 102675 102678 102681 102684 102687 102690 102693 102696 102699 102702 102705 102708 102711 102714 102717 102720 102723 102726 102729 102732 102735 102738 102741 102744 102747 102750 102753 102756 102759 102762 102765 102768 102771 102774 102777 102780 102783 102786 102789 102792 102795 102798 102801 102804 102807 102810 102813 102816 102819 102822 102825 102828 102831 102834 102837 102840 102843 102846 102849 102852 102855 102858 102861 102864 102867 102870 102873 102876 102879 102882 102885 102888 102891 102894 102897 102900 102903 102906 102909 102912 102915 102918 102921 102924 102927 102930 102933 102936 102939 102942 102945 102948 102951 102954 102957 102960 102963 102966 102969 102972 102975 102978 102981 102984 102987 102990 102993 102996 102999 103002 103005 103008 103011 103014 103017 103020 103023 103026 103029 103032 103035 103038 103041 103044 103047 103050 103053 103056 103059 103062 103065 103068 103071 103074 103077 103080 103083 103086 103089 103092 103095 103098 103101 103104 103107 103110 103113 103116 103119 103122 103125 103128 103131 103134 103137 103140 103143 103146 103149 103152 103155 103158 103161 103164 103167 103170 103173 103176 103179 103182 103185 103188 103191 103194 103197 103200 103203 103206 103209 103212 103215 103218 103221 103224 103227 103230 103233 103236 103239 103242 103245 103248 103251 103254 103257 103260 103263 103266 103269 103272 103275 103278 103281 103284 103287 103290 103293 103296 103299 103302 103305 103308 103311 103314 103317 103320 103323 103326 103329 103332 103335 103338 103341 103344 103347 103350 103353 103356 103359 103362 103365 103368 103371 103374 103377 103380 103383 103386 103389 103392 103395 103398 103401 103404 103407 103410 103413 103416 103419 103422 103425 103428 103431 103434 103437 103440 103443 103446 103449 103452 103455 103458 103461 103464 103467 103470 103473 103476 103479 103482 103485 103488 103491 103494 103497 103500 103503 103506 103509 103512 103515 103518 103521 103524 103527 103530 103533 103536 103539 103542 103545 103548 103551 103554 103557 103560 103563 103566 103569 103572 103575 103578 103581 103584 103587 103590 103593 103596 103599 103602 103605 103608 103611 103614 103617 103620 103623 103626 103629 103632 103635 103638 103641 103644 103647 103650 103653 103656 103659 103662 103665 103668 103671 103674 103677 103680 103683 103686 103689 103692 103695 103698 103701 103704 103707 103710 103713 103716 103719 103722 103725 103728 103731 103734 103737 103740 103743 103746 103749 103752 103755 103758 103761 103764 103767 103770 103773 103776 103779 103782 103785 103788 103791 103794 103797 103800 103803 103806 103809 103812 103815 103818 103821 103824 103827 103830 103833 103836 103839 103842 103845 103848 103851 103854 103857 103860 103863 103866 103869 103872 103875 103878 103881 103884 103887 103890 103893 103896 103899 103902 103905 103908 103911 103914 103917 103920 103923 103926 103929 103932 103935 103938 103941 103944 103947 103950 103953 103956 103959 103962 103965 103968 103971 103974 103977 103980 103983 103986 103989 103992 103995 103998 104001 104004 104007 104010 104013 104016 104019 104022 104025 104028 104031 104034 104037 104040 104043 104046 104049 104052 104055 104058 104061 104064 104067 104070 104073 104076 104079 104082 104085 104088 104091 104094 104097 104100 104103 104106 104109 104112 104115 104118 104121 104124 104127 104130 104133 104136 104139 104142 104145 104148 104151 104154 104157 104160 104163 104166 104169 104172 104175 104178 104181 104184 104187 104190 104193 104196 104199 104202 104205 104208 104211 104214 104217 104220 104223 104226 104229 104232 104235 104238 104241 104244 104247 104250 104253 104256 104259 104262 104265 104268 104271 104274 104277 104280 104283 104286 104289 104292 104295 104298 104301 104304 104307 104310 104313 104316 104319 104322 104325 104328 104331 104334 104337 104340 104343 104346 104349 104352 104355 104358 104361 104364 104367 104370 104373 104376 104379 104382 104385 104388 104391 104394 104397 104400 104403 104406 104409 104412 104415 104418 104421 104424 104427 104430 104433 104436 104439 104442 104445 104448 104451 104454 104457 104460 104463 104466 104469 104472 104475 104478 104481 104484 104487 104490 104493 104496 104499 104502 104505 104508 104511 104514 104517 104520 104523 104526 104529 104532 104535 104538 104541 104544 104547 104550 104553 104556 104559 104562 104565 104568 104571 104574 104577 104580 104583 104586 104589 104592 104595 104598 104601 104604 104607 104610 104613 104616 104619 104622 104625 104628 104631 104634 104637 104640 104643 104646 104649 104652 104655 104658 104661 104664 104667 104670 104673 104676 104679 104682 104685 104688 104691 104694 104697 104700 104703 104706 104709 104712 104715 104718 104721 104724 104727 104730 104733 104736 104739 104742 104745 104748 104751 104754 104757 104760 104763 104766 104769 104772 104775 104778 104781 104784 104787 104790 104793 104796 104799 104802 104805 104808 104811 104814 104817 104820 104823 104826 104829 104832 104835 104838 104841 104844 104847 104850 104853 104856 104859 104862 104865 104868 104871 104874 104877 104880 104883 104886 104889 104892 104895 104898 104901 104904 104907 104910 104913 104916 104919 104922 104925 104928 104931 104934 104937 104940 104943 104946 104949 104952 104955 104958 104961 104964 104967 104970 104973 104976 104979 104982 104985 104988 104991 104994 104997 105000 105003 105006 105009 105012 105015 105018 105021 105024 105027 105030 105033 105036 105039 105042 105045 105048 105051 105054 105057 105060 105063 105066 105069 105072 105075 105078 105081 105084 105087 105090 105093 105096 105099 105102 105105 105108 105111 105114 105117 105120 105123 105126 105129 105132 105135 105138 105141 105144 105147 105150 105153 105156 105159 105162 105165 105168 105171 105174 105177 105180 105183 105186 105189 105192 105195 105198 105201 105204 105207 105210 105213 105216 105219 105222 105225 105228 105231 105234 105237 105240 105243 105246 105249 105252 105255 105258 105261 105264 105267 105270 105273 105276 105279 105282 105285 105288 105291 105294 105297 105300 105303 105306 105309 105312 105315 105318 105321 105324 105327 105330 105333 105336 105339 105342 105345 105348 105351 105354 105357 105360 105363 105366 105369 105372 105375 105378 105381 105384 105387 105390 105393 105396 105399 105402 105405 105408 105411 105414 105417 105420 105423 105426 105429 105432 105435 105438 105441 105444 105447 105450 105453 105456 105459 105462 105465 105468 105471 105474 105477 105480 105483 105486 105489 105492 105495 105498 105501 105504 105507 105510 105513 105516 105519 105522 105525 105528 105531 105534 105537 105540 105543 105546 105549 105552 105555 105558 105561 105564 105567 105570 105573 105576 105579 105582 105585 105588 105591 105594 105597 105600 105603 105606 105609 105612 105615 105618 105621 105624 105627 105630 105633 105636 105639 105642 105645 105648 105651 105654 105657 105660 105663 105666 105669 105672 105675 105678 105681 105684 105687 105690 105693 105696 105699 105702 105705 105708 105711 105714 105717 105720 105723 105726 105729 105732 105735 105738 105741 105744 105747 105750 105753 105756 105759 105762 105765 105768 105771 105774 105777 105780 105783 105786 105789 105792 105795 105798 105801 105804 105807 105810 105813 105816 105819 105822 105825 105828 105831 105834 105837 105840 105843 105846 105849 105852 105855 105858 105861 105864 105867 105870 105873 105876 105879 105882 105885 105888 105891 105894 105897 105900 105903 105906 105909 105912 105915 105918 105921 105924 105927 105930 105933 105936 105939 105942 105945 105948 105951 105954 105957 105960 105963 105966 105969 105972 105975 105978 105981 105984 105987 105990 105993 105996 105999 106002 106005 106008 106011 106014 106017 106020 106023 106026 106029 106032 106035 106038 106041 106044 106047 106050 106053 106056 106059 106062 106065 106068 106071 106074 106077 106080 106083 106086 106089 106092 106095 106098 106101 106104 106107 106110 106113 106116 106119 106122 106125 106128 106131 106134 106137 106140 106143 106146 106149 106152 106155 106158 106161 106164 106167 106170 106173 106176 106179 106182 106185 106188 106191 106194 106197 106200 106203 106206 106209 106212 106215 106218 106221 106224 106227 106230 106233 106236 106239 106242 106245 106248 106251 106254 106257 106260 106263 106266 106269 106272 106275 106278 106281 106284 106287 106290 106293 106296 106299 106302 106305 106308 106311 106314 106317 106320 106323 106326 106329 106332 106335 106338 106341 106344 106347 106350 106353 106356 106359 106362 106365 106368 106371 106374 106377 106380 106383 106386 106389 106392 106395 106398 106401 106404 106407 106410 106413 106416 106419 106422 106425 106428 106431 106434 106437 106440 106443 106446 106449 106452 106455 106458 106461 106464 106467 106470 106473 106476 106479 106482 106485 106488 106491 106494 106497 106500 106503 106506 106509 106512 106515 106518 106521 106524 106527 106530 106533 106536 106539 106542 106545 106548 106551 106554 106557 106560 106563 106566 106569 106572 106575 106578 106581 106584 106587 106590 106593 106596 106599 106602 106605 106608 106611 106614 106617 106620 106623 106626 106629 106632 106635 106638 106641 106644 106647 106650 106653 106656 106659 106662 106665 106668 106671 106674 106677 106680 106683 106686 106689 106692 106695 106698 106701 106704 106707 106710 106713 106716 106719 106722 106725 106728 106731 106734 106737 106740 106743 106746 106749 106752 106755 106758 106761 106764 106767 106770 106773 106776 106779 106782 106785 106788 106791 106794 106797 106800 106803 106806 106809 106812 106815 106818 106821 106824 106827 106830 106833 106836 106839 106842 106845 106848 106851 106854 106857 106860 106863 106866 106869 106872 106875 106878 106881 106884 106887 106890 106893 106896 106899 106902 106905 106908 106911 106914 106917 106920 106923 106926 106929 106932 106935 106938 106941 106944 106947 106950 106953 106956 106959 106962 106965 106968 106971 106974 106977 106980 106983 106986 106989 106992 106995 106998 107001 107004 107007 107010 107013 107016 107019 107022 107025 107028 107031 107034 107037 107040 107043 107046 107049 107052 107055 107058 107061 107064 107067 107070 107073 107076 107079 107082 107085 107088 107091 107094 107097 107100 107103 107106 107109 107112 107115 107118 107121 107124 107127 107130 107133 107136 107139 107142 107145 107148 107151 107154 107157 107160 107163 107166 107169 107172 107175 107178 107181 107184 107187 107190 107193 107196 107199 107202 107205 107208 107211 107214 107217 107220 107223 107226 107229 107232 107235 107238 107241 107244 107247 107250 107253 107256 107259 107262 107265 107268 107271 107274 107277 107280 107283 107286 107289 107292 107295 107298 107301 107304 107307 107310 107313 107316 107319 107322 107325 107328 107331 107334 107337 107340 107343 107346 107349 107352 107355 107358 107361 107364 107367 107370 107373 107376 107379 107382 107385 107388 107391 107394 107397 107400 107403 107406 107409 107412 107415 107418 107421 107424 107427 107430 107433 107436 107439 107442 107445 107448 107451 107454 107457 107460 107463 107466 107469 107472 107475 107478 107481 107484 107487 107490 107493 107496 107499 107502 107505 107508 107511 107514 107517 107520 107523 107526 107529 107532 107535 107538 107541 107544 107547 107550 107553 107556 107559 107562 107565 107568 107571 107574 107577 107580 107583 107586 107589 107592 107595 107598 107601 107604 107607 107610 107613 107616 107619 107622 107625 107628 107631 107634 107637 107640 107643 107646 107649 107652 107655 107658 107661 107664 107667 107670 107673 107676 107679 107682 107685 107688 107691 107694 107697 107700 107703 107706 107709 107712 107715 107718 107721 107724 107727 107730 107733 107736 107739 107742 107745 107748 107751 107754 107757 107760 107763 107766 107769 107772 107775 107778 107781 107784 107787 107790 107793 107796 107799 107802 107805 107808 107811 107814 107817 107820 107823 107826 107829 107832 107835 107838 107841 107844 107847 107850 107853 107856 107859 107862 107865 107868 107871 107874 107877 107880 107883 107886 107889 107892 107895 107898 107901 107904 107907 107910 107913 107916 107919 107922 107925 107928 107931 107934 107937 107940 107943 107946 107949 107952 107955 107958 107961 107964 107967 107970 107973 107976 107979 107982 107985 107988 107991 107994 107997 108000 108003 108006 108009 108012 108015 108018 108021 108024 108027 108030 108033 108036 108039 108042 108045 108048 108051 108054 108057 108060 108063 108066 108069 108072 108075 108078 108081 108084 108087 108090 108093 108096 108099 108102 108105 108108 108111 108114 108117 108120 108123 108126 108129 108132 108135 108138 108141 108144 108147 108150 108153 108156 108159 108162 108165 108168 108171 108174 108177 108180 108183 108186 108189 108192 108195 108198 108201 108204 108207 108210 108213 108216 108219 108222 108225 108228 108231 108234 108237 108240 108243 108246 108249 108252 108255 108258 108261 108264 108267 108270 108273 108276 108279 108282 108285 108288 108291 108294 108297 108300 108303 108306 108309 108312 108315 108318 108321 108324 108327 108330 108333 108336 108339 108342 108345 108348 108351 108354 108357 108360 108363 108366 108369 108372 108375 108378 108381 108384 108387 108390 108393 108396 108399 108402 108405 108408 108411 108414 108417 108420 108423 108426 108429 108432 108435 108438 108441 108444 108447 108450 108453 108456 108459 108462 108465 108468 108471 108474 108477 108480 108483 108486 108489 108492 108495 108498 108501 108504 108507 108510 108513 108516 108519 108522 108525 108528 108531 108534 108537 108540 108543 108546 108549 108552 108555 108558 108561 108564 108567 108570 108573 108576 108579 108582 108585 108588 108591 108594 108597 108600 108603 108606 108609 108612 108615 108618 108621 108624 108627 108630 108633 108636 108639 108642 108645 108648 108651 108654 108657 108660 108663 108666 108669 108672 108675 108678 108681 108684 108687 108690 108693 108696 108699 108702 108705 108708 108711 108714 108717 108720 108723 108726 108729 108732 108735 108738 108741 108744 108747 108750 108753 108756 108759 108762 108765 108768 108771 108774 108777 108780 108783 108786 108789 108792 108795 108798 108801 108804 108807 108810 108813 108816 108819 108822 108825 108828 108831 108834 108837 108840 108843 108846 108849 108852 108855 108858 108861 108864 108867 108870 108873 108876 108879 108882 108885 108888 108891 108894 108897 108900 108903 108906 108909 108912 108915 108918 108921 108924 108927 108930 108933 108936 108939 108942 108945 108948 108951 108954 108957 108960 108963 108966 108969 108972 108975 108978 108981 108984 108987 108990 108993 108996 108999 109002 109005 109008 109011 109014 109017 109020 109023 109026 109029 109032 109035 109038 109041 109044 109047 109050 109053 109056 109059 109062 109065 109068 109071 109074 109077 109080 109083 109086 109089 109092 109095 109098 109101 109104 109107 109110 109113 109116 109119 109122 109125 109128 109131 109134 109137 109140 109143 109146 109149 109152 109155 109158 109161 109164 109167 109170 109173 109176 109179 109182 109185 109188 109191 109194 109197 109200 109203 109206 109209 109212 109215 109218 109221 109224 109227 109230 109233 109236 109239 109242 109245 109248 109251 109254 109257 109260 109263 109266 109269 109272 109275 109278 109281 109284 109287 109290 109293 109296 109299 109302 109305 109308 109311 109314 109317 109320 109323 109326 109329 109332 109335 109338 109341 109344 109347 109350 109353 109356 109359 109362 109365 109368 109371 109374 109377 109380 109383 109386 109389 109392 109395 109398 109401 109404 109407 109410 109413 109416 109419 109422 109425 109428 109431 109434 109437 109440 109443 109446 109449 109452 109455 109458 109461 109464 109467 109470 109473 109476 109479 109482 109485 109488 109491 109494 109497 109500 109503 109506 109509 109512 109515 109518 109521 109524 109527 109530 109533 109536 109539 109542 109545 109548 109551 109554 109557 109560 109563 109566 109569 109572 109575 109578 109581 109584 109587 109590 109593 109596 109599 109602 109605 109608 109611 109614 109617 109620 109623 109626 109629 109632 109635 109638 109641 109644 109647 109650 109653 109656 109659 109662 109665 109668 109671 109674 109677 109680 109683 109686 109689 109692 109695 109698 109701 109704 109707 109710 109713 109716 109719 109722 109725 109728 109731 109734 109737 109740 109743 109746 109749 109752 109755 109758 109761 109764 109767 109770 109773 109776 109779 109782 109785 109788 109791 109794 109797 109800 109803 109806 109809 109812 109815 109818 109821 109824 109827 109830 109833 109836 109839 109842 109845 109848 109851 109854 109857 109860 109863 109866 109869 109872 109875 109878 109881 109884 109887 109890 109893 109896 109899 109902 109905 109908 109911 109914 109917 109920 109923 109926 109929 109932 109935 109938 109941 109944 109947 109950 109953 109956 109959 109962 109965 109968 109971 109974 109977 109980 109983 109986 109989 109992 109995 109998 110001 110004 110007 110010 110013 110016 110019 110022 110025 110028 110031 110034 110037 110040 110043 110046 110049 110052 110055 110058 110061 110064 110067 110070 110073 110076 110079 110082 110085 110088 110091 110094 110097 110100 110103 110106 110109 110112 110115 110118 110121 110124 110127 110130 110133 110136 110139 110142 110145 110148 110151 110154 110157 110160 110163 110166 110169 110172 110175 110178 110181 110184 110187 110190 110193 110196 110199 110202 110205 110208 110211 110214 110217 110220 110223 110226 110229 110232 110235 110238 110241 110244 110247 110250 110253 110256 110259 110262 110265 110268 110271 110274 110277 110280 110283 110286 110289 110292 110295 110298 110301 110304 110307 110310 110313 110316 110319 110322 110325 110328 110331 110334 110337 110340 110343 110346 110349 110352 110355 110358 110361 110364 110367 110370 110373 110376 110379 110382 110385 110388 110391 110394 110397 110400 110403 110406 110409 110412 110415 110418 110421 110424 110427 110430 110433 110436 110439 110442 110445 110448 110451 110454 110457 110460 110463 110466 110469 110472 110475 110478 110481 110484 110487 110490 110493 110496 110499 110502 110505 110508 110511 110514 110517 110520 110523 110526 110529 110532 110535 110538 110541 110544 110547 110550 110553 110556 110559 110562 110565 110568 110571 110574 110577 110580 110583 110586 110589 110592 110595 110598 110601 110604 110607 110610 110613 110616 110619 110622 110625 110628 110631 110634 110637 110640 110643 110646 110649 110652 110655 110658 110661 110664 110667 110670 110673 110676 110679 110682 110685 110688 110691 110694 110697 110700 110703 110706 110709 110712 110715 110718 110721 110724 110727 110730 110733 110736 110739 110742 110745 110748 110751 110754 110757 110760 110763 110766 110769 110772 110775 110778 110781 110784 110787 110790 110793 110796 110799 110802 110805 110808 110811 110814 110817 110820 110823 110826 110829 110832 110835 110838 110841 110844 110847 110850 110853 110856 110859 110862 110865 110868 110871 110874 110877 110880 110883 110886 110889 110892 110895 110898 110901 110904 110907 110910 110913 110916 110919 110922 110925 110928 110931 110934 110937 110940 110943 110946 110949 110952 110955 110958 110961 110964 110967 110970 110973 110976 110979 110982 110985 110988 110991 110994 110997 111000 111003 111006 111009 111012 111015 111018 111021 111024 111027 111030 111033 111036 111039 111042 111045 111048 111051 111054 111057 111060 111063 111066 111069 111072 111075 111078 111081 111084 111087 111090 111093 111096 111099 111102 111105 111108 111111 111114 111117 111120 111123 111126 111129 111132 111135 111138 111141 111144 111147 111150 111153 111156 111159 111162 111165 111168 111171 111174 111177 111180 111183 111186 111189 111192 111195 111198 111201 111204 111207 111210 111213 111216 111219 111222 111225 111228 111231 111234 111237 111240 111243 111246 111249 111252 111255 111258 111261 111264 111267 111270 111273 111276 111279 111282 111285 111288 111291 111294 111297 111300 111303 111306 111309 111312 111315 111318 111321 111324 111327 111330 111333 111336 111339 111342 111345 111348 111351 111354 111357 111360 111363 111366 111369 111372 111375 111378 111381 111384 111387 111390 111393 111396 111399 111402 111405 111408 111411 111414 111417 111420 111423 111426 111429 111432 111435 111438 111441 111444 111447 111450 111453 111456 111459 111462 111465 111468 111471 111474 111477 111480 111483 111486 111489 111492 111495 111498 111501 111504 111507 111510 111513 111516 111519 111522 111525 111528 111531 111534 111537 111540 111543 111546 111549 111552 111555 111558 111561 111564 111567 111570 111573 111576 111579 111582 111585 111588 111591 111594 111597 111600 111603 111606 111609 111612 111615 111618 111621 111624 111627 111630 111633 111636 111639 111642 111645 111648 111651 111654 111657 111660 111663 111666 111669 111672 111675 111678 111681 111684 111687 111690 111693 111696 111699 111702 111705 111708 111711 111714 111717 111720 111723 111726 111729 111732 111735 111738 111741 111744 111747 111750 111753 111756 111759 111762 111765 111768 111771 111774 111777 111780 111783 111786 111789 111792 111795 111798 111801 111804 111807 111810 111813 111816 111819 111822 111825 111828 111831 111834 111837 111840 111843 111846 111849 111852 111855 111858 111861 111864 111867 111870 111873 111876 111879 111882 111885 111888 111891 111894 111897 111900 111903 111906 111909 111912 111915 111918 111921 111924 111927 111930 111933 111936 111939 111942 111945 111948 111951 111954 111957 111960 111963 111966 111969 111972 111975 111978 111981 111984 111987 111990 111993 111996 111999 112002 112005 112008 112011 112014 112017 112020 112023 112026 112029 112032 112035 112038 112041 112044 112047 112050 112053 112056 112059 112062 112065 112068 112071 112074 112077 112080 112083 112086 112089 112092 112095 112098 112101 112104 112107 112110 112113 112116 112119 112122 112125 112128 112131 112134 112137 112140 112143 112146 112149 112152 112155 112158 112161 112164 112167 112170 112173 112176 112179 112182 112185 112188 112191 112194 112197 112200 112203 112206 112209 112212 112215 112218 112221 112224 112227 112230 112233 112236 112239 112242 112245 112248 112251 112254 112257 112260 112263 112266 112269 112272 112275 112278 112281 112284 112287 112290 112293 112296 112299 112302 112305 112308 112311 112314 112317 112320 112323 112326 112329 112332 112335 112338 112341 112344 112347 112350 112353 112356 112359 112362 112365 112368 112371 112374 112377 112380 112383 112386 112389 112392 112395 112398 112401 112404 112407 112410 112413 112416 112419 112422 112425 112428 112431 112434 112437 112440 112443 112446 112449 112452 112455 112458 112461 112464 112467 112470 112473 112476 112479 112482 112485 112488 112491 112494 112497 112500 112503 112506 112509 112512 112515 112518 112521 112524 112527 112530 112533 112536 112539 112542 112545 112548 112551 112554 112557 112560 112563 112566 112569 112572 112575 112578 112581 112584 112587 112590 112593 112596 112599 112602 112605 112608 112611 112614 112617 112620 112623 112626 112629 112632 112635 112638 112641 112644 112647 112650 112653 112656 112659 112662 112665 112668 112671 112674 112677 112680 112683 112686 112689 112692 112695 112698 112701 112704 112707 112710 112713 112716 112719 112722 112725 112728 112731 112734 112737 112740 112743 112746 112749 112752 112755 112758 112761 112764 112767 112770 112773 112776 112779 112782 112785 112788 112791 112794 112797 112800 112803 112806 112809 112812 112815 112818 112821 112824 112827 112830 112833 112836 112839 112842 112845 112848 112851 112854 112857 112860 112863 112866 112869 112872 112875 112878 112881 112884 112887 112890 112893 112896 112899 112902 112905 112908 112911 112914 112917 112920 112923 112926 112929 112932 112935 112938 112941 112944 112947 112950 112953 112956 112959 112962 112965 112968 112971 112974 112977 112980 112983 112986 112989 112992 112995 112998 113001 113004 113007 113010 113013 113016 113019 113022 113025 113028 113031 113034 113037 113040 113043 113046 113049 113052 113055 113058 113061 113064 113067 113070 113073 113076 113079 113082 113085 113088 113091 113094 113097 113100 113103 113106 113109 113112 113115 113118 113121 113124 113127 113130 113133 113136 113139 113142 113145 113148 113151 113154 113157 113160 113163 113166 113169 113172 113175 113178 113181 113184 113187 113190 113193 113196 113199 113202 113205 113208 113211 113214 113217 113220 113223 113226 113229 113232 113235 113238 113241 113244 113247 113250 113253 113256 113259 113262 113265 113268 113271 113274 113277 113280 113283 113286 113289 113292 113295 113298 113301 113304 113307 113310 113313 113316 113319 113322 113325 113328 113331 113334 113337 113340 113343 113346 113349 113352 113355 113358 113361 113364 113367 113370 113373 113376 113379 113382 113385 113388 113391 113394 113397 113400 113403 113406 113409 113412 113415 113418 113421 113424 113427 113430 113433 113436 113439 113442 113445 113448 113451 113454 113457 113460 113463 113466 113469 113472 113475 113478 113481 113484 113487 113490 113493 113496 113499 113502 113505 113508 113511 113514 113517 113520 113523 113526 113529 113532 113535 113538 113541 113544 113547 113550 113553 113556 113559 113562 113565 113568 113571 113574 113577 113580 113583 113586 113589 113592 113595 113598 113601 113604 113607 113610 113613 113616 113619 113622 113625 113628 113631 113634 113637 113640 113643 113646 113649 113652 113655 113658 113661 113664 113667 113670 113673 113676 113679 113682 113685 113688 113691 113694 113697 113700 113703 113706 113709 113712 113715 113718 113721 113724 113727 113730 113733 113736 113739 113742 113745 113748 113751 113754 113757 113760 113763 113766 113769 113772 113775 113778 113781 113784 113787 113790 113793 113796 113799 113802 113805 113808 113811 113814 113817 113820 113823 113826 113829 113832 113835 113838 113841 113844 113847 113850 113853 113856 113859 113862 113865 113868 113871 113874 113877 113880 113883 113886 113889 113892 113895 113898 113901 113904 113907 113910 113913 113916 113919 113922 113925 113928 113931 113934 113937 113940 113943 113946 113949 113952 113955 113958 113961 113964 113967 113970 113973 113976 113979 113982 113985 113988 113991 113994 113997 114000 114003 114006 114009 114012 114015 114018 114021 114024 114027 114030 114033 114036 114039 114042 114045 114048 114051 114054 114057 114060 114063 114066 114069 114072 114075 114078 114081 114084 114087 114090 114093 114096 114099 114102 114105 114108 114111 114114 114117 114120 114123 114126 114129 114132 114135 114138 114141 114144 114147 114150 114153 114156 114159 114162 114165 114168 114171 114174 114177 114180 114183 114186 114189 114192 114195 114198 114201 114204 114207 114210 114213 114216 114219 114222 114225 114228 114231 114234 114237 114240 114243 114246 114249 114252 114255 114258 114261 114264 114267 114270 114273 114276 114279 114282 114285 114288 114291 114294 114297 114300 114303 114306 114309 114312 114315 114318 114321 114324 114327 114330 114333 114336 114339 114342 114345 114348 114351 114354 114357 114360 114363 114366 114369 114372 114375 114378 114381 114384 114387 114390 114393 114396 114399 114402 114405 114408 114411 114414 114417 114420 114423 114426 114429 114432 114435 114438 114441 114444 114447 114450 114453 114456 114459 114462 114465 114468 114471 114474 114477 114480 114483 114486 114489 114492 114495 114498 114501 114504 114507 114510 114513 114516 114519 114522 114525 114528 114531 114534 114537 114540 114543 114546 114549 114552 114555 114558 114561 114564 114567 114570 114573 114576 114579 114582 114585 114588 114591 114594 114597 114600 114603 114606 114609 114612 114615 114618 114621 114624 114627 114630 114633 114636 114639 114642 114645 114648 114651 114654 114657 114660 114663 114666 114669 114672 114675 114678 114681 114684 114687 114690 114693 114696 114699 114702 114705 114708 114711 114714 114717 114720 114723 114726 114729 114732 114735 114738 114741 114744 114747 114750 114753 114756 114759 114762 114765 114768 114771 114774 114777 114780 114783 114786 114789 114792 114795 114798 114801 114804 114807 114810 114813 114816 114819 114822 114825 114828 114831 114834 114837 114840 114843 114846 114849 114852 114855 114858 114861 114864 114867 114870 114873 114876 114879 114882 114885 114888 114891 114894 114897 114900 114903 114906 114909 114912 114915 114918 114921 114924 114927 114930 114933 114936 114939 114942 114945 114948 114951 114954 114957 114960 114963 114966 114969 114972 114975 114978 114981 114984 114987 114990 114993 114996 114999 115002 115005 115008 115011 115014 115017 115020 115023 115026 115029 115032 115035 115038 115041 115044 115047 115050 115053 115056 115059 115062 115065 115068 115071 115074 115077 115080 115083 115086 115089 115092 115095 115098 115101 115104 115107 115110 115113 115116 115119 115122 115125 115128 115131 115134 115137 115140 115143 115146 115149 115152 115155 115158 115161 115164 115167 115170 115173 115176 115179 115182 115185 115188 115191 115194 115197 115200 115203 115206 115209 115212 115215 115218 115221 115224 115227 115230 115233 115236 115239 115242 115245 115248 115251 115254 115257 115260 115263 115266 115269 115272 115275 115278 115281 115284 115287 115290 115293 115296 115299 115302 115305 115308 115311 115314 115317 115320 115323 115326 115329 115332 115335 115338 115341 115344 115347 115350 115353 115356 115359 115362 115365 115368 115371 115374 115377 115380 115383 115386 115389 115392 115395 115398 115401 115404 115407 115410 115413 115416 115419 115422 115425 115428 115431 115434 115437 115440 115443 115446 115449 115452 115455 115458 115461 115464 115467 115470 115473 115476 115479 115482 115485 115488 115491 115494 115497 115500 115503 115506 115509 115512 115515 115518 115521 115524 115527 115530 115533 115536 115539 115542 115545 115548 115551 115554 115557 115560 115563 115566 115569 115572 115575 115578 115581 115584 115587 115590 115593 115596 115599 115602 115605 115608 115611 115614 115617 115620 115623 115626 115629 115632 115635 115638 115641 115644 115647 115650 115653 115656 115659 115662 115665 115668 115671 115674 115677 115680 115683 115686 115689 115692 115695 115698 115701 115704 115707 115710 115713 115716 115719 115722 115725 115728 115731 115734 115737 115740 115743 115746 115749 115752 115755 115758 115761 115764 115767 115770 115773 115776 115779 115782 115785 115788 115791 115794 115797 115800 115803 115806 115809 115812 115815 115818 115821 115824 115827 115830 115833 115836 115839 115842 115845 115848 115851 115854 115857 115860 115863 115866 115869 115872 115875 115878 115881 115884 115887 115890 115893 115896 115899 115902 115905 115908 115911 115914 115917 115920 115923 115926 115929 115932 115935 115938 115941 115944 115947 115950 115953 115956 115959 115962 115965 115968 115971 115974 115977 115980 115983 115986 115989 115992 115995 115998 116001 116004 116007 116010 116013 116016 116019 116022 116025 116028 116031 116034 116037 116040 116043 116046 116049 116052 116055 116058 116061 116064 116067 116070 116073 116076 116079 116082 116085 116088 116091 116094 116097 116100 116103 116106 116109 116112 116115 116118 116121 116124 116127 116130 116133 116136 116139 116142 116145 116148 116151 116154 116157 116160 116163 116166 116169 116172 116175 116178 116181 116184 116187 116190 116193 116196 116199 116202 116205 116208 116211 116214 116217 116220 116223 116226 116229 116232 116235 116238 116241 116244 116247 116250 116253 116256 116259 116262 116265 116268 116271 116274 116277 116280 116283 116286 116289 116292 116295 116298 116301 116304 116307 116310 116313 116316 116319 116322 116325 116328 116331 116334 116337 116340 116343 116346 116349 116352 116355 116358 116361 116364 116367 116370 116373 116376 116379 116382 116385 116388 116391 116394 116397 116400 116403 116406 116409 116412 116415 116418 116421 116424 116427 116430 116433 116436 116439 116442 116445 116448 116451 116454 116457 116460 116463 116466 116469 116472 116475 116478 116481 116484 116487 116490 116493 116496 116499 116502 116505 116508 116511 116514 116517 116520 116523 116526 116529 116532 116535 116538 116541 116544 116547 116550 116553 116556 116559 116562 116565 116568 116571 116574 116577 116580 116583 116586 116589 116592 116595 116598 116601 116604 116607 116610 116613 116616 116619 116622 116625 116628 116631 116634 116637 116640 116643 116646 116649 116652 116655 116658 116661 116664 116667 116670 116673 116676 116679 116682 116685 116688 116691 116694 116697 116700 116703 116706 116709 116712 116715 116718 116721 116724 116727 116730 116733 116736 116739 116742 116745 116748 116751 116754 116757 116760 116763 116766 116769 116772 116775 116778 116781 116784 116787 116790 116793 116796 116799 116802 116805 116808 116811 116814 116817 116820 116823 116826 116829 116832 116835 116838 116841 116844 116847 116850 116853 116856 116859 116862 116865 116868 116871 116874 116877 116880 116883 116886 116889 116892 116895 116898 116901 116904 116907 116910 116913 116916 116919 116922 116925 116928 116931 116934 116937 116940 116943 116946 116949 116952 116955 116958 116961 116964 116967 116970 116973 116976 116979 116982 116985 116988 116991 116994 116997 117000 117003 117006 117009 117012 117015 117018 117021 117024 117027 117030 117033 117036 117039 117042 117045 117048 117051 117054 117057 117060 117063 117066 117069 117072 117075 117078 117081 117084 117087 117090 117093 117096 117099 117102 117105 117108 117111 117114 117117 117120 117123 117126 117129 117132 117135 117138 117141 117144 117147 117150 117153 117156 117159 117162 117165 117168 117171 117174 117177 117180 117183 117186 117189 117192 117195 117198 117201 117204 117207 117210 117213 117216 117219 117222 117225 117228 117231 117234 117237 117240 117243 117246 117249 117252 117255 117258 117261 117264 117267 117270 117273 117276 117279 117282 117285 117288 117291 117294 117297 117300 117303 117306 117309 117312 117315 117318 117321 117324 117327 117330 117333 117336 117339 117342 117345 117348 117351 117354 117357 117360 117363 117366 117369 117372 117375 117378 117381 117384 117387 117390 117393 117396 117399 117402 117405 117408 117411 117414 117417 117420 117423 117426 117429 117432 117435 117438 117441 117444 117447 117450 117453 117456 117459 117462 117465 117468 117471 117474 117477 117480 117483 117486 117489 117492 117495 117498 117501 117504 117507 117510 117513 117516 117519 117522 117525 117528 117531 117534 117537 117540 117543 117546 117549 117552 117555 117558 117561 117564 117567 117570 117573 117576 117579 117582 117585 117588 117591 117594 117597 117600 117603 117606 117609 117612 117615 117618 117621 117624 117627 117630 117633 117636 117639 117642 117645 117648 117651 117654 117657 117660 117663 117666 117669 117672 117675 117678 117681 117684 117687 117690 117693 117696 117699 117702 117705 117708 117711 117714 117717 117720 117723 117726 117729 117732 117735 117738 117741 117744 117747 117750 117753 117756 117759 117762 117765 117768 117771 117774 117777 117780 117783 117786 117789 117792 117795 117798 117801 117804 117807 117810 117813 117816 117819 117822 117825 117828 117831 117834 117837 117840 117843 117846 117849 117852 117855 117858 117861 117864 117867 117870 117873 117876 117879 117882 117885 117888 117891 117894 117897 117900 117903 117906 117909 117912 117915 117918 117921 117924 117927 117930 117933 117936 117939 117942 117945 117948 117951 117954 117957 117960 117963 117966 117969 117972 117975 117978 117981 117984 117987 117990 117993 117996 117999 118002 118005 118008 118011 118014 118017 118020 118023 118026 118029 118032 118035 118038 118041 118044 118047 118050 118053 118056 118059 118062 118065 118068 118071 118074 118077 118080 118083 118086 118089 118092 118095 118098 118101 118104 118107 118110 118113 118116 118119 118122 118125 118128 118131 118134 118137 118140 118143 118146 118149 118152 118155 118158 118161 118164 118167 118170 118173 118176 118179 118182 118185 118188 118191 118194 118197 118200 118203 118206 118209 118212 118215 118218 118221 118224 118227 118230 118233 118236 118239 118242 118245 118248 118251 118254 118257 118260 118263 118266 118269 118272 118275 118278 118281 118284 118287 118290 118293 118296 118299 118302 118305 118308 118311 118314 118317 118320 118323 118326 118329 118332 118335 118338 118341 118344 118347 118350 118353 118356 118359 118362 118365 118368 118371 118374 118377 118380 118383 118386 118389 118392 118395 118398 118401 118404 118407 118410 118413 118416 118419 118422 118425 118428 118431 118434 118437 118440 118443 118446 118449 118452 118455 118458 118461 118464 118467 118470 118473 118476 118479 118482 118485 118488 118491 118494 118497 118500 118503 118506 118509 118512 118515 118518 118521 118524 118527 118530 118533 118536 118539 118542 118545 118548 118551 118554 118557 118560 118563 118566 118569 118572 118575 118578 118581 118584 118587 118590 118593 118596 118599 118602 118605 118608 118611 118614 118617 118620 118623 118626 118629 118632 118635 118638 118641 118644 118647 118650 118653 118656 118659 118662 118665 118668 118671 118674 118677 118680 118683 118686 118689 118692 118695 118698 118701 118704 118707 118710 118713 118716 118719 118722 118725 118728 118731 118734 118737 118740 118743 118746 118749 118752 118755 118758 118761 118764 118767 118770 118773 118776 118779 118782 118785 118788 118791 118794 118797 118800 118803 118806 118809 118812 118815 118818 118821 118824 118827 118830 118833 118836 118839 118842 118845 118848 118851 118854 118857 118860 118863 118866 118869 118872 118875 118878 118881 118884 118887 118890 118893 118896 118899 118902 118905 118908 118911 118914 118917 118920 118923 118926 118929 118932 118935 118938 118941 118944 118947 118950 118953 118956 118959 118962 118965 118968 118971 118974 118977 118980 118983 118986 118989 118992 118995 118998 119001 119004 119007 119010 119013 119016 119019 119022 119025 119028 119031 119034 119037 119040 119043 119046 119049 119052 119055 119058 119061 119064 119067 119070 119073 119076 119079 119082 119085 119088 119091 119094 119097 119100 119103 119106 119109 119112 119115 119118 119121 119124 119127 119130 119133 119136 119139 119142 119145 119148 119151 119154 119157 119160 119163 119166 119169 119172 119175 119178 119181 119184 119187 119190 119193 119196 119199 119202 119205 119208 119211 119214 119217 119220 119223 119226 119229 119232 119235 119238 119241 119244 119247 119250 119253 119256 119259 119262 119265 119268 119271 119274 119277 119280 119283 119286 119289 119292 119295 119298 119301 119304 119307 119310 119313 119316 119319 119322 119325 119328 119331 119334 119337 119340 119343 119346 119349 119352 119355 119358 119361 119364 119367 119370 119373 119376 119379 119382 119385 119388 119391 119394 119397 119400 119403 119406 119409 119412 119415 119418 119421 119424 119427 119430 119433 119436 119439 119442 119445 119448 119451 119454 119457 119460 119463 119466 119469 119472 119475 119478 119481 119484 119487 119490 119493 119496 119499 119502 119505 119508 119511 119514 119517 119520 119523 119526 119529 119532 119535 119538 119541 119544 119547 119550 119553 119556 119559 119562 119565 119568 119571 119574 119577 119580 119583 119586 119589 119592 119595 119598 119601 119604 119607 119610 119613 119616 119619 119622 119625 119628 119631 119634 119637 119640 119643 119646 119649 119652 119655 119658 119661 119664 119667 119670 119673 119676 119679 119682 119685 119688 119691 119694 119697 119700 119703 119706 119709 119712 119715 119718 119721 119724 119727 119730 119733 119736 119739 119742 119745 119748 119751 119754 119757 119760 119763 119766 119769 119772 119775 119778 119781 119784 119787 119790 119793 119796 119799 119802 119805 119808 119811 119814 119817 119820 119823 119826 119829 119832 119835 119838 119841 119844 119847 119850 119853 119856 119859 119862 119865 119868 119871 119874 119877 119880 119883 119886 119889 119892 119895 119898 119901 119904 119907 119910 119913 119916 119919 119922 119925 119928 119931 119934 119937 119940 119943 119946 119949 119952 119955 119958 119961 119964 119967 119970 119973 119976 119979 119982 119985 119988 119991 119994 119997 120000 120003 120006 120009 120012 120015 120018 120021 120024 120027 120030 120033 120036 120039 120042 120045 120048 120051 120054 120057 120060 120063 120066 120069 120072 120075 120078 120081 120084 120087 120090 120093 120096 120099 120102 120105 120108 120111 120114 120117 120120 120123 120126 120129 120132 120135 120138 120141 120144 120147 120150 120153 120156 120159 120162 120165 120168 120171 120174 120177 120180 120183 120186 120189 120192 120195 120198 120201 120204 120207 120210 120213 120216 120219 120222 120225 120228 120231 120234 120237 120240 120243 120246 120249 120252 120255 120258 120261 120264 120267 120270 120273 120276 120279 120282 120285 120288 120291 120294 120297 120300 120303 120306 120309 120312 120315 120318 120321 120324 120327 120330 120333 120336 120339 120342 120345 120348 120351 120354 120357 120360 120363 120366 120369 120372 120375 120378 120381 120384 120387 120390 120393 120396 120399 120402 120405 120408 120411 120414 120417 120420 120423 120426 120429 120432 120435 120438 120441 120444 120447 120450 120453 120456 120459 120462 120465 120468 120471 120474 120477 120480 120483 120486 120489 120492 120495 120498 120501 120504 120507 120510 120513 120516 120519 120522 120525 120528 120531 120534 120537 120540 120543 120546 120549 120552 120555 120558 120561 120564 120567 120570 120573 120576 120579 120582 120585 120588 120591 120594 120597 120600 120603 120606 120609 120612 120615 120618 120621 120624 120627 120630 120633 120636 120639 120642 120645 120648 120651 120654 120657 120660 120663 120666 120669 120672 120675 120678 120681 120684 120687 120690 120693 120696 120699 120702 120705 120708 120711 120714 120717 120720 120723 120726 120729 120732 120735 120738 120741 120744 120747 120750 120753 120756 120759 120762 120765 120768 120771 120774 120777 120780 120783 120786 120789 120792 120795 120798 120801 120804 120807 120810 120813 120816 120819 120822 120825 120828 120831 120834 120837 120840 120843 120846 120849 120852 120855 120858 120861 120864 120867 120870 120873 120876 120879 120882 120885 120888 120891 120894 120897 120900 120903 120906 120909 120912 120915 120918 120921 120924 120927 120930 120933 120936 120939 120942 120945 120948 120951 120954 120957 120960 120963 120966 120969 120972 120975 120978 120981 120984 120987 120990 120993 120996 120999 121002 121005 121008 121011 121014 121017 121020 121023 121026 121029 121032 121035 121038 121041 121044 121047 121050 121053 121056 121059 121062 121065 121068 121071 121074 121077 121080 121083 121086 121089 121092 121095 121098 121101 121104 121107 121110 121113 121116 121119 121122 121125 121128 121131 121134 121137 121140 121143 121146 121149 121152 121155 121158 121161 121164 121167 121170 121173 121176 121179 121182 121185 121188 121191 121194 121197 121200 121203 121206 121209 121212 121215 121218 121221 121224 121227 121230 121233 121236 121239 121242 121245 121248 121251 121254 121257 121260 121263 121266 121269 121272 121275 121278 121281 121284 121287 121290 121293 121296 121299 121302 121305 121308 121311 121314 121317 121320 121323 121326 121329 121332 121335 121338 121341 121344 121347 121350 121353 121356 121359 121362 121365 121368 121371 121374 121377 121380 121383 121386 121389 121392 121395 121398 121401 121404 121407 121410 121413 121416 121419 121422 121425 121428 121431 121434 121437 121440 121443 121446 121449 121452 121455 121458 121461 121464 121467 121470 121473 121476 121479 121482 121485 121488 121491 121494 121497 121500 121503 121506 121509 121512 121515 121518 121521 121524 121527 121530 121533 121536 121539 121542 121545 121548 121551 121554 121557 121560 121563 121566 121569 121572 121575 121578 121581 121584 121587 121590 121593 121596 121599 121602 121605 121608 121611 121614 121617 121620 121623 121626 121629 121632 121635 121638 121641 121644 121647 121650 121653 121656 121659 121662 121665 121668 121671 121674 121677 121680 121683 121686 121689 121692 121695 121698 121701 121704 121707 121710 121713 121716 121719 121722 121725 121728 121731 121734 121737 121740 121743 121746 121749 121752 121755 121758 121761 121764 121767 121770 121773 121776 121779 121782 121785 121788 121791 121794 121797 121800 121803 121806 121809 121812 121815 121818 121821 121824 121827 121830 121833 121836 121839 121842 121845 121848 121851 121854 121857 121860 121863 121866 121869 121872 121875 121878 121881 121884 121887 121890 121893 121896 121899 121902 121905 121908 121911 121914 121917 121920 121923 121926 121929 121932 121935 121938 121941 121944 121947 121950 121953 121956 121959 121962 121965 121968 121971 121974 121977 121980 121983 121986 121989 121992 121995 121998 122001 122004 122007 122010 122013 122016 122019 122022 122025 122028 122031 122034 122037 122040 122043 122046 122049 122052 122055 122058 122061 122064 122067 122070 122073 122076 122079 122082 122085 122088 122091 122094 122097 122100 122103 122106 122109 122112 122115 122118 122121 122124 122127 122130 122133 122136 122139 122142 122145 122148 122151 122154 122157 122160 122163 122166 122169 122172 122175 122178 122181 122184 122187 122190 122193 122196 122199 122202 122205 122208 122211 122214 122217 122220 122223 122226 122229 122232 122235 122238 122241 122244 122247 122250 122253 122256 122259 122262 122265 122268 122271 122274 122277 122280 122283 122286 122289 122292 122295 122298 122301 122304 122307 122310 122313 122316 122319 122322 122325 122328 122331 122334 122337 122340 122343 122346 122349 122352 122355 122358 122361 122364 122367 122370 122373 122376 122379 122382 122385 122388 122391 122394 122397 122400 122403 122406 122409 122412 122415 122418 122421 122424 122427 122430 122433 122436 122439 122442 122445 122448 122451 122454 122457 122460 122463 122466 122469 122472 122475 122478 122481 122484 122487 122490 122493 122496 122499 122502 122505 122508 122511 122514 122517 122520 122523 122526 122529 122532 122535 122538 122541 122544 122547 122550 122553 122556 122559 122562 122565 122568 122571 122574 122577 122580 122583 122586 122589 122592 122595 122598 122601 122604 122607 122610 122613 122616 122619 122622 122625 122628 122631 122634 122637 122640 122643 122646 122649 122652 122655 122658 122661 122664 122667 122670 122673 122676 122679 122682 122685 122688 122691 122694 122697 122700 122703 122706 122709 122712 122715 122718 122721 122724 122727 122730 122733 122736 122739 122742 122745 122748 122751 122754 122757 122760 122763 122766 122769 122772 122775 122778 122781 122784 122787 122790 122793 122796 122799 122802 122805 122808 122811 122814 122817 122820 122823 122826 122829 122832 122835 122838 122841 122844 122847 122850 122853 122856 122859 122862 122865 122868 122871 122874 122877 122880 122883 122886 122889 122892 122895 122898 122901 122904 122907 122910 122913 122916 122919 122922 122925 122928 122931 122934 122937 122940 122943 122946 122949 122952 122955 122958 122961 122964 122967 122970 122973 122976 122979 122982 122985 122988 122991 122994 122997 123000 123003 123006 123009 123012 123015 123018 123021 123024 123027 123030 123033 123036 123039 123042 123045 123048 123051 123054 123057 123060 123063 123066 123069 123072 123075 123078 123081 123084 123087 123090 123093 123096 123099 123102 123105 123108 123111 123114 123117 123120 123123 123126 123129 123132 123135 123138 123141 123144 123147 123150 123153 123156 123159 123162 123165 123168 123171 123174 123177 123180 123183 123186 123189 123192 123195 123198 123201 123204 123207 123210 123213 123216 123219 123222 123225 123228 123231 123234 123237 123240 123243 123246 123249 123252 123255 123258 123261 123264 123267 123270 123273 123276 123279 123282 123285 123288 123291 123294 123297 123300 123303 123306 123309 123312 123315 123318 123321 123324 123327 123330 123333 123336 123339 123342 123345 123348 123351 123354 123357 123360 123363 123366 123369 123372 123375 123378 123381 123384 123387 123390 123393 123396 123399 123402 123405 123408 123411 123414 123417 123420 123423 123426 123429 123432 123435 123438 123441 123444 123447 123450 123453 123456 123459 123462 123465 123468 123471 123474 123477 123480 123483 123486 123489 123492 123495 123498 123501 123504 123507 123510 123513 123516 123519 123522 123525 123528 123531 123534 123537 123540 123543 123546 123549 123552 123555 123558 123561 123564 123567 123570 123573 123576 123579 123582 123585 123588 123591 123594 123597 123600 123603 123606 123609 123612 123615 123618 123621 123624 123627 123630 123633 123636 123639 123642 123645 123648 123651 123654 123657 123660 123663 123666 123669 123672 123675 123678 123681 123684 123687 123690 123693 123696 123699 123702 123705 123708 123711 123714 123717 123720 123723 123726 123729 123732 123735 123738 123741 123744 123747 123750 123753 123756 123759 123762 123765 123768 123771 123774 123777 123780 123783 123786 123789 123792 123795 123798 123801 123804 123807 123810 123813 123816 123819 123822 123825 123828 123831 123834 123837 123840 123843 123846 123849 123852 123855 123858 123861 123864 123867 123870 123873 123876 123879 123882 123885 123888 123891 123894 123897 123900 123903 123906 123909 123912 123915 123918 123921 123924 123927 123930 123933 123936 123939 123942 123945 123948 123951 123954 123957 123960 123963 123966 123969 123972 123975 123978 123981 123984 123987 123990 123993 123996 123999 124002 124005 124008 124011 124014 124017 124020 124023 124026 124029 124032 124035 124038 124041 124044 124047 124050 124053 124056 124059 124062 124065 124068 124071 124074 124077 124080 124083 124086 124089 124092 124095 124098 124101 124104 124107 124110 124113 124116 124119 124122 124125 124128 124131 124134 124137 124140 124143 124146 124149 124152 124155 124158 124161 124164 124167 124170 124173 124176 124179 124182 124185 124188 124191 124194 124197 124200 124203 124206 124209 124212 124215 124218 124221 124224 124227 124230 124233 124236 124239 124242 124245 124248 124251 124254 124257 124260 124263 124266 124269 124272 124275 124278 124281 124284 124287 124290 124293 124296 124299 124302 124305 124308 124311 124314 124317 124320 124323 124326 124329 124332 124335 124338 124341 124344 124347 124350 124353 124356 124359 124362 124365 124368 124371 124374 124377 124380 124383 124386 124389 124392 124395 124398 124401 124404 124407 124410 124413 124416 124419 124422 124425 124428 124431 124434 124437 124440 124443 124446 124449 124452 124455 124458 124461 124464 124467 124470 124473 124476 124479 124482 124485 124488 124491 124494 124497 124500 124503 124506 124509 124512 124515 124518 124521 124524 124527 124530 124533 124536 124539 124542 124545 124548 124551 124554 124557 124560 124563 124566 124569 124572 124575 124578 124581 124584 124587 124590 124593 124596 124599 124602 124605 124608 124611 124614 124617 124620 124623 124626 124629 124632 124635 124638 124641 124644 124647 124650 124653 124656 124659 124662 124665 124668 124671 124674 124677 124680 124683 124686 124689 124692 124695 124698 124701 124704 124707 124710 124713 124716 124719 124722 124725 124728 124731 124734 124737 124740 124743 124746 124749 124752 124755 124758 124761 124764 124767 124770 124773 124776 124779 124782 124785 124788 124791 124794 124797 124800 124803 124806 124809 124812 124815 124818 124821 124824 124827 124830 124833 124836 124839 124842 124845 124848 124851 124854 124857 124860 124863 124866 124869 124872 124875 124878 124881 124884 124887 124890 124893 124896 124899 124902 124905 124908 124911 124914 124917 124920 124923 124926 124929 124932 124935 124938 124941 124944 124947 124950 124953 124956 124959 124962 124965 124968 124971 124974 124977 124980 124983 124986 124989 124992 124995 124998 125001 125004 125007 125010 125013 125016 125019 125022 125025 125028 125031 125034 125037 125040 125043 125046 125049 125052 125055 125058 125061 125064 125067 125070 125073 125076 125079 125082 125085 125088 125091 125094 125097 125100 125103 125106 125109 125112 125115 125118 125121 125124 125127 125130 125133 125136 125139 125142 125145 125148 125151 125154 125157 125160 125163 125166 125169 125172 125175 125178 125181 125184 125187 125190 125193 125196 125199 125202 125205 125208 125211 125214 125217 125220 125223 125226 125229 125232 125235 125238 125241 125244 125247 125250 125253 125256 125259 125262 125265 125268 125271 125274 125277 125280 125283 125286 125289 125292 125295 125298 125301 125304 125307 125310 125313 125316 125319 125322 125325 125328 125331 125334 125337 125340 125343 125346 125349 125352 125355 125358 125361 125364 125367 125370 125373 125376 125379 125382 125385 125388 125391 125394 125397 125400 125403 125406 125409 125412 125415 125418 125421 125424 125427 125430 125433 125436 125439 125442 125445 125448 125451 125454 125457 125460 125463 125466 125469 125472 125475 125478 125481 125484 125487 125490 125493 125496 125499 125502 125505 125508 125511 125514 125517 125520 125523 125526 125529 125532 125535 125538 125541 125544 125547 125550 125553 125556 125559 125562 125565 125568 125571 125574 125577 125580 125583 125586 125589 125592 125595 125598 125601 125604 125607 125610 125613 125616 125619 125622 125625 125628 125631 125634 125637 125640 125643 125646 125649 125652 125655 125658 125661 125664 125667 125670 125673 125676 125679 125682 125685 125688 125691 125694 125697 125700 125703 125706 125709 125712 125715 125718 125721 125724 125727 125730 125733 125736 125739 125742 125745 125748 125751 125754 125757 125760 125763 125766 125769 125772 125775 125778 125781 125784 125787 125790 125793 125796 125799 125802 125805 125808 125811 125814 125817 125820 125823 125826 125829 125832 125835 125838 125841 125844 125847 125850 125853 125856 125859 125862 125865 125868 125871 125874 125877 125880 125883 125886 125889 125892 125895 125898 125901 125904 125907 125910 125913 125916 125919 125922 125925 125928 125931 125934 125937 125940 125943 125946 125949 125952 125955 125958 125961 125964 125967 125970 125973 125976 125979 125982 125985 125988 125991 125994 125997 126000 126003 126006 126009 126012 126015 126018 126021 126024 126027 126030 126033 126036 126039 126042 126045 126048 126051 126054 126057 126060 126063 126066 126069 126072 126075 126078 126081 126084 126087 126090 126093 126096 126099 126102 126105 126108 126111 126114 126117 126120 126123 126126 126129 126132 126135 126138 126141 126144 126147 126150 126153 126156 126159 126162 126165 126168 126171 126174 126177 126180 126183 126186 126189 126192 126195 126198 126201 126204 126207 126210 126213 126216 126219 126222 126225 126228 126231 126234 126237 126240 126243 126246 126249 126252 126255 126258 126261 126264 126267 126270 126273 126276 126279 126282 126285 126288 126291 126294 126297 126300 126303 126306 126309 126312 126315 126318 126321 126324 126327 126330 126333 126336 126339 126342 126345 126348 126351 126354 126357 126360 126363 126366 126369 126372 126375 126378 126381 126384 126387 126390 126393 126396 126399 126402 126405 126408 126411 126414 126417 126420 126423 126426 126429 126432 126435 126438 126441 126444 126447 126450 126453 126456 126459 126462 126465 126468 126471 126474 126477 126480 126483 126486 126489 126492 126495 126498 126501 126504 126507 126510 126513 126516 126519 126522 126525 126528 126531 126534 126537 126540 126543 126546 126549 126552 126555 126558 126561 126564 126567 126570 126573 126576 126579 126582 126585 126588 126591 126594 126597 126600 126603 126606 126609 126612 126615 126618 126621 126624 126627 126630 126633 126636 126639 126642 126645 126648 126651 126654 126657 126660 126663 126666 126669 126672 126675 126678 126681 126684 126687 126690 126693 126696 126699 126702 126705 126708 126711 126714 126717 126720 126723 126726 126729 126732 126735 126738 126741 126744 126747 126750 126753 126756 126759 126762 126765 126768 126771 126774 126777 126780 126783 126786 126789 126792 126795 126798 126801 126804 126807 126810 126813 126816 126819 126822 126825 126828 126831 126834 126837 126840 126843 126846 126849 126852 126855 126858 126861 126864 126867 126870 126873 126876 126879 126882 126885 126888 126891 126894 126897 126900 126903 126906 126909 126912 126915 126918 126921 126924 126927 126930 126933 126936 126939 126942 126945 126948 126951 126954 126957 126960 126963 126966 126969 126972 126975 126978 126981 126984 126987 126990 126993 126996 126999 127002 127005 127008 127011 127014 127017 127020 127023 127026 127029 127032 127035 127038 127041 127044 127047 127050 127053 127056 127059 127062 127065 127068 127071 127074 127077 127080 127083 127086 127089 127092 127095 127098 127101 127104 127107 127110 127113 127116 127119 127122 127125 127128 127131 127134 127137 127140 127143 127146 127149 127152 127155 127158 127161 127164 127167 127170 127173 127176 127179 127182 127185 127188 127191 127194 127197 127200 127203 127206 127209 127212 127215 127218 127221 127224 127227 127230 127233 127236 127239 127242 127245 127248 127251 127254 127257 127260 127263 127266 127269 127272 127275 127278 127281 127284 127287 127290 127293 127296 127299 127302 127305 127308 127311 127314 127317 127320 127323 127326 127329 127332 127335 127338 127341 127344 127347 127350 127353 127356 127359 127362 127365 127368 127371 127374 127377 127380 127383 127386 127389 127392 127395 127398 127401 127404 127407 127410 127413 127416 127419 127422 127425 127428 127431 127434 127437 127440 127443 127446 127449 127452 127455 127458 127461 127464 127467 127470 127473 127476 127479 127482 127485 127488 127491 127494 127497 127500 127503 127506 127509 127512 127515 127518 127521 127524 127527 127530 127533 127536 127539 127542 127545 127548 127551 127554 127557 127560 127563 127566 127569 127572 127575 127578 127581 127584 127587 127590 127593 127596 127599 127602 127605 127608 127611 127614 127617 127620 127623 127626 127629 127632 127635 127638 127641 127644 127647 127650 127653 127656 127659 127662 127665 127668 127671 127674 127677 127680 127683 127686 127689 127692 127695 127698 127701 127704 127707 127710 127713 127716 127719 127722 127725 127728 127731 127734 127737 127740 127743 127746 127749 127752 127755 127758 127761 127764 127767 127770 127773 127776 127779 127782 127785 127788 127791 127794 127797 127800 127803 127806 127809 127812 127815 127818 127821 127824 127827 127830 127833 127836 127839 127842 127845 127848 127851 127854 127857 127860 127863 127866 127869 127872 127875 127878 127881 127884 127887 127890 127893 127896 127899 127902 127905 127908 127911 127914 127917 127920 127923 127926 127929 127932 127935 127938 127941 127944 127947 127950 127953 127956 127959 127962 127965 127968 127971 127974 127977 127980 127983 127986 127989 127992 127995 127998 128001 128004 128007 128010 128013 128016 128019 128022 128025 128028 128031 128034 128037 128040 128043 128046 128049 128052 128055 128058 128061 128064 128067 128070 128073 128076 128079 128082 128085 128088 128091 128094 128097 128100 128103 128106 128109 128112 128115 128118 128121 128124 128127 128130 128133 128136 128139 128142 128145 128148 128151 128154 128157 128160 128163 128166 128169 128172 128175 128178 128181 128184 128187 128190 128193 128196 128199 128202 128205 128208 128211 128214 128217 128220 128223 128226 128229 128232 128235 128238 128241 128244 128247 128250 128253 128256 128259 128262 128265 128268 128271 128274 128277 128280 128283 128286 128289 128292 128295 128298 128301 128304 128307 128310 128313 128316 128319 128322 128325 128328 128331 128334 128337 128340 128343 128346 128349 128352 128355 128358 128361 128364 128367 128370 128373 128376 128379 128382 128385 128388 128391 128394 128397 128400 128403 128406 128409 128412 128415 128418 128421 128424 128427 128430 128433 128436 128439 128442 128445 128448 128451 128454 128457 128460 128463 128466 128469 128472 128475 128478 128481 128484 128487 128490 128493 128496 128499 128502 128505 128508 128511 128514 128517 128520 128523 128526 128529 128532 128535 128538 128541 128544 128547 128550 128553 128556 128559 128562 128565 128568 128571 128574 128577 128580 128583 128586 128589 128592 128595 128598 128601 128604 128607 128610 128613 128616 128619 128622 128625 128628 128631 128634 128637 128640 128643 128646 128649 128652 128655 128658 128661 128664 128667 128670 128673 128676 128679 128682 128685 128688 128691 128694 128697 128700 128703 128706 128709 128712 128715 128718 128721 128724 128727 128730 128733 128736 128739 128742 128745 128748 128751 128754 128757 128760 128763 128766 128769 128772 128775 128778 128781 128784 128787 128790 128793 128796 128799 128802 128805 128808 128811 128814 128817 128820 128823 128826 128829 128832 128835 128838 128841 128844 128847 128850 128853 128856 128859 128862 128865 128868 128871 128874 128877 128880 128883 128886 128889 128892 128895 128898 128901 128904 128907 128910 128913 128916 128919 128922 128925 128928 128931 128934 128937 128940 128943 128946 128949 128952 128955 128958 128961 128964 128967 128970 128973 128976 128979 128982 128985 128988 128991 128994 128997 129000 129003 129006 129009 129012 129015 129018 129021 129024 129027 129030 129033 129036 129039 129042 129045 129048 129051 129054 129057 129060 129063 129066 129069 129072 129075 129078 129081 129084 129087 129090 129093 129096 129099 129102 129105 129108 129111 129114 129117 129120 129123 129126 129129 129132 129135 129138 129141 129144 129147 129150 129153 129156 129159 129162 129165 129168 129171 129174 129177 129180 129183 129186 129189 129192 129195 129198 129201 129204 129207 129210 129213 129216 129219 129222 129225 129228 129231 129234 129237 129240 129243 129246 129249 129252 129255 129258 129261 129264 129267 129270 129273 129276 129279 129282 129285 129288 129291 129294 129297 129300 129303 129306 129309 129312 129315 129318 129321 129324 129327 129330 129333 129336 129339 129342 129345 129348 129351 129354 129357 129360 129363 129366 129369 129372 129375 129378 129381 129384 129387 129390 129393 129396 129399 129402 129405 129408 129411 129414 129417 129420 129423 129426 129429 129432 129435 129438 129441 129444 129447 129450 129453 129456 129459 129462 129465 129468 129471 129474 129477 129480 129483 129486 129489 129492 129495 129498 129501 129504 129507 129510 129513 129516 129519 129522 129525 129528 129531 129534 129537 129540 129543 129546 129549 129552 129555 129558 129561 129564 129567 129570 129573 129576 129579 129582 129585 129588 129591 129594 129597 129600 129603 129606 129609 129612 129615 129618 129621 129624 129627 129630 129633 129636 129639 129642 129645 129648 129651 129654 129657 129660 129663 129666 129669 129672 129675 129678 129681 129684 129687 129690 129693 129696 129699 129702 129705 129708 129711 129714 129717 129720 129723 129726 129729 129732 129735 129738 129741 129744 129747 129750 129753 129756 129759 129762 129765 129768 129771 129774 129777 129780 129783 129786 129789 129792 129795 129798 129801 129804 129807 129810 129813 129816 129819 129822 129825 129828 129831 129834 129837 129840 129843 129846 129849 129852 129855 129858 129861 129864 129867 129870 129873 129876 129879 129882 129885 129888 129891 129894 129897 129900 129903 129906 129909 129912 129915 129918 129921 129924 129927 129930 129933 129936 129939 129942 129945 129948 129951 129954 129957 129960 129963 129966 129969 129972 129975 129978 129981 129984 129987 129990 129993 129996 129999 130002 130005 130008 130011 130014 130017 130020 130023 130026 130029 130032 130035 130038 130041 130044 130047 130050 130053 130056 130059 130062 130065 130068 130071 130074 130077 130080 130083 130086 130089 130092 130095 130098 130101 130104 130107 130110 130113 130116 130119 130122 130125 130128 130131 130134 130137 130140 130143 130146 130149 130152 130155 130158 130161 130164 130167 130170 130173 130176 130179 130182 130185 130188 130191 130194 130197 130200 130203 130206 130209 130212 130215 130218 130221 130224 130227 130230 130233 130236 130239 130242 130245 130248 130251 130254 130257 130260 130263 130266 130269 130272 130275 130278 130281 130284 130287 130290 130293 130296 130299 130302 130305 130308 130311 130314 130317 130320 130323 130326 130329 130332 130335 130338 130341 130344 130347 130350 130353 130356 130359 130362 130365 130368 130371 130374 130377 130380 130383 130386 130389 130392 130395 130398 130401 130404 130407 130410 130413 130416 130419 130422 130425 130428 130431 130434 130437 130440 130443 130446 130449 130452 130455 130458 130461 130464 130467 130470 130473 130476 130479 130482 130485 130488 130491 130494 130497 130500 130503 130506 130509 130512 130515 130518 130521 130524 130527 130530 130533 130536 130539 130542 130545 130548 130551 130554 130557 130560 130563 130566 130569 130572 130575 130578 130581 130584 130587 130590 130593 130596 130599 130602 130605 130608 130611 130614 130617 130620 130623 130626 130629 130632 130635 130638 130641 130644 130647 130650 130653 130656 130659 130662 130665 130668 130671 130674 130677 130680 130683 130686 130689 130692 130695 130698 130701 130704 130707 130710 130713 130716 130719 130722 130725 130728 130731 130734 130737 130740 130743 130746 130749 130752 130755 130758 130761 130764 130767 130770 130773 130776 130779 130782 130785 130788 130791 130794 130797 130800 130803 130806 130809 130812 130815 130818 130821 130824 130827 130830 130833 130836 130839 130842 130845 130848 130851 130854 130857 130860 130863 130866 130869 130872 130875 130878 130881 130884 130887 130890 130893 130896 130899 130902 130905 130908 130911 130914 130917 130920 130923 130926 130929 130932 130935 130938 130941 130944 130947 130950 130953 130956 130959 130962 130965 130968 130971 130974 130977 130980 130983 130986 130989 130992 130995 130998 131001 131004 131007 131010 131013 131016 131019 131022 131025 131028 131031 131034 131037 131040 131043 131046 131049 131052 131055 131058 131061 131064 131067 131070 131073 131076 131079 131082 131085 131088 131091 131094 131097 131100 131103 131106 131109 131112 131115 131118 131121 131124 131127 131130 131133 131136 131139 131142 131145 131148 131151 131154 131157 131160 131163 131166 131169 131172 131175 131178 131181 131184 131187 131190 131193 131196 131199 131202 131205 131208 131211 131214 131217 131220 131223 131226 131229 131232 131235 131238 131241 131244 131247 131250 131253 131256 131259 131262 131265 131268 131271 131274 131277 131280 131283 131286 131289 131292 131295 131298 131301 131304 131307 131310 131313 131316 131319 131322 131325 131328 131331 131334 131337 131340 131343 131346 131349 131352 131355 131358 131361 131364 131367 131370 131373 131376 131379 131382 131385 131388 131391 131394 131397 131400 131403 131406 131409 131412 131415 131418 131421 131424 131427 131430 131433 131436 131439 131442 131445 131448 131451 131454 131457 131460 131463 131466 131469 131472 131475 131478 131481 131484 131487 131490 131493 131496 131499 131502 131505 131508 131511 131514 131517 131520 131523 131526 131529 131532 131535 131538 131541 131544 131547 131550 131553 131556 131559 131562 131565 131568 131571 131574 131577 131580 131583 131586 131589 131592 131595 131598 131601 131604 131607 131610 131613 131616 131619 131622 131625 131628 131631 131634 131637 131640 131643 131646 131649 131652 131655 131658 131661 131664 131667 131670 131673 131676 131679 131682 131685 131688 131691 131694 131697 131700 131703 131706 131709 131712 131715 131718 131721 131724 131727 131730 131733 131736 131739 131742 131745 131748 131751 131754 131757 131760 131763 131766 131769 131772 131775 131778 131781 131784 131787 131790 131793 131796 131799 131802 131805 131808 131811 131814 131817 131820 131823 131826 131829 131832 131835 131838 131841 131844 131847 131850 131853 131856 131859 131862 131865 131868 131871 131874 131877 131880 131883 131886 131889 131892 131895 131898 131901 131904 131907 131910 131913 131916 131919 131922 131925 131928 131931 131934 131937 131940 131943 131946 131949 131952 131955 131958 131961 131964 131967 131970 131973 131976 131979 131982 131985 131988 131991 131994 131997 132000 132003 132006 132009 132012 132015 132018 132021 132024 132027 132030 132033 132036 132039 132042 132045 132048 132051 132054 132057 132060 132063 132066 132069 132072 132075 132078 132081 132084 132087 132090 132093 132096 132099 132102 132105 132108 132111 132114 132117 132120 132123 132126 132129 132132 132135 132138 132141 132144 132147 132150 132153 132156 132159 132162 132165 132168 132171 132174 132177 132180 132183 132186 132189 132192 132195 132198 132201 132204 132207 132210 132213 132216 132219 132222 132225 132228 132231 132234 132237 132240 132243 132246 132249 132252 132255 132258 132261 132264 132267 132270 132273 132276 132279 132282 132285 132288 132291 132294 132297 132300 132303 132306 132309 132312 132315 132318 132321 132324 132327 132330 132333 132336 132339 132342 132345 132348 132351 132354 132357 132360 132363 132366 132369 132372 132375 132378 132381 132384 132387 132390 132393 132396 132399 132402 132405 132408 132411 132414 132417 132420 132423 132426 132429 132432 132435 132438 132441 132444 132447 132450 132453 132456 132459 132462 132465 132468 132471 132474 132477 132480 132483 132486 132489 132492 132495 132498 132501 132504 132507 132510 132513 132516 132519 132522 132525 132528 132531 132534 132537 132540 132543 132546 132549 132552 132555 132558 132561 132564 132567 132570 132573 132576 132579 132582 132585 132588 132591 132594 132597 132600 132603 132606 132609 132612 132615 132618 132621 132624 132627 132630 132633 132636 132639 132642 132645 132648 132651 132654 132657 132660 132663 132666 132669 132672 132675 132678 132681 132684 132687 132690 132693 132696 132699 132702 132705 132708 132711 132714 132717 132720 132723 132726 132729 132732 132735 132738 132741 132744 132747 132750 132753 132756 132759 132762 132765 132768 132771 132774 132777 132780 132783 132786 132789 132792 132795 132798 132801 132804 132807 132810 132813 132816 132819 132822 132825 132828 132831 132834 132837 132840 132843 132846 132849 132852 132855 132858 132861 132864 132867 132870 132873 132876 132879 132882 132885 132888 132891 132894 132897 132900 132903 132906 132909 132912 132915 132918 132921 132924 132927 132930 132933 132936 132939 132942 132945 132948 132951 132954 132957 132960 132963 132966 132969 132972 132975 132978 132981 132984 132987 132990 132993 132996 132999 133002 133005 133008 133011 133014 133017 133020 133023 133026 133029 133032 133035 133038 133041 133044 133047 133050 133053 133056 133059 133062 133065 133068 133071 133074 133077 133080 133083 133086 133089 133092 133095 133098 133101 133104 133107 133110 133113 133116 133119 133122 133125 133128 133131 133134 133137 133140 133143 133146 133149 133152 133155 133158 133161 133164 133167 133170 133173 133176 133179 133182 133185 133188 133191 133194 133197 133200 133203 133206 133209 133212 133215 133218 133221 133224 133227 133230 133233 133236 133239 133242 133245 133248 133251 133254 133257 133260 133263 133266 133269 133272 133275 133278 133281 133284 133287 133290 133293 133296 133299 133302 133305 133308 133311 133314 133317 133320 133323 133326 133329 133332 133335 133338 133341 133344 133347 133350 133353 133356 133359 133362 133365 133368 133371 133374 133377 133380 133383 133386 133389 133392 133395 133398 133401 133404 133407 133410 133413 133416 133419 133422 133425 133428 133431 133434 133437 133440 133443 133446 133449 133452 133455 133458 133461 133464 133467 133470 133473 133476 133479 133482 133485 133488 133491 133494 133497 133500 133503 133506 133509 133512 133515 133518 133521 133524 133527 133530 133533 133536 133539 133542 133545 133548 133551 133554 133557 133560 133563 133566 133569 133572 133575 133578 133581 133584 133587 133590 133593 133596 133599 133602 133605 133608 133611 133614 133617 133620 133623 133626 133629 133632 133635 133638 133641 133644 133647 133650 133653 133656 133659 133662 133665 133668 133671 133674 133677 133680 133683 133686 133689 133692 133695 133698 133701 133704 133707 133710 133713 133716 133719 133722 133725 133728 133731 133734 133737 133740 133743 133746 133749 133752 133755 133758 133761 133764 133767 133770 133773 133776 133779 133782 133785 133788 133791 133794 133797 133800 133803 133806 133809 133812 133815 133818 133821 133824 133827 133830 133833 133836 133839 133842 133845 133848 133851 133854 133857 133860 133863 133866 133869 133872 133875 133878 133881 133884 133887 133890 133893 133896 133899 133902 133905 133908 133911 133914 133917 133920 133923 133926 133929 133932 133935 133938 133941 133944 133947 133950 133953 133956 133959 133962 133965 133968 133971 133974 133977 133980 133983 133986 133989 133992 133995 133998 134001 134004 134007 134010 134013 134016 134019 134022 134025 134028 134031 134034 134037 134040 134043 134046 134049 134052 134055 134058 134061 134064 134067 134070 134073 134076 134079 134082 134085 134088 134091 134094 134097 134100 134103 134106 134109 134112 134115 134118 134121 134124 134127 134130 134133 134136 134139 134142 134145 134148 134151 134154 134157 134160 134163 134166 134169 134172 134175 134178 134181 134184 134187 134190 134193 134196 134199 134202 134205 134208 134211 134214 134217 134220 134223 134226 134229 134232 134235 134238 134241 134244 134247 134250 134253 134256 134259 134262 134265 134268 134271 134274 134277 134280 134283 134286 134289 134292 134295 134298 134301 134304 134307 134310 134313 134316 134319 134322 134325 134328 134331 134334 134337 134340 134343 134346 134349 134352 134355 134358 134361 134364 134367 134370 134373 134376 134379 134382 134385 134388 134391 134394 134397 134400 134403 134406 134409 134412 134415 134418 134421 134424 134427 134430 134433 134436 134439 134442 134445 134448 134451 134454 134457 134460 134463 134466 134469 134472 134475 134478 134481 134484 134487 134490 134493 134496 134499 134502 134505 134508 134511 134514 134517 134520 134523 134526 134529 134532 134535 134538 134541 134544 134547 134550 134553 134556 134559 134562 134565 134568 134571 134574 134577 134580 134583 134586 134589 134592 134595 134598 134601 134604 134607 134610 134613 134616 134619 134622 134625 134628 134631 134634 134637 134640 134643 134646 134649 134652 134655 134658 134661 134664 134667 134670 134673 134676 134679 134682 134685 134688 134691 134694 134697 134700 134703 134706 134709 134712 134715 134718 134721 134724 134727 134730 134733 134736 134739 134742 134745 134748 134751 134754 134757 134760 134763 134766 134769 134772 134775 134778 134781 134784 134787 134790 134793 134796 134799 134802 134805 134808 134811 134814 134817 134820 134823 134826 134829 134832 134835 134838 134841 134844 134847 134850 134853 134856 134859 134862 134865 134868 134871 134874 134877 134880 134883 134886 134889 134892 134895 134898 134901 134904 134907 134910 134913 134916 134919 134922 134925 134928 134931 134934 134937 134940 134943 134946 134949 134952 134955 134958 134961 134964 134967 134970 134973 134976 134979 134982 134985 134988 134991 134994 134997 135000 135003 135006 135009 135012 135015 135018 135021 135024 135027 135030 135033 135036 135039 135042 135045 135048 135051 135054 135057 135060 135063 135066 135069 135072 135075 135078 135081 135084 135087 135090 135093 135096 135099 135102 135105 135108 135111 135114 135117 135120 135123 135126 135129 135132 135135 135138 135141 135144 135147 135150 135153 135156 135159 135162 135165 135168 135171 135174 135177 135180 135183 135186 135189 135192 135195 135198 135201 135204 135207 135210 135213 135216 135219 135222 135225 135228 135231 135234 135237 135240 135243 135246 135249 135252 135255 135258 135261 135264 135267 135270 135273 135276 135279 135282 135285 135288 135291 135294 135297 135300 135303 135306 135309 135312 135315 135318 135321 135324 135327 135330 135333 135336 135339 135342 135345 135348 135351 135354 135357 135360 135363 135366 135369 135372 135375 135378 135381 135384 135387 135390 135393 135396 135399 135402 135405 135408 135411 135414 135417 135420 135423 135426 135429 135432 135435 135438 135441 135444 135447 135450 135453 135456 135459 135462 135465 135468 135471 135474 135477 135480 135483 135486 135489 135492 135495 135498 135501 135504 135507 135510 135513 135516 135519 135522 135525 135528 135531 135534 135537 135540 135543 135546 135549 135552 135555 135558 135561 135564 135567 135570 135573 135576 135579 135582 135585 135588 135591 135594 135597 135600 135603 135606 135609 135612 135615 135618 135621 135624 135627 135630 135633 135636 135639 135642 135645 135648 135651 135654 135657 135660 135663 135666 135669 135672 135675 135678 135681 135684 135687 135690 135693 135696 135699 135702 135705 135708 135711 135714 135717 135720 135723 135726 135729 135732 135735 135738 135741 135744 135747 135750 135753 135756 135759 135762 135765 135768 135771 135774 135777 135780 135783 135786 135789 135792 135795 135798 135801 135804 135807 135810 135813 135816 135819 135822 135825 135828 135831 135834 135837 135840 135843 135846 135849 135852 135855 135858 135861 135864 135867 135870 135873 135876 135879 135882 135885 135888 135891 135894 135897 135900 135903 135906 135909 135912 135915 135918 135921 135924 135927 135930 135933 135936 135939 135942 135945 135948 135951 135954 135957 135960 135963 135966 135969 135972 135975 135978 135981 135984 135987 135990 135993 135996 135999 136002 136005 136008 136011 136014 136017 136020 136023 136026 136029 136032 136035 136038 136041 136044 136047 136050 136053 136056 136059 136062 136065 136068 136071 136074 136077 136080 136083 136086 136089 136092 136095 136098 136101 136104 136107 136110 136113 136116 136119 136122 136125 136128 136131 136134 136137 136140 136143 136146 136149 136152 136155 136158 136161 136164 136167 136170 136173 136176 136179 136182 136185 136188 136191 136194 136197 136200 136203 136206 136209 136212 136215 136218 136221 136224 136227 136230 136233 136236 136239 136242 136245 136248 136251 136254 136257 136260 136263 136266 136269 136272 136275 136278 136281 136284 136287 136290 136293 136296 136299 136302 136305 136308 136311 136314 136317 136320 136323 136326 136329 136332 136335 136338 136341 136344 136347 136350 136353 136356 136359 136362 136365 136368 136371 136374 136377 136380 136383 136386 136389 136392 136395 136398 136401 136404 136407 136410 136413 136416 136419 136422 136425 136428 136431 136434 136437 136440 136443 136446 136449 136452 136455 136458 136461 136464 136467 136470 136473 136476 136479 136482 136485 136488 136491 136494 136497 136500 136503 136506 136509 136512 136515 136518 136521 136524 136527 136530 136533 136536 136539 136542 136545 136548 136551 136554 136557 136560 136563 136566 136569 136572 136575 136578 136581 136584 136587 136590 136593 136596 136599 136602 136605 136608 136611 136614 136617 136620 136623 136626 136629 136632 136635 136638 136641 136644 136647 136650 136653 136656 136659 136662 136665 136668 136671 136674 136677 136680 136683 136686 136689 136692 136695 136698 136701 136704 136707 136710 136713 136716 136719 136722 136725 136728 136731 136734 136737 136740 136743 136746 136749 136752 136755 136758 136761 136764 136767 136770 136773 136776 136779 136782 136785 136788 136791 136794 136797 136800 136803 136806 136809 136812 136815 136818 136821 136824 136827 136830 136833 136836 136839 136842 136845 136848 136851 136854 136857 136860 136863 136866 136869 136872 136875 136878 136881 136884 136887 136890 136893 136896 136899 136902 136905 136908 136911 136914 136917 136920 136923 136926 136929 136932 136935 136938 136941 136944 136947 136950 136953 136956 136959 136962 136965 136968 136971 136974 136977 136980 136983 136986 136989 136992 136995 136998 137001 137004 137007 137010 137013 137016 137019 137022 137025 137028 137031 137034 137037 137040 137043 137046 137049 137052 137055 137058 137061 137064 137067 137070 137073 137076 137079 137082 137085 137088 137091 137094 137097 137100 137103 137106 137109 137112 137115 137118 137121 137124 137127 137130 137133 137136 137139 137142 137145 137148 137151 137154 137157 137160 137163 137166 137169 137172 137175 137178 137181 137184 137187 137190 137193 137196 137199 137202 137205 137208 137211 137214 137217 137220 137223 137226 137229 137232 137235 137238 137241 137244 137247 137250 137253 137256 137259 137262 137265 137268 137271 137274 137277 137280 137283 137286 137289 137292 137295 137298 137301 137304 137307 137310 137313 137316 137319 137322 137325 137328 137331 137334 137337 137340 137343 137346 137349 137352 137355 137358 137361 137364 137367 137370 137373 137376 137379 137382 137385 137388 137391 137394 137397 137400 137403 137406 137409 137412 137415 137418 137421 137424 137427 137430 137433 137436 137439 137442 137445 137448 137451 137454 137457 137460 137463 137466 137469 137472 137475 137478 137481 137484 137487 137490 137493 137496 137499 137502 137505 137508 137511 137514 137517 137520 137523 137526 137529 137532 137535 137538 137541 137544 137547 137550 137553 137556 137559 137562 137565 137568 137571 137574 137577 137580 137583 137586 137589 137592 137595 137598 137601 137604 137607 137610 137613 137616 137619 137622 137625 137628 137631 137634 137637 137640 137643 137646 137649 137652 137655 137658 137661 137664 137667 137670 137673 137676 137679 137682 137685 137688 137691 137694 137697 137700 137703 137706 137709 137712 137715 137718 137721 137724 137727 137730 137733 137736 137739 137742 137745 137748 137751 137754 137757 137760 137763 137766 137769 137772 137775 137778 137781 137784 137787 137790 137793 137796 137799 137802 137805 137808 137811 137814 137817 137820 137823 137826 137829 137832 137835 137838 137841 137844 137847 137850 137853 137856 137859 137862 137865 137868 137871 137874 137877 137880 137883 137886 137889 137892 137895 137898 137901 137904 137907 137910 137913 137916 137919 137922 137925 137928 137931 137934 137937 137940 137943 137946 137949 137952 137955 137958 137961 137964 137967 137970 137973 137976 137979 137982 137985 137988 137991 137994 137997 138000 138003 138006 138009 138012 138015 138018 138021 138024 138027 138030 138033 138036 138039 138042 138045 138048 138051 138054 138057 138060 138063 138066 138069 138072 138075 138078 138081 138084 138087 138090 138093 138096 138099 138102 138105 138108 138111 138114 138117 138120 138123 138126 138129 138132 138135 138138 138141 138144 138147 138150 138153 138156 138159 138162 138165 138168 138171 138174 138177 138180 138183 138186 138189 138192 138195 138198 138201 138204 138207 138210 138213 138216 138219 138222 138225 138228 138231 138234 138237 138240 138243 138246 138249 138252 138255 138258 138261 138264 138267 138270 138273 138276 138279 138282 138285 138288 138291 138294 138297 138300 138303 138306 138309 138312 138315 138318 138321 138324 138327 138330 138333 138336 138339 138342 138345 138348 138351 138354 138357 138360 138363 138366 138369 138372 138375 138378 138381 138384 138387 138390 138393 138396 138399 138402 138405 138408 138411 138414 138417 138420 138423 138426 138429 138432 138435 138438 138441 138444 138447 138450 138453 138456 138459 138462 138465 138468 138471 138474 138477 138480 138483 138486 138489 138492 138495 138498 138501 138504 138507 138510 138513 138516 138519 138522 138525 138528 138531 138534 138537 138540 138543 138546 138549 138552 138555 138558 138561 138564 138567 138570 138573 138576 138579 138582 138585 138588 138591 138594 138597 138600 138603 138606 138609 138612 138615 138618 138621 138624 138627 138630 138633 138636 138639 138642 138645 138648 138651 138654 138657 138660 138663 138666 138669 138672 138675 138678 138681 138684 138687 138690 138693 138696 138699 138702 138705 138708 138711 138714 138717 138720 138723 138726 138729 138732 138735 138738 138741 138744 138747 138750 138753 138756 138759 138762 138765 138768 138771 138774 138777 138780 138783 138786 138789 138792 138795 138798 138801 138804 138807 138810 138813 138816 138819 138822 138825 138828 138831 138834 138837 138840 138843 138846 138849 138852 138855 138858 138861 138864 138867 138870 138873 138876 138879 138882 138885 138888 138891 138894 138897 138900 138903 138906 138909 138912 138915 138918 138921 138924 138927 138930 138933 138936 138939 138942 138945 138948 138951 138954 138957 138960 138963 138966 138969 138972 138975 138978 138981 138984 138987 138990 138993 138996 138999 139002 139005 139008 139011 139014 139017 139020 139023 139026 139029 139032 139035 139038 139041 139044 139047 139050 139053 139056 139059 139062 139065 139068 139071 139074 139077 139080 139083 139086 139089 139092 139095 139098 139101 139104 139107 139110 139113 139116 139119 139122 139125 139128 139131 139134 139137 139140 139143 139146 139149 139152 139155 139158 139161 139164 139167 139170 139173 139176 139179 139182 139185 139188 139191 139194 139197 139200 139203 139206 139209 139212 139215 139218 139221 139224 139227 139230 139233 139236 139239 139242 139245 139248 139251 139254 139257 139260 139263 139266 139269 139272 139275 139278 139281 139284 139287 139290 139293 139296 139299 139302 139305 139308 139311 139314 139317 139320 139323 139326 139329 139332 139335 139338 139341 139344 139347 139350 139353 139356 139359 139362 139365 139368 139371 139374 139377 139380 139383 139386 139389 139392 139395 139398 139401 139404 139407 139410 139413 139416 139419 139422 139425 139428 139431 139434 139437 139440 139443 139446 139449 139452 139455 139458 139461 139464 139467 139470 139473 139476 139479 139482 139485 139488 139491 139494 139497 139500 139503 139506 139509 139512 139515 139518 139521 139524 139527 139530 139533 139536 139539 139542 139545 139548 139551 139554 139557 139560 139563 139566 139569 139572 139575 139578 139581 139584 139587 139590 139593 139596 139599 139602 139605 139608 139611 139614 139617 139620 139623 139626 139629 139632 139635 139638 139641 139644 139647 139650 139653 139656 139659 139662 139665 139668 139671 139674 139677 139680 139683 139686 139689 139692 139695 139698 139701 139704 139707 139710 139713 139716 139719 139722 139725 139728 139731 139734 139737 139740 139743 139746 139749 139752 139755 139758 139761 139764 139767 139770 139773 139776 139779 139782 139785 139788 139791 139794 139797 139800 139803 139806 139809 139812 139815 139818 139821 139824 139827 139830 139833 139836 139839 139842 139845 139848 139851 139854 139857 139860 139863 139866 139869 139872 139875 139878 139881 139884 139887 139890 139893 139896 139899 139902 139905 139908 139911 139914 139917 139920 139923 139926 139929 139932 139935 139938 139941 139944 139947 139950 139953 139956 139959 139962 139965 139968 139971 139974 139977 139980 139983 139986 139989 139992 139995 139998 140001 140004 140007 140010 140013 140016 140019 140022 140025 140028 140031 140034 140037 140040 140043 140046 140049 140052 140055 140058 140061 140064 140067 140070 140073 140076 140079 140082 140085 140088 140091 140094 140097 140100 140103 140106 140109 140112 140115 140118 140121 140124 140127 140130 140133 140136 140139 140142 140145 140148 140151 140154 140157 140160 140163 140166 140169 140172 140175 140178 140181 140184 140187 140190 140193 140196 140199 140202 140205 140208 140211 140214 140217 140220 140223 140226 140229 140232 140235 140238 140241 140244 140247 140250 140253 140256 140259 140262 140265 140268 140271 140274 140277 140280 140283 140286 140289 140292 140295 140298 140301 140304 140307 140310 140313 140316 140319 140322 140325 140328 140331 140334 140337 140340 140343 140346 140349 140352 140355 140358 140361 140364 140367 140370 140373 140376 140379 140382 140385 140388 140391 140394 140397 140400 140403 140406 140409 140412 140415 140418 140421 140424 140427 140430 140433 140436 140439 140442 140445 140448 140451 140454 140457 140460 140463 140466 140469 140472 140475 140478 140481 140484 140487 140490 140493 140496 140499 140502 140505 140508 140511 140514 140517 140520 140523 140526 140529 140532 140535 140538 140541 140544 140547 140550 140553 140556 140559 140562 140565 140568 140571 140574 140577 140580 140583 140586 140589 140592 140595 140598 140601 140604 140607 140610 140613 140616 140619 140622 140625 140628 140631 140634 140637 140640 140643 140646 140649 140652 140655 140658 140661 140664 140667 140670 140673 140676 140679 140682 140685 140688 140691 140694 140697 140700 140703 140706 140709 140712 140715 140718 140721 140724 140727 140730 140733 140736 140739 140742 140745 140748 140751 140754 140757 140760 140763 140766 140769 140772 140775 140778 140781 140784 140787 140790 140793 140796 140799 140802 140805 140808 140811 140814 140817 140820 140823 140826 140829 140832 140835 140838 140841 140844 140847 140850 140853 140856 140859 140862 140865 140868 140871 140874 140877 140880 140883 140886 140889 140892 140895 140898 140901 140904 140907 140910 140913 140916 140919 140922 140925 140928 140931 140934 140937 140940 140943 140946 140949 140952 140955 140958 140961 140964 140967 140970 140973 140976 140979 140982 140985 140988 140991 140994 140997 141000 141003 141006 141009 141012 141015 141018 141021 141024 141027 141030 141033 141036 141039 141042 141045 141048 141051 141054 141057 141060 141063 141066 141069 141072 141075 141078 141081 141084 141087 141090 141093 141096 141099 141102 141105 141108 141111 141114 141117 141120 141123 141126 141129 141132 141135 141138 141141 141144 141147 141150 141153 141156 141159 141162 141165 141168 141171 141174 141177 141180 141183 141186 141189 141192 141195 141198 141201 141204 141207 141210 141213 141216 141219 141222 141225 141228 141231 141234 141237 141240 141243 141246 141249 141252 141255 141258 141261 141264 141267 141270 141273 141276 141279 141282 141285 141288 141291 141294 141297 141300 141303 141306 141309 141312 141315 141318 141321 141324 141327 141330 141333 141336 141339 141342 141345 141348 141351 141354 141357 141360 141363 141366 141369 141372 141375 141378 141381 141384 141387 141390 141393 141396 141399 141402 141405 141408 141411 141414 141417 141420 141423 141426 141429 141432 141435 141438 141441 141444 141447 141450 141453 141456 141459 141462 141465 141468 141471 141474 141477 141480 141483 141486 141489 141492 141495 141498 141501 141504 141507 141510 141513 141516 141519 141522 141525 141528 141531 141534 141537 141540 141543 141546 141549 141552 141555 141558 141561 141564 141567 141570 141573 141576 141579 141582 141585 141588 141591 141594 141597 141600 141603 141606 141609 141612 141615 141618 141621 141624 141627 141630 141633 141636 141639 141642 141645 141648 141651 141654 141657 141660 141663 141666 141669 141672 141675 141678 141681 141684 141687 141690 141693 141696 141699 141702 141705 141708 141711 141714 141717 141720 141723 141726 141729 141732 141735 141738 141741 141744 141747 141750 141753 141756 141759 141762 141765 141768 141771 141774 141777 141780 141783 141786 141789 141792 141795 141798 141801 141804 141807 141810 141813 141816 141819 141822 141825 141828 141831 141834 141837 141840 141843 141846 141849 141852 141855 141858 141861 141864 141867 141870 141873 141876 141879 141882 141885 141888 141891 141894 141897 141900 141903 141906 141909 141912 141915 141918 141921 141924 141927 141930 141933 141936 141939 141942 141945 141948 141951 141954 141957 141960 141963 141966 141969 141972 141975 141978 141981 141984 141987 141990 141993 141996 141999 142002 142005 142008 142011 142014 142017 142020 142023 142026 142029 142032 142035 142038 142041 142044 142047 142050 142053 142056 142059 142062 142065 142068 142071 142074 142077 142080 142083 142086 142089 142092 142095 142098 142101 142104 142107 142110 142113 142116 142119 142122 142125 142128 142131 142134 142137 142140 142143 142146 142149 142152 142155 142158 142161 142164 142167 142170 142173 142176 142179 142182 142185 142188 142191 142194 142197 142200 142203 142206 142209 142212 142215 142218 142221 142224 142227 142230 142233 142236 142239 142242 142245 142248 142251 142254 142257 142260 142263 142266 142269 142272 142275 142278 142281 142284 142287 142290 142293 142296 142299 142302 142305 142308 142311 142314 142317 142320 142323 142326 142329 142332 142335 142338 142341 142344 142347 142350 142353 142356 142359 142362 142365 142368 142371 142374 142377 142380 142383 142386 142389 142392 142395 142398 142401 142404 142407 142410 142413 142416 142419 142422 142425 142428 142431 142434 142437 142440 142443 142446 142449 142452 142455 142458 142461 142464 142467 142470 142473 142476 142479 142482 142485 142488 142491 142494 142497 142500 142503 142506 142509 142512 142515 142518 142521 142524 142527 142530 142533 142536 142539 142542 142545 142548 142551 142554 142557 142560 142563 142566 142569 142572 142575 142578 142581 142584 142587 142590 142593 142596 142599 142602 142605 142608 142611 142614 142617 142620 142623 142626 142629 142632 142635 142638 142641 142644 142647 142650 142653 142656 142659 142662 142665 142668 142671 142674 142677 142680 142683 142686 142689 142692 142695 142698 142701 142704 142707 142710 142713 142716 142719 142722 142725 142728 142731 142734 142737 142740 142743 142746 142749 142752 142755 142758 142761 142764 142767 142770 142773 142776 142779 142782 142785 142788 142791 142794 142797 142800 142803 142806 142809 142812 142815 142818 142821 142824 142827 142830 142833 142836 142839 142842 142845 142848 142851 142854 142857 142860 142863 142866 142869 142872 142875 142878 142881 142884 142887 142890 142893 142896 142899 142902 142905 142908 142911 142914 142917 142920 142923 142926 142929 142932 142935 142938 142941 142944 142947 142950 142953 142956 142959 142962 142965 142968 142971 142974 142977 142980 142983 142986 142989 142992 142995 142998 143001 143004 143007 143010 143013 143016 143019 143022 143025 143028 143031 143034 143037 143040 143043 143046 143049 143052 143055 143058 143061 143064 143067 143070 143073 143076 143079 143082 143085 143088 143091 143094 143097 143100 143103 143106 143109 143112 143115 143118 143121 143124 143127 143130 143133 143136 143139 143142 143145 143148 143151 143154 143157 143160 143163 143166 143169 143172 143175 143178 143181 143184 143187 143190 143193 143196 143199 143202 143205 143208 143211 143214 143217 143220 143223 143226 143229 143232 143235 143238 143241 143244 143247 143250 143253 143256 143259 143262 143265 143268 143271 143274 143277 143280 143283 143286 143289 143292 143295 143298 143301 143304 143307 143310 143313 143316 143319 143322 143325 143328 143331 143334 143337 143340 143343 143346 143349 143352 143355 143358 143361 143364 143367 143370 143373 143376 143379 143382 143385 143388 143391 143394 143397 143400 143403 143406 143409 143412 143415 143418 143421 143424 143427 143430 143433 143436 143439 143442 143445 143448 143451 143454 143457 143460 143463 143466 143469 143472 143475 143478 143481 143484 143487 143490 143493 143496 143499 143502 143505 143508 143511 143514 143517 143520 143523 143526 143529 143532 143535 143538 143541 143544 143547 143550 143553 143556 143559 143562 143565 143568 143571 143574 143577 143580 143583 143586 143589 143592 143595 143598 143601 143604 143607 143610 143613 143616 143619 143622 143625 143628 143631 143634 143637 143640 143643 143646 143649 143652 143655 143658 143661 143664 143667 143670 143673 143676 143679 143682 143685 143688 143691 143694 143697 143700 143703 143706 143709 143712 143715 143718 143721 143724 143727 143730 143733 143736 143739 143742 143745 143748 143751 143754 143757 143760 143763 143766 143769 143772 143775 143778 143781 143784 143787 143790 143793 143796 143799 143802 143805 143808 143811 143814 143817 143820 143823 143826 143829 143832 143835 143838 143841 143844 143847 143850 143853 143856 143859 143862 143865 143868 143871 143874 143877 143880 143883 143886 143889 143892 143895 143898 143901 143904 143907 143910 143913 143916 143919 143922 143925 143928 143931 143934 143937 143940 143943 143946 143949 143952 143955 143958 143961 143964 143967 143970 143973 143976 143979 143982 143985 143988 143991 143994 143997 144000 144003 144006 144009 144012 144015 144018 144021 144024 144027 144030 144033 144036 144039 144042 144045 144048 144051 144054 144057 144060 144063 144066 144069 144072 144075 144078 144081 144084 144087 144090 144093 144096 144099 144102 144105 144108 144111 144114 144117 144120 144123 144126 144129 144132 144135 144138 144141 144144 144147 144150 144153 144156 144159 144162 144165 144168 144171 144174 144177 144180 144183 144186 144189 144192 144195 144198 144201 144204 144207 144210 144213 144216 144219 144222 144225 144228 144231 144234 144237 144240 144243 144246 144249 144252 144255 144258 144261 144264 144267 144270 144273 144276 144279 144282 144285 144288 144291 144294 144297 144300 144303 144306 144309 144312 144315 144318 144321 144324 144327 144330 144333 144336 144339 144342 144345 144348 144351 144354 144357 144360 144363 144366 144369 144372 144375 144378 144381 144384 144387 144390 144393 144396 144399 144402 144405 144408 144411 144414 144417 144420 144423 144426 144429 144432 144435 144438 144441 144444 144447 144450 144453 144456 144459 144462 144465 144468 144471 144474 144477 144480 144483 144486 144489 144492 144495 144498 144501 144504 144507 144510 144513 144516 144519 144522 144525 144528 144531 144534 144537 144540 144543 144546 144549 144552 144555 144558 144561 144564 144567 144570 144573 144576 144579 144582 144585 144588 144591 144594 144597 144600 144603 144606 144609 144612 144615 144618 144621 144624 144627 144630 144633 144636 144639 144642 144645 144648 144651 144654 144657 144660 144663 144666 144669 144672 144675 144678 144681 144684 144687 144690 144693 144696 144699 144702 144705 144708 144711 144714 144717 144720 144723 144726 144729 144732 144735 144738 144741 144744 144747 144750 144753 144756 144759 144762 144765 144768 144771 144774 144777 144780 144783 144786 144789 144792 144795 144798 144801 144804 144807 144810 144813 144816 144819 144822 144825 144828 144831 144834 144837 144840 144843 144846 144849 144852 144855 144858 144861 144864 144867 144870 144873 144876 144879 144882 144885 144888 144891 144894 144897 144900 144903 144906 144909 144912 144915 144918 144921 144924 144927 144930 144933 144936 144939 144942 144945 144948 144951 144954 144957 144960 144963 144966 144969 144972 144975 144978 144981 144984 144987 144990 144993 144996 144999 145002 145005 145008 145011 145014 145017 145020 145023 145026 145029 145032 145035 145038 145041 145044 145047 145050 145053 145056 145059 145062 145065 145068 145071 145074 145077 145080 145083 145086 145089 145092 145095 145098 145101 145104 145107 145110 145113 145116 145119 145122 145125 145128 145131 145134 145137 145140 145143 145146 145149 145152 145155 145158 145161 145164 145167 145170 145173 145176 145179 145182 145185 145188 145191 145194 145197 145200 145203 145206 145209 145212 145215 145218 145221 145224 145227 145230 145233 145236 145239 145242 145245 145248 145251 145254 145257 145260 145263 145266 145269 145272 145275 145278 145281 145284 145287 145290 145293 145296 145299 145302 145305 145308 145311 145314 145317 145320 145323 145326 145329 145332 145335 145338 145341 145344 145347 145350 145353 145356 145359 145362 145365 145368 145371 145374 145377 145380 145383 145386 145389 145392 145395 145398 145401 145404 145407 145410 145413 145416 145419 145422 145425 145428 145431 145434 145437 145440 145443 145446 145449 145452 145455 145458 145461 145464 145467 145470 145473 145476 145479 145482 145485 145488 145491 145494 145497 145500 145503 145506 145509 145512 145515 145518 145521 145524 145527 145530 145533 145536 145539 145542 145545 145548 145551 145554 145557 145560 145563 145566 145569 145572 145575 145578 145581 145584 145587 145590 145593 145596 145599 145602 145605 145608 145611 145614 145617 145620 145623 145626 145629 145632 145635 145638 145641 145644 145647 145650 145653 145656 145659 145662 145665 145668 145671 145674 145677 145680 145683 145686 145689 145692 145695 145698 145701 145704 145707 145710 145713 145716 145719 145722 145725 145728 145731 145734 145737 145740 145743 145746 145749 145752 145755 145758 145761 145764 145767 145770 145773 145776 145779 145782 145785 145788 145791 145794 145797 145800 145803 145806 145809 145812 145815 145818 145821 145824 145827 145830 145833 145836 145839 145842 145845 145848 145851 145854 145857 145860 145863 145866 145869 145872 145875 145878 145881 145884 145887 145890 145893 145896 145899 145902 145905 145908 145911 145914 145917 145920 145923 145926 145929 145932 145935 145938 145941 145944 145947 145950 145953 145956 145959 145962 145965 145968 145971 145974 145977 145980 145983 145986 145989 145992 145995 145998 146001 146004 146007 146010 146013 146016 146019 146022 146025 146028 146031 146034 146037 146040 146043 146046 146049 146052 146055 146058 146061 146064 146067 146070 146073 146076 146079 146082 146085 146088 146091 146094 146097 146100 146103 146106 146109 146112 146115 146118 146121 146124 146127 146130 146133 146136 146139 146142 146145 146148 146151 146154 146157 146160 146163 146166 146169 146172 146175 146178 146181 146184 146187 146190 146193 146196 146199 146202 146205 146208 146211 146214 146217 146220 146223 146226 146229 146232 146235 146238 146241 146244 146247 146250 146253 146256 146259 146262 146265 146268 146271 146274 146277 146280 146283 146286 146289 146292 146295 146298 146301 146304 146307 146310 146313 146316 146319 146322 146325 146328 146331 146334 146337 146340 146343 146346 146349 146352 146355 146358 146361 146364 146367 146370 146373 146376 146379 146382 146385 146388 146391 146394 146397 146400 146403 146406 146409 146412 146415 146418 146421 146424 146427 146430 146433 146436 146439 146442 146445 146448 146451 146454 146457 146460 146463 146466 146469 146472 146475 146478 146481 146484 146487 146490 146493 146496 146499 146502 146505 146508 146511 146514 146517 146520 146523 146526 146529 146532 146535 146538 146541 146544 146547 146550 146553 146556 146559 146562 146565 146568 146571 146574 146577 146580 146583 146586 146589 146592 146595 146598 146601 146604 146607 146610 146613 146616 146619 146622 146625 146628 146631 146634 146637 146640 146643 146646 146649 146652 146655 146658 146661 146664 146667 146670 146673 146676 146679 146682 146685 146688 146691 146694 146697 146700 146703 146706 146709 146712 146715 146718 146721 146724 146727 146730 146733 146736 146739 146742 146745 146748 146751 146754 146757 146760 146763 146766 146769 146772 146775 146778 146781 146784 146787 146790 146793 146796 146799 146802 146805 146808 146811 146814 146817 146820 146823 146826 146829 146832 146835 146838 146841 146844 146847 146850 146853 146856 146859 146862 146865 146868 146871 146874 146877 146880 146883 146886 146889 146892 146895 146898 146901 146904 146907 146910 146913 146916 146919 146922 146925 146928 146931 146934 146937 146940 146943 146946 146949 146952 146955 146958 146961 146964 146967 146970 146973 146976 146979 146982 146985 146988 146991 146994 146997 147000 147003 147006 147009 147012 147015 147018 147021 147024 147027 147030 147033 147036 147039 147042 147045 147048 147051 147054 147057 147060 147063 147066 147069 147072 147075 147078 147081 147084 147087 147090 147093 147096 147099 147102 147105 147108 147111 147114 147117 147120 147123 147126 147129 147132 147135 147138 147141 147144 147147 147150 147153 147156 147159 147162 147165 147168 147171 147174 147177 147180 147183 147186 147189 147192 147195 147198 147201 147204 147207 147210 147213 147216 147219 147222 147225 147228 147231 147234 147237 147240 147243 147246 147249 147252 147255 147258 147261 147264 147267 147270 147273 147276 147279 147282 147285 147288 147291 147294 147297 147300 147303 147306 147309 147312 147315 147318 147321 147324 147327 147330 147333 147336 147339 147342 147345 147348 147351 147354 147357 147360 147363 147366 147369 147372 147375 147378 147381 147384 147387 147390 147393 147396 147399 147402 147405 147408 147411 147414 147417 147420 147423 147426 147429 147432 147435 147438 147441 147444 147447 147450 147453 147456 147459 147462 147465 147468 147471 147474 147477 147480 147483 147486 147489 147492 147495 147498 147501 147504 147507 147510 147513 147516 147519 147522 147525 147528 147531 147534 147537 147540 147543 147546 147549 147552 147555 147558 147561 147564 147567 147570 147573 147576 147579 147582 147585 147588 147591 147594 147597 147600 147603 147606 147609 147612 147615 147618 147621 147624 147627 147630 147633 147636 </DataArray>
<DataArray  type="UInt8"  Name="types"  format="ascii">5 5 5 5 5 5 5 5 5 5 5 5 5 5 5 5 5 5 5 5 5 5 5 5 5 5 5 5 5 5 5 5 5 5 5 5 5 5 5 5 5 5 5 5 5 5 5 5 5 5 5 5 5 5 5 5 5 5 5 5 5 5 5 5 5 5 5 5 5 5 5 5 5 5 5 5 5 5 5 5 5 5 5 5 5 5 5 5 5 5 5 5 5 5 5 5 5 5 5 5 5 5 5 5 5 5 5 5 5 5 5 5 5 5 5 5 5 5 5 5 5 5 5 5 5 5 5 5 5 5 5 5 5 5 5 5 5 5 5 5 5 5 5 5 5 5 5 5 5 5 5 5 5 5 5 5 5 5 5 5 5 5 5 5 5 5 5 5 5 5 5 5 5 5 5 5 5 5 5 5 5 5 5 5 5 5 5 5 5 5 5 5 5 5 5 5 5 5 5 5 5 5 5 5 5 5 5 5 5 5 5 5 5 5 5 5 5 5 5 5 5 5 5 5 5 5 5 5 5 5 5 5 5 5 5 5 5 5 5 5 5 5 5 5 5 5 5 5 5 5 5 5 5 5 5 5 5 5 5 5 5 5 5 5 5 5 5 5 5 5 5 5 5 5 5 5 5 5 5 5 5 5 5 5 5 5 5 5 5 5 5 5 5 5 5 5 5 5 5 5 5 5 5 5 5 5 5 5 5 5 5 5 5 5 5 5 5 5 5 5 5 5 5 5 5 5 5 5 5 5 5 5 5 5 5 5 5 5 5 5 5 5 5 5 5 5 5 5 5 5 5 5 5 5 5 5 5 5 5 5 5 5 5 5 5 5 5 5 5 5 5 5 5 5 5 5 5 5 5 5 5 5 5 5 5 5 5 5 5 5 5 5 5 5 5 5 5 5 5 5 5 5 5 5 5 5 5 5 5 5 5 5 5 5 5 5 5 5 5 5 5 5 5 5 5 5 5 5 5 5 5 5 5 5 5 5 5 5 5 5 5 5 5 5 5 5 5 5 5 5 5 5 5 5 5 5 5 5 5 5 5 5 5 5 5 5 5 5 5 5 5 5 5 5 5 5 5 5 5 5 5 5 5 5 5 5 5 5 5 5 5 5 5 5 5 5 5 5 5 5 5 5 5 5 5 5 5 5 5 5 5 5 5 5 5 5 5 5 5 5 5 5 5 5 5 5 5 5 5 5 5 5 5 5 5 5 5 5 5 5 5 5 5 5 5 5 5 5 5 5 5 5 5 5 5 5 5 5 5 5 5 5 5 5 5 5 5 5 5 5 5 5 5 5 5 5 5 5 5 5 5 5 5 5 5 5 5 5 5 5 5 5 5 5 5 5 5 5 5 5 5 5 5 5 5 5 5 5 5 5 5 5 5 5 5 5 5 5 5 5 5 5 5 5 5 5 5 5 5 5 5 5 5 5 5 5 5 5 5 5 5 5 5 5 5 5 5 5 5 5 5 5 5 5 5 5 5 5 5 5 5 5 5 5 5 5 5 5 5 5 5 5 5 5 5 5 5 5 5 5 5 5 5 5 5 5 5 5 5 5 5 5 5 5 5 5 5 5 5 5 5 5 5 5 5 5 5 5 5 5 5 5 5 5 5 5 5 5 5 5 5 5 5 5 5 5 5 5 5 5 5 5 5 5 5 5 5 5 5 5 5 5 5 5 5 5 5 5 5 5 5 5 5 5 5 5 5 5 5 5 5 5 5 5 5 5 5 5 5 5 5 5 5 5 5 5 5 5 5 5 5 5 5 5 5 5 5 5 5 5 5 5 5 5 5 5 5 5 5 5 5 5 5 5 5 5 5 5 5 5 5 5 5 5 5 5 5 5 5 5 5 5 5 5 5 5 5 5 5 5 5 5 5 5 5 5 5 5 5 5 5 5 5 5 5 5 5 5 5 5 5 5 5 5 5 5 5 5 5 5 5 5 5 5 5 5 5 5 5 5 5 5 5 5 5 5 5 5 5 5 5 5 5 5 5 5 5 5 5 5 5 5 5 5 5 5 5 5 5 5 5 5 5 5 5 5 5 5 5 5 5 5 5 5 5 5 5 5 5 5 5 5 5 5 5 5 5 5 5 5 5 5 5 5 5 5 5 5 5 5 5 5 5 5 5 5 5 5 5 5 5 5 5 5 5 5 5 5 5 5 5 5 5 5 5 5 5 5 5 5 5 5 5 5 5 5 5 5 5 5 5 5 5 5 5 5 5 5 5 5 5 5 5 5 5 5 5 5 5 5 5 5 5 5 5 5 5 5 5 5 5 5 5 5 5 5 5 5 5 5 5 5 5 5 5 5 5 5 5 5 5 5 5 5 5 5 5 5 5 5 5 5 5 5 5 5 5 5 5 5 5 5 5 5 5 5 5 5 5 5 5 5 5 5 5 5 5 5 5 5 5 5 5 5 5 5 5 5 5 5 5 5 5 5 5 5 5 5 5 5 5 5 5 5 5 5 5 5 5 5 5 5 5 5 5 5 5 5 5 5 5 5 5 5 5 5 5 5 5 5 5 5 5 5 5 5 5 5 5 5 5 5 5 5 5 5 5 5 5 5 5 5 5 5 5 5 5 5 5 5 5 5 5 5 5 5 5 5 5 5 5 5 5 5 5 5 5 5 5 5 5 5 5 5 5 5 5 5 5 5 5 5 5 5 5 5 5 5 5 5 5 5 5 5 5 5 5 5 5 5 5 5 5 5 5 5 5 5 5 5 5 5 5 5 5 5 5 5 5 5 5 5 5 5 5 5 5 5 5 5 5 5 5 5 5 5 5 5 5 5 5 5 5 5 5 5 5 5 5 5 5 5 5 5 5 5 5 5 5 5 5 5 5 5 5 5 5 5 5 5 5 5 5 5 5 5 5 5 5 5 5 5 5 5 5 5 5 5 5 5 5 5 5 5 5 5 5 5 5 5 5 5 5 5 5 5 5 5 5 5 5 5 5 5 5 5 5 5 5 5 5 5 5 5 5 5 5 5 5 5 5 5 5 5 5 5 5 5 5 5 5 5 5 5 5 5 5 5 5 5 5 5 5 5 5 5 5 5 5 5 5 5 5 5 5 5 5 5 5 5 5 5 5 5 5 5 5 5 5 5 5 5 5 5 5 5 5 5 5 5 5 5 5 5 5 5 5 5 5 5 5 5 5 5 5 5 5 5 5 5 5 5 5 5 5 5 5 5 5 5 5 5 5 5 5 5 5 5 5 5 5 5 5 5 5 5 5 5 5 5 5 5 5 5 5 5 5 5 5 5 5 5 5 5 5 5 5 5 5 5 5 5 5 5 5 5 5 5 5 5 5 5 5 5 5 5 5 5 5 5 5 5 5 5 5 5 5 5 5 5 5 5 5 5 5 5 5 5 5 5 5 5 5 5 5 5 5 5 5 5 5 5 5 5 5 5 5 5 5 5 5 5 5 5 5 5 5 5 5 5 5 5 5 5 5 5 5 5 5 5 5 5 5 5 5 5 5 5 5 5 5 5 5 5 5 5 5 5 5 5 5 5 5 5 5 5 5 5 5 5 5 5 5 5 5 5 5 5 5 5 5 5 5 5 5 5 5 5 5 5 5 5 5 5 5 5 5 5 5 5 5 5 5 5 5 5 5 5 5 5 5 5 5 5 5 5 5 5 5 5 5 5 5 5 5 5 5 5 5 5 5 5 5 5 5 5 5 5 5 5 5 5 5 5 5 5 5 5 5 5 5 5 5 5 5 5 5 5 5 5 5 5 5 5 5 5 5 5 5 5 5 5 5 5 5 5 5 5 5 5 5 5 5 5 5 5 5 5 5 5 5 5 5 5 5 5 5 5 5 5 5 5 5 5 5 5 5 5 5 5 5 5 5 5 5 5 5 5 5 5 5 5 5 5 5 5 5 5 5 5 5 5 5 5 5 5 5 5 5 5 5 5 5 5 5 5 5 5 5 5 5 5 5 5 5 5 5 5 5 5 5 5 5 5 5 5 5 5 5 5 5 5 5 5 5 5 5 5 5 5 5 5 5 5 5 5 5 5 5 5 5 5 5 5 5 5 5 5 5 5 5 5 5 5 5 5 5 5 5 5 5 5 5 5 5 5 5 5 5 5 5 5 5 5 5 5 5 5 5 5 5 5 5 5 5 5 5 5 5 5 5 5 5 5 5 5 5 5 5 5 5 5 5 5 5 5 5 5 5 5 5 5 5 5 5 5 5 5 5 5 5 5 5 5 5 5 5 5 5 5 5 5 5 5 5 5 5 5 5 5 5 5 5 5 5 5 5 5 5 5 5 5 5 5 5 5 5 5 5 5 5 5 5 5 5 5 5 5 5 5 5 5 5 5 5 5 5 5 5 5 5 5 5 5 5 5 5 5 5 5 5 5 5 5 5 5 5 5 5 5 5 5 5 5 5 5 5 5 5 5 5 5 5 5 5 5 5 5 5 5 5 5 5 5 5 5 5 5 5 5 5 5 5 5 5 5 5 5 5 5 5 5 5 5 5 5 5 5 5 5 5 5 5 5 5 5 5 5 5 5 5 5 5 5 5 5 5 5 5 5 5 5 5 5 5 5 5 5 5 5 5 5 5 5 5 5 5 5 5 5 5 5 5 5 5 5 5 5 5 5 5 5 5 5 5 5 5 5 5 5 5 5 5 5 5 5 5 5 5 5 5 5 5 5 5 5 5 5 5 5 5 5 5 5 5 5 5 5 5 5 5 5 5 5 5 5 5 5 5 5 5 5 5 5 5 5 5 5 5 5 5 5 5 5 5 5 5 5 5 5 5 5 5 5 5 5 5 5 5 5 5 5 5 5 5 5 5 5 5 5 5 5 5 5 5 5 5 5 5 5 5 5 5 5 5 5 5 5 5 5 5 5 5 5 5 5 5 5 5 5 5 5 5 5 5 5 5 5 5 5 5 5 5 5 5 5 5 5 5 5 5 5 5 5 5 5 5 5 5 5 5 5 5 5 5 5 5 5 5 5 5 5 5 5 5 5 5 5 5 5 5 5 5 5 5 5 5 5 5 5 5 5 5 5 5 5 5 5 5 5 5 5 5 5 5 5 5 5 5 5 5 5 5 5 5 5 5 5 5 5 5 5 5 5 5 5 5 5 5 5 5 5 5 5 5 5 5 5 5 5 5 5 5 5 5 5 5 5 5 5 5 5 5 5 5 5 5 5 5 5 5 5 5 5 5 5 5 5 5 5 5 5 5 5 5 5 5 5 5 5 5 5 5 5 5 5 5 5 5 5 5 5 5 5 5 5 5 5 5 5 5 5 5 5 5 5 5 5 5 5 5 5 5 5 5 5 5 5 5 5 5 5 5 5 5 5 5 5 5 5 5 5 5 5 5 5 5 5 5 5 5 5 5 5 5 5 5 5 5 5 5 5 5 5 5 5 5 5 5 5 5 5 5 5 5 5 5 5 5 5 5 5 5 5 5 5 5 5 5 5 5 5 5 5 5 5 5 5 5 5 5 5 5 5 5 5 5 5 5 5 5 5 5 5 5 5 5 5 5 5 5 5 5 5 5 5 5 5 5 5 5 5 5 5 5 5 5 5 5 5 5 5 5 5 5 5 5 5 5 5 5 5 5 5 5 5 5 5 5 5 5 5 5 5 5 5 5 5 5 5 5 5 5 5 5 5 5 5 5 5 5 5 5 5 5 5 5 5 5 5 5 5 5 5 5 5 5 5 5 5 5 5 5 5 5 5 5 5 5 5 5 5 5 5 5 5 5 5 5 5 5 5 5 5 5 5 5 5 5 5 5 5 5 5 5 5 5 5 5 5 5 5 5 5 5 5 5 5 5 5 5 5 5 5 5 5 5 5 5 5 5 5 5 5 5 5 5 5 5 5 5 5 5 5 5 5 5 5 5 5 5 5 5 5 5 5 5 5 5 5 5 5 5 5 5 5 5 5 5 5 5 5 5 5 5 5 5 5 5 5 5 5 5 5 5 5 5 5 5 5 5 5 5 5 5 5 5 5 5 5 5 5 5 5 5 5 5 5 5 5 5 5 5 5 5 5 5 5 5 5 5 5 5 5 5 5 5 5 5 5 5 5 5 5 5 5 5 5 5 5 5 5 5 5 5 5 5 5 5 5 5 5 5 5 5 5 5 5 5 5 5 5 5 5 5 5 5 5 5 5 5 5 5 5 5 5 5 5 5 5 5 5 5 5 5 5 5 5 5 5 5 5 5 5 5 5 5 5 5 5 5 5 5 5 5 5 5 5 5 5 5 5 5 5 5 5 5 5 5 5 5 5 5 5 5 5 5 5 5 5 5 5 5 5 5 5 5 5 5 5 5 5 5 5 5 5 5 5 5 5 5 5 5 5 5 5 5 5 5 5 5 5 5 5 5 5 5 5 5 5 5 5 5 5 5 5 5 5 5 5 5 5 5 5 5 5 5 5 5 5 5 5 5 5 5 5 5 5 5 5 5 5 5 5 5 5 5 5 5 5 5 5 5 5 5 5 5 5 5 5 5 5 5 5 5 5 5 5 5 5 5 5 5 5 5 5 5 5 5 5 5 5 5 5 5 5 5 5 5 5 5 5 5 5 5 5 5 5 5 5 5 5 5 5 5 5 5 5 5 5 5 5 5 5 5 5 5 5 5 5 5 5 5 5 5 5 5 5 5 5 5 5 5 5 5 5 5 5 5 5 5 5 5 5 5 5 5 5 5 5 5 5 5 5 5 5 5 5 5 5 5 5 5 5 5 5 5 5 5 5 5 5 5 5 5 5 5 5 5 5 5 5 5 5 5 5 5 5 5 5 5 5 5 5 5 5 5 5 5 5 5 5 5 5 5 5 5 5 5 5 5 5 5 5 5 5 5 5 5 5 5 5 5 5 5 5 5 5 5 5 5 5 5 5 5 5 5 5 5 5 5 5 5 5 5 5 5 5 5 5 5 5 5 5 5 5 5 5 5 5 5 5 5 5 5 5 5 5 5 5 5 5 5 5 5 5 5 5 5 5 5 5 5 5 5 5 5 5 5 5 5 5 5 5 5 5 5 5 5 5 5 5 5 5 5 5 5 5 5 5 5 5 5 5 5 5 5 5 5 5 5 5 5 5 5 5 5 5 5 5 5 5 5 5 5 5 5 5 5 5 5 5 5 5 5 5 5 5 5 5 5 5 5 5 5 5 5 5 5 5 5 5 5 5 5 5 5 5 5 5 5 5 5 5 5 5 5 5 5 5 5 5 5 5 5 5 5 5 5 5 5 5 5 5 5 5 5 5 5 5 5 5 5 5 5 5 5 5 5 5 5 5 5 5 5 5 5 5 5 5 5 5 5 5 5 5 5 5 5 5 5 5 5 5 5 5 5 5 5 5 5 5 5 5 5 5 5 5 5 5 5 5 5 5 5 5 5 5 5 5 5 5 5 5 5 5 5 5 5 5 5 5 5 5 5 5 5 5 5 5 5 5 5 5 5 5 5 5 5 5 5 5 5 5 5 5 5 5 5 5 5 5 5 5 5 5 5 5 5 5 5 5 5 5 5 5 5 5 5 5 5 5 5 5 5 5 5 5 5 5 5 5 5 5 5 5 5 5 5 5 5 5 5 5 5 5 5 5 5 5 5 5 5 5 5 5 5 5 5 5 5 5 5 5 5 5 5 5 5 5 5 5 5 5 5 5 5 5 5 5 5 5 5 5 5 5 5 5 5 5 5 5 5 5 5 5 5 5 5 5 5 5 5 5 5 5 5 5 5 5 5 5 5 5 5 5 5 5 5 5 5 5 5 5 5 5 5 5 5 5 5 5 5 5 5 5 5 5 5 5 5 5 5 5 5 5 5 5 5 5 5 5 5 5 5 5 5 5 5 5 5 5 5 5 5 5 5 5 5 5 5 5 5 5 5 5 5 5 5 5 5 5 5 5 5 5 5 5 5 5 5 5 5 5 5 5 5 5 5 5 5 5 5 5 5 5 5 5 5 5 5 5 5 5 5 5 5 5 5 5 5 5 5 5 5 5 5 5 5 5 5 5 5 5 5 5 5 5 5 5 5 5 5 5 5 5 5 5 5 5 5 5 5 5 5 5 5 5 5 5 5 5 5 5 5 5 5 5 5 5 5 5 5 5 5 5 5 5 5 5 5 5 5 5 5 5 5 5 5 5 5 5 5 5 5 5 5 5 5 5 5 5 5 5 5 5 5 5 5 5 5 5 5 5 5 5 5 5 5 5 5 5 5 5 5 5 5 5 5 5 5 5 5 5 5 5 5 5 5 5 5 5 5 5 5 5 5 5 5 5 5 5 5 5 5 5 5 5 5 5 5 5 5 5 5 5 5 5 5 5 5 5 5 5 5 5 5 5 5 5 5 5 5 5 5 5 5 5 5 5 5 5 5 5 5 5 5 5 5 5 5 5 5 5 5 5 5 5 5 5 5 5 5 5 5 5 5 5 5 5 5 5 5 5 5 5 5 5 5 5 5 5 5 5 5 5 5 5 5 5 5 5 5 5 5 5 5 5 5 5 5 5 5 5 5 5 5 5 5 5 5 5 5 5 5 5 5 5 5 5 5 5 5 5 5 5 5 5 5 5 5 5 5 5 5 5 5 5 5 5 5 5 5 5 5 5 5 5 5 5 5 5 5 5 5 5 5 5 5 5 5 5 5 5 5 5 5 5 5 5 5 5 5 5 5 5 5 5 5 5 5 5 5 5 5 5 5 5 5 5 5 5 5 5 5 5 5 5 5 5 5 5 5 5 5 5 5 5 5 5 5 5 5 5 5 5 5 5 5 5 5 5 5 5 5 5 5 5 5 5 5 5 5 5 5 5 5 5 5 5 5 5 5 5 5 5 5 5 5 5 5 5 5 5 5 5 5 5 5 5 5 5 5 5 5 5 5 5 5 5 5 5 5 5 5 5 5 5 5 5 5 5 5 5 5 5 5 5 5 5 5 5 5 5 5 5 5 5 5 5 5 5 5 5 5 5 5 5 5 5 5 5 5 5 5 5 5 5 5 5 5 5 5 5 5 5 5 5 5 5 5 5 5 5 5 5 5 5 5 5 5 5 5 5 5 5 5 5 5 5 5 5 5 5 5 5 5 5 5 5 5 5 5 5 5 5 5 5 5 5 5 5 5 5 5 5 5 5 5 5 5 5 5 5 5 5 5 5 5 5 5 5 5 5 5 5 5 5 5 5 5 5 5 5 5 5 5 5 5 5 5 5 5 5 5 5 5 5 5 5 5 5 5 5 5 5 5 5 5 5 5 5 5 5 5 5 5 5 5 5 5 5 5 5 5 5 5 5 5 5 5 5 5 5 5 5 5 5 5 5 5 5 5 5 5 5 5 5 5 5 5 5 5 5 5 5 5 5 5 5 5 5 5 5 5 5 5 5 5 5 5 5 5 5 5 5 5 5 5 5 5 5 5 5 5 5 5 5 5 5 5 5 5 5 5 5 5 5 5 5 5 5 5 5 5 5 5 5 5 5 5 5 5 5 5 5 5 5 5 5 5 5 5 5 5 5 5 5 5 5 5 5 5 5 5 5 5 5 5 5 5 5 5 5 5 5 5 5 5 5 5 5 5 5 5 5 5 5 5 5 5 5 5 5 5 5 5 5 5 5 5 5 5 5 5 5 5 5 5 5 5 5 5 5 5 5 5 5 5 5 5 5 5 5 5 5 5 5 5 5 5 5 5 5 5 5 5 5 5 5 5 5 5 5 5 5 5 5 5 5 5 5 5 5 5 5 5 5 5 5 5 5 5 5 5 5 5 5 5 5 5 5 5 5 5 5 5 5 5 5 5 5 5 5 5 5 5 5 5 5 5 5 5 5 5 5 5 5 5 5 5 5 5 5 5 5 5 5 5 5 5 5 5 5 5 5 5 5 5 5 5 5 5 5 5 5 5 5 5 5 5 5 5 5 5 5 5 5 5 5 5 5 5 5 5 5 5 5 5 5 5 5 5 5 5 5 5 5 5 5 5 5 5 5 5 5 5 5 5 5 5 5 5 5 5 5 5 5 5 5 5 5 5 5 5 5 5 5 5 5 5 5 5 5 5 5 5 5 5 5 5 5 5 5 5 5 5 5 5 5 5 5 5 5 5 5 5 5 5 5 5 5 5 5 5 5 5 5 5 5 5 5 5 5 5 5 5 5 5 5 5 5 5 5 5 5 5 5 5 5 5 5 5 5 5 5 5 5 5 5 5 5 5 5 5 5 5 5 5 5 5 5 5 5 5 5 5 5 5 5 5 5 5 5 5 5 5 5 5 5 5 5 5 5 5 5 5 5 5 5 5 5 5 5 5 5 5 5 5 5 5 5 5 5 5 5 5 5 5 5 5 5 5 5 5 5 5 5 5 5 5 5 5 5 5 5 5 5 5 5 5 5 5 5 5 5 5 5 5 5 5 5 5 5 5 5 5 5 5 5 5 5 5 5 5 5 5 5 5 5 5 5 5 5 5 5 5 5 5 5 5 5 5 5 5 5 5 5 5 5 5 5 5 5 5 5 5 5 5 5 5 5 5 5 5 5 5 5 5 5 5 5 5 5 5 5 5 5 5 5 5 5 5 5 5 5 5 5 5 5 5 5 5 5 5 5 5 5 5 5 5 5 5 5 5 5 5 5 5 5 5 5 5 5 5 5 5 5 5 5 5 5 5 5 5 5 5 5 5 5 5 5 5 5 5 5 5 5 5 5 5 5 5 5 5 5 5 5 5 5 5 5 5 5 5 5 5 5 5 5 5 5 5 5 5 5 5 5 5 5 5 5 5 5 5 5 5 5 5 5 5 5 5 5 5 5 5 5 5 5 5 5 5 5 5 5 5 5 5 5 5 5 5 5 5 5 5 5 5 5 5 5 5 5 5 5 5 5 5 5 5 5 5 5 5 5 5 5 5 5 5 5 5 5 5 5 5 5 5 5 5 5 5 5 5 5 5 5 5 5 5 5 5 5 5 5 5 5 5 5 5 5 5 5 5 5 5 5 5 5 5 5 5 5 5 5 5 5 5 5 5 5 5 5 5 5 5 5 5 5 5 5 5 5 5 5 5 5 5 5 5 5 5 5 5 5 5 5 5 5 5 5 5 5 5 5 5 5 5 5 5 5 5 5 5 5 5 5 5 5 5 5 5 5 5 5 5 5 5 5 5 5 5 5 5 5 5 5 5 5 5 5 5 5 5 5 5 5 5 5 5 5 5 5 5 5 5 5 5 5 5 5 5 5 5 5 5 5 5 5 5 5 5 5 5 5 5 5 5 5 5 5 5 5 5 5 5 5 5 5 5 5 5 5 5 5 5 5 5 5 5 5 5 5 5 5 5 5 5 5 5 5 5 5 5 5 5 5 5 5 5 5 5 5 5 5 5 5 5 5 5 5 5 5 5 5 5 5 5 5 5 5 5 5 5 5 5 5 5 5 5 5 5 5 5 5 5 5 5 5 5 5 5 5 5 5 5 5 5 5 5 5 5 5 5 5 5 5 5 5 5 5 5 5 5 5 5 5 5 5 5 5 5 5 5 5 5 5 5 5 5 5 5 5 5 5 5 5 5 5 5 5 5 5 5 5 5 5 5 5 5 5 5 5 5 5 5 5 5 5 5 5 5 5 5 5 5 5 5 5 5 5 5 5 5 5 5 5 5 5 5 5 5 5 5 5 5 5 5 5 5 5 5 5 5 5 5 5 5 5 5 5 5 5 5 5 5 5 5 5 5 5 5 5 5 5 5 5 5 5 5 5 5 5 5 5 5 5 5 5 5 5 5 5 5 5 5 5 5 5 5 5 5 5 5 5 5 5 5 5 5 5 5 5 5 5 5 5 5 5 5 5 5 5 5 5 5 5 5 5 5 5 5 5 5 5 5 5 5 5 5 5 5 5 5 5 5 5 5 5 5 5 5 5 5 5 5 5 5 5 5 5 5 5 5 5 5 5 5 5 5 5 5 5 5 5 5 5 5 5 5 5 5 5 5 5 5 5 5 5 5 5 5 5 5 5 5 5 5 5 5 5 5 5 5 5 5 5 5 5 5 5 5 5 5 5 5 5 5 5 5 5 5 5 5 5 5 5 5 5 5 5 5 5 5 5 5 5 5 5 5 5 5 5 5 5 5 5 5 5 5 5 5 5 5 5 5 5 5 5 5 5 5 5 5 5 5 5 5 5 5 5 5 5 5 5 5 5 5 5 5 5 5 5 5 5 5 5 5 5 5 5 5 5 5 5 5 5 5 5 5 5 5 5 5 5 5 5 5 5 5 5 5 5 5 5 5 5 5 5 5 5 5 5 5 5 5 5 5 5 5 5 5 5 5 5 5 5 5 5 5 5 5 5 5 5 5 5 5 5 5 5 5 5 5 5 5 5 5 5 5 5 5 5 5 5 5 5 5 5 5 5 5 5 5 5 5 5 5 5 5 5 5 5 5 5 5 5 5 5 5 5 5 5 5 5 5 5 5 5 5 5 5 5 5 5 5 5 5 5 5 5 5 5 5 5 5 5 5 5 5 5 5 5 5 5 5 5 5 5 5 5 5 5 5 5 5 5 5 5 5 5 5 5 5 5 5 5 5 5 5 5 5 5 5 5 5 5 5 5 5 5 5 5 5 5 5 5 5 5 5 5 5 5 5 5 5 5 5 5 5 5 5 5 5 5 5 5 5 5 5 5 5 5 5 5 5 5 5 5 5 5 5 5 5 5 5 5 5 5 5 5 5 5 5 5 5 5 5 5 5 5 5 5 5 5 5 5 5 5 5 5 5 5 5 5 5 5 5 5 5 5 5 5 5 5 5 5 5 5 5 5 5 5 5 5 5 5 5 5 5 5 5 5 5 5 5 5 5 5 5 5 5 5 5 5 5 5 5 5 5 5 5 5 5 5 5 5 5 5 5 5 5 5 5 5 5 5 5 5 5 5 5 5 5 5 5 5 5 5 5 5 5 5 5 5 5 5 5 5 5 5 5 5 5 5 5 5 5 5 5 5 5 5 5 5 5 5 5 5 5 5 5 5 5 5 5 5 5 5 5 5 5 5 5 5 5 5 5 5 5 5 5 5 5 5 5 5 5 5 5 5 5 5 5 5 5 5 5 5 5 5 5 5 5 5 5 5 5 5 5 5 5 5 5 5 5 5 5 5 5 5 5 5 5 5 5 5 5 5 5 5 5 5 5 5 5 5 5 5 5 5 5 5 5 5 5 5 5 5 5 5 5 5 5 5 5 5 5 5 5 5 5 5 5 5 5 5 5 5 5 5 5 5 5 5 5 5 5 5 5 5 5 5 5 5 5 5 5 5 5 5 5 5 5 5 5 5 5 5 5 5 5 5 5 5 5 5 5 5 5 5 5 5 5 5 5 5 5 5 5 5 5 5 5 5 5 5 5 5 5 5 5 5 5 5 5 5 5 5 5 5 5 5 5 5 5 5 5 5 5 5 5 5 5 5 5 5 5 5 5 5 5 5 5 5 5 5 5 5 5 5 5 5 5 5 5 5 5 5 5 5 5 5 5 5 5 5 5 5 5 5 5 5 5 5 5 5 5 5 5 5 5 5 5 5 5 5 5 5 5 5 5 5 5 5 5 5 5 5 5 5 5 5 5 5 5 5 5 5 5 5 5 5 5 5 5 5 5 5 5 5 5 5 5 5 5 5 5 5 5 5 5 5 5 5 5 5 5 5 5 5 5 5 5 5 5 5 5 5 5 5 5 5 5 5 5 5 5 5 5 5 5 5 5 5 5 5 5 5 5 5 5 5 5 5 5 5 5 5 5 5 5 5 5 5 5 5 5 5 5 5 5 5 5 5 5 5 5 5 5 5 5 5 5 5 5 5 5 5 5 5 5 5 5 5 5 5 5 5 5 5 5 5 5 5 5 5 5 5 5 5 5 5 5 5 5 5 5 5 5 5 5 5 5 5 5 5 5 5 5 5 5 5 5 5 5 5 5 5 5 5 5 5 5 5 5 5 5 5 5 5 5 5 5 5 5 5 5 5 5 5 5 5 5 5 5 5 5 5 5 5 5 5 5 5 5 5 5 5 5 5 5 5 5 5 5 5 5 5 5 5 5 5 5 5 5 5 5 5 5 5 5 5 5 5 5 5 5 5 5 5 5 5 5 5 5 5 5 5 5 5 5 5 5 5 5 5 5 5 5 5 5 5 5 5 5 5 5 5 5 5 5 5 5 5 5 5 5 5 5 5 5 5 5 5 5 5 5 5 5 5 5 5 5 5 5 5 5 5 5 5 5 5 5 5 5 5 5 5 5 5 5 5 5 5 5 5 5 5 5 5 5 5 5 5 5 5 5 5 5 5 5 5 5 5 5 5 5 5 5 5 5 5 5 5 5 5 5 5 5 5 5 5 5 5 5 5 5 5 5 5 5 5 5 5 5 5 5 5 5 5 5 5 5 5 5 5 5 5 5 5 5 5 5 5 5 5 5 5 5 5 5 5 5 5 5 5 5 5 5 5 5 5 5 5 5 5 5 5 5 5 5 5 5 5 5 5 5 5 5 5 5 5 5 5 5 5 5 5 5 5 5 5 5 5 5 5 5 5 5 5 5 5 5 5 5 5 5 5 5 5 5 5 5 5 5 5 5 5 5 5 5 5 5 5 5 5 5 5 5 5 5 5 5 5 5 5 5 5 5 5 5 5 5 5 5 5 5 5 5 5 5 5 5 5 5 5 5 5 5 5 5 5 5 5 5 5 5 5 5 5 5 5 5 5 5 5 5 5 5 5 5 5 5 5 5 5 5 5 5 5 5 5 5 5 5 5 5 5 5 5 5 5 5 5 5 5 5 5 5 5 5 5 5 5 5 5 5 5 5 5 5 5 5 5 5 5 5 5 5 5 5 5 5 5 5 5 5 5 5 5 5 5 5 5 5 5 5 5 5 5 5 5 5 5 5 5 5 5 5 5 5 5 5 5 5 5 5 5 5 5 5 5 5 5 5 5 5 5 5 5 5 5 5 5 5 5 5 5 5 5 5 5 5 5 5 5 5 5 5 5 5 5 5 5 5 5 5 5 5 5 5 5 5 5 5 5 5 5 5 5 5 5 5 5 5 5 5 5 5 5 5 5 5 5 5 5 5 5 5 5 5 5 5 5 5 5 5 5 5 5 5 5 5 5 5 5 5 5 5 5 5 5 5 5 5 5 5 5 5 5 5 5 5 5 5 5 5 5 5 5 5 5 5 5 5 5 5 5 5 5 5 5 5 5 5 5 5 5 5 5 5 5 5 5 5 5 5 5 5 5 5 5 5 5 5 5 5 5 5 5 5 5 5 5 5 5 5 5 5 5 5 5 5 5 5 5 5 5 5 5 5 5 5 5 5 5 5 5 5 5 5 5 5 5 5 5 5 5 5 5 5 5 5 5 5 5 5 5 5 5 5 5 5 5 5 5 5 5 5 5 5 5 5 5 5 5 5 5 5 5 5 5 5 5 5 5 5 5 5 5 5 5 5 5 5 5 5 5 5 5 5 5 5 5 5 5 5 5 5 5 5 5 5 5 5 5 5 5 5 5 5 5 5 5 5 5 5 5 5 5 5 5 5 5 5 5 5 5 5 5 5 5 5 5 5 5 5 5 5 5 5 5 5 5 5 5 5 5 5 5 5 5 5 5 5 5 5 5 5 5 5 5 5 5 5 5 5 5 5 5 5 5 5 5 5 5 5 5 5 5 5 5 5 5 5 5 5 5 5 5 5 5 5 5 5 5 5 5 5 5 5 5 5 5 5 5 5 5 5 5 5 5 5 5 5 5 5 5 5 5 5 5 5 5 5 5 5 5 5 5 5 5 5 5 5 5 5 5 5 5 5 5 5 5 5 5 5 5 5 5 5 5 5 5 5 5 5 5 5 5 5 5 5 5 5 5 5 5 5 5 5 5 5 5 5 5 5 5 5 5 5 5 5 5 5 5 5 5 5 5 5 5 5 5 5 5 5 5 5 5 5 5 5 5 5 5 5 5 5 5 5 5 5 5 5 5 5 5 5 5 5 5 5 5 5 5 5 5 5 5 5 5 5 5 5 5 5 5 5 5 5 5 5 5 5 5 5 5 5 5 5 5 5 5 5 5 5 5 5 5 5 5 5 5 5 5 5 5 5 5 5 5 5 5 5 5 5 5 5 5 5 5 5 5 5 5 5 5 5 5 5 5 5 5 5 5 5 5 5 5 5 5 5 5 5 5 5 5 5 5 5 5 5 5 5 5 5 5 5 5 5 5 5 5 5 5 5 5 5 5 5 5 5 5 5 5 5 5 5 5 5 5 5 5 5 5 5 5 5 5 5 5 5 5 5 5 5 5 5 5 5 5 5 5 5 5 5 5 5 5 5 5 5 5 5 5 5 5 5 5 5 5 5 5 5 5 5 5 5 5 5 5 5 5 5 5 5 5 5 5 5 5 5 5 5 5 5 5 5 5 5 5 5 5 5 5 5 5 5 5 5 5 5 5 5 5 5 5 5 5 5 5 5 5 5 5 5 5 5 5 5 5 5 5 5 5 5 5 5 5 5 5 5 5 5 5 5 5 5 5 5 5 5 5 5 5 5 5 5 5 5 5 5 5 5 5 5 5 5 5 5 5 5 5 5 5 5 5 5 5 5 5 5 5 5 5 5 5 5 5 5 5 5 5 5 5 5 5 5 5 5 5 5 5 5 5 5 5 5 5 5 5 5 5 5 5 5 5 5 5 5 5 5 5 5 5 5 5 5 5 5 5 5 5 5 5 5 5 5 5 5 5 5 5 5 5 5 5 5 5 5 5 5 5 5 5 5 5 5 5 5 5 5 5 5 5 5 5 5 5 5 5 5 5 5 5 5 5 5 5 5 5 5 5 5 5 5 5 5 5 5 5 5 5 5 5 5 5 5 5 5 5 5 5 5 5 5 5 5 5 5 5 5 5 5 5 5 5 5 5 5 5 5 5 5 5 5 5 5 5 5 5 5 5 5 5 5 5 5 5 5 5 5 5 5 5 5 5 5 5 5 5 5 5 5 5 5 5 5 5 5 5 5 5 5 5 5 5 5 5 5 5 5 5 5 5 5 5 5 5 5 5 5 5 5 5 5 5 5 5 5 5 5 5 5 5 5 5 5 5 5 5 5 5 5 5 5 5 5 5 5 5 5 5 5 5 5 5 5 5 5 5 5 5 5 5 5 5 5 5 5 5 5 5 5 5 5 5 5 5 5 5 5 5 5 5 5 5 5 5 5 5 5 5 5 5 5 5 5 5 5 5 5 5 5 5 5 5 5 5 5 5 5 5 5 5 5 5 5 5 5 5 5 5 5 5 5 5 5 5 5 5 5 5 5 5 5 5 5 5 5 5 5 5 5 5 5 5 5 5 5 5 5 5 5 5 5 5 5 5 5 5 5 5 5 5 5 5 5 5 5 5 5 5 5 5 5 5 5 5 5 5 5 5 5 5 5 5 5 5 5 5 5 5 5 5 5 5 5 5 5 5 5 5 5 5 5 5 5 5 5 5 5 5 5 5 5 5 5 5 5 5 5 5 5 5 5 5 5 5 5 5 5 5 5 5 5 5 5 5 5 5 5 5 5 5 5 5 5 5 5 5 5 5 5 5 5 5 5 5 5 5 5 5 5 5 5 5 5 5 5 5 5 5 5 5 5 5 5 5 5 5 5 5 5 5 5 5 5 5 5 5 5 5 5 5 5 5 5 5 5 5 5 5 5 5 5 5 5 5 5 5 5 5 5 5 5 5 5 5 5 5 5 5 5 5 5 5 5 5 5 5 5 5 5 5 5 5 5 5 5 5 5 5 5 5 5 5 5 5 5 5 5 5 5 5 5 5 5 5 5 5 5 5 5 5 5 5 5 5 5 5 5 5 5 5 5 5 5 5 5 5 5 5 5 5 5 5 5 5 5 5 5 5 5 5 5 5 5 5 5 5 5 5 5 5 5 5 5 5 5 5 5 5 5 5 5 5 5 5 5 5 5 5 5 5 5 5 5 5 5 5 5 5 5 5 5 5 5 5 5 5 5 5 5 5 5 5 5 5 5 5 5 5 5 5 5 5 5 5 5 5 5 5 5 5 5 5 5 5 5 5 5 5 5 5 5 5 5 5 5 5 5 5 5 5 5 5 5 5 5 5 5 5 5 5 5 5 5 5 5 5 5 5 5 5 5 5 5 5 5 5 5 5 5 5 5 5 5 5 5 5 5 5 5 5 5 5 5 5 5 5 5 5 5 5 5 5 5 5 5 5 5 5 5 5 5 5 5 5 5 5 5 5 5 5 5 5 5 5 5 5 5 5 5 5 5 5 5 5 5 5 5 5 5 5 5 5 5 5 5 5 5 5 5 5 5 5 5 5 5 5 5 5 5 5 5 5 5 5 5 5 5 5 5 5 5 5 5 5 5 5 5 5 5 5 5 5 5 5 5 5 5 5 5 5 5 5 5 5 5 5 5 5 5 5 5 5 5 5 5 5 5 5 5 5 5 5 5 5 5 5 5 5 5 5 5 5 5 5 5 5 5 5 5 5 5 5 5 5 5 5 5 5 5 5 5 5 5 5 5 5 5 5 5 5 5 5 5 5 5 5 5 5 5 5 5 5 5 5 5 5 5 5 5 5 5 5 5 5 5 5 5 5 5 5 5 5 5 5 5 5 5 5 5 5 5 5 5 5 5 5 5 5 5 5 5 5 5 5 5 5 5 5 5 5 5 5 5 5 5 5 5 5 5 5 5 5 5 5 5 5 5 5 5 5 5 5 5 5 5 5 5 5 5 5 5 5 5 5 5 5 5 5 5 5 5 5 5 5 5 5 5 5 5 5 5 5 5 5 5 5 5 5 5 5 5 5 5 5 5 5 5 5 5 5 5 5 5 5 5 5 5 5 5 5 5 5 5 5 5 5 5 5 5 5 5 5 5 5 5 5 5 5 5 5 5 5 5 5 5 5 5 5 5 5 5 5 5 5 5 5 5 5 5 5 5 5 5 5 5 5 5 5 5 5 5 5 5 5 5 5 5 5 5 5 5 5 5 5 5 5 5 5 5 5 5 5 5 5 5 5 5 5 5 5 5 5 5 5 5 5 5 5 5 5 5 5 5 5 5 5 5 5 5 5 5 5 5 5 5 5 5 5 5 5 5 5 5 5 5 5 5 5 5 5 5 5 5 5 5 5 5 5 5 5 5 5 5 5 5 5 5 5 5 5 5 5 5 5 5 5 5 5 5 5 5 5 5 5 5 5 5 5 5 5 5 5 5 5 5 5 5 5 5 5 5 5 5 5 5 5 5 5 5 5 5 5 5 5 5 5 5 5 5 5 5 5 5 5 5 5 5 5 5 5 5 5 5 5 5 5 5 5 5 5 5 5 5 5 5 5 5 5 5 5 5 5 5 5 5 5 5 5 5 5 5 5 5 5 5 5 5 5 5 5 5 5 5 5 5 5 5 5 5 5 5 5 5 5 5 5 5 5 5 5 5 5 5 5 5 5 5 5 5 5 5 5 5 5 5 5 5 5 5 5 5 5 5 5 5 5 5 5 5 5 5 5 5 5 5 5 5 5 5 5 5 5 5 5 5 5 5 5 5 5 5 5 5 5 5 5 5 5 5 5 5 5 5 5 5 5 5 5 5 5 5 5 5 5 5 5 5 5 5 5 5 5 5 5 5 5 5 5 5 5 5 5 5 5 5 5 5 5 5 5 5 5 5 5 5 5 5 5 5 5 5 5 5 5 5 5 5 5 5 5 5 5 5 5 5 5 5 5 5 5 5 5 5 5 5 5 5 5 5 5 5 5 5 5 5 5 5 5 5 5 5 5 5 5 5 5 5 5 5 5 5 5 5 5 5 5 5 5 5 5 5 5 5 5 5 5 5 5 5 5 5 5 5 5 5 5 5 5 5 5 5 5 5 5 5 5 5 5 5 5 5 5 5 5 5 5 5 5 5 5 5 5 5 5 5 5 5 5 5 5 5 5 5 5 5 5 5 5 5 5 5 5 5 5 5 5 5 5 5 5 5 5 5 5 5 5 5 5 5 5 5 5 5 5 5 5 5 5 5 5 5 5 5 5 5 5 5 5 5 5 5 5 5 5 5 5 5 5 5 5 5 5 5 5 5 5 5 5 5 5 5 5 5 5 5 5 5 5 5 5 5 5 5 5 5 5 5 5 5 5 5 5 5 5 5 5 5 5 5 5 5 5 5 5 5 5 5 5 5 5 5 5 5 5 5 5 5 5 5 5 5 5 5 5 5 5 5 5 5 5 5 5 5 5 5 5 5 5 5 5 5 5 5 5 5 5 5 5 5 5 5 5 5 5 5 5 5 5 5 5 5 5 5 5 5 5 5 5 5 5 5 5 5 5 5 5 5 5 5 5 5 5 5 5 5 5 5 5 5 5 5 5 5 5 5 5 5 5 5 5 5 5 5 5 5 5 5 5 5 5 5 5 5 5 5 5 5 5 5 5 5 5 5 5 5 5 5 5 5 5 5 5 5 5 5 5 5 5 5 5 5 5 5 5 5 5 5 5 5 5 5 5 5 5 5 5 5 5 5 5 5 5 5 5 5 5 5 5 5 5 5 5 5 5 5 5 5 5 5 5 5 5 5 5 5 5 5 5 5 5 5 5 5 5 5 5 5 5 5 5 5 5 5 5 5 5 5 5 5 5 5 5 5 5 5 5 5 5 5 5 5 5 5 5 5 5 5 5 5 5 5 5 5 5 5 5 5 5 5 5 5 5 5 5 5 5 5 5 5 5 5 5 5 5 5 5 5 5 5 5 5 5 5 5 5 5 5 5 5 5 5 5 5 5 5 5 5 5 5 5 5 5 5 5 5 5 5 5 5 5 5 5 5 5 5 5 5 5 5 5 5 5 5 5 5 5 5 5 5 5 5 5 5 5 5 5 5 5 5 5 5 5 5 5 5 5 5 5 5 5 5 5 5 5 5 5 5 5 5 5 5 5 5 5 5 5 5 5 5 5 5 5 5 5 5 5 5 5 5 5 5 5 5 5 5 5 5 5 5 5 5 5 5 5 5 5 5 5 5 5 5 5 5 5 5 5 5 5 5 5 5 5 5 5 5 5 5 5 5 5 5 5 5 5 5 5 5 5 5 5 5 5 5 5 5 5 5 5 5 5 5 5 5 5 5 5 5 5 5 5 5 5 5 5 5 5 5 5 5 5 5 5 5 5 5 5 5 5 5 5 5 5 5 5 5 5 5 5 5 5 5 5 5 5 5 5 5 5 5 5 5 5 5 5 5 5 5 5 5 5 5 5 5 5 5 5 5 5 5 5 5 5 5 5 5 5 5 5 5 5 5 5 5 5 5 5 5 5 5 5 5 5 5 5 5 5 5 5 5 5 5 5 5 5 5 5 5 5 5 5 5 5 5 5 5 5 5 5 5 5 5 5 5 5 5 5 5 5 5 5 5 5 5 5 5 5 5 5 5 5 5 5 5 5 5 5 5 5 5 5 5 5 5 5 5 5 5 5 5 5 5 5 5 5 5 5 5 5 5 5 5 5 5 5 5 5 5 5 5 5 5 5 5 5 5 5 5 5 5 5 5 5 5 5 5 5 5 5 5 5 5 5 5 5 5 5 5 5 5 5 5 5 5 5 5 5 5 5 5 5 5 5 5 5 5 5 5 5 5 5 5 5 5 5 5 5 5 5 5 5 5 5 5 5 5 5 5 5 5 5 5 5 5 5 5 5 5 5 5 5 5 5 5 5 5 5 5 5 5 5 5 5 5 5 5 5 5 5 5 5 5 5 5 5 5 5 5 5 5 5 5 5 5 5 5 5 5 5 5 5 5 5 5 5 5 5 5 5 5 5 5 5 5 5 5 5 5 5 5 5 5 5 5 5 5 5 5 5 5 5 5 5 5 5 5 5 5 5 5 5 5 5 5 5 5 5 5 5 5 5 5 5 5 5 5 5 5 5 5 5 5 5 5 5 5 5 5 5 5 5 5 5 5 5 5 5 5 5 5 5 5 5 5 5 5 5 5 5 5 5 5 5 5 5 5 5 5 5 5 5 5 5 5 5 5 5 5 5 5 5 5 5 5 5 5 5 5 5 5 5 5 5 5 5 5 5 5 5 5 5 5 5 5 5 5 5 5 5 5 5 5 5 5 5 5 5 5 5 5 5 5 5 5 5 5 5 5 5 5 5 5 5 5 5 5 5 5 5 5 5 5 5 5 5 5 5 5 5 5 5 5 5 5 5 5 5 5 5 5 5 5 5 5 5 5 5 5 5 5 5 5 5 5 5 5 5 5 5 5 5 5 5 5 5 5 5 5 5 5 5 5 5 5 5 5 5 5 5 5 5 5 5 5 5 5 5 5 5 5 5 5 5 5 5 5 5 5 5 5 5 5 5 5 5 5 5 5 5 5 5 5 5 5 5 5 5 5 5 5 5 5 5 5 5 5 5 5 5 5 5 5 5 5 5 5 5 5 5 5 5 5 5 5 5 5 5 5 5 5 5 5 5 5 5 5 5 5 5 5 5 5 5 5 5 5 5 5 5 5 5 5 5 5 5 5 5 5 5 5 5 5 5 5 5 5 5 5 5 5 5 5 5 5 5 5 5 5 5 5 5 5 5 5 5 5 5 5 5 5 5 5 5 5 5 5 5 5 5 5 5 5 5 5 5 5 5 5 5 5 5 5 5 5 5 5 5 5 5 5 5 5 5 5 5 5 5 5 5 5 5 5 5 5 5 5 5 5 5 5 5 5 5 5 5 5 5 5 5 5 5 5 5 5 5 5 5 5 5 5 5 5 5 5 5 5 5 5 5 5 5 5 5 5 5 5 5 5 5 5 5 5 5 5 5 5 5 5 5 5 5 5 5 5 5 5 5 5 5 5 5 5 5 5 5 5 5 5 5 5 5 5 5 5 5 5 5 5 5 5 5 5 5 5 5 5 5 5 5 5 5 5 5 5 5 5 5 5 5 5 5 5 5 5 5 5 5 5 5 5 5 5 5 5 5 5 5 5 5 5 5 5 5 5 5 5 5 5 5 5 5 5 5 5 5 5 5 5 5 5 5 5 5 5 5 5 5 5 5 5 5 5 5 5 5 5 5 5 5 5 5 5 5 5 5 5 5 5 5 5 5 5 5 5 5 5 5 5 5 5 5 5 5 5 5 5 5 5 5 5 5 5 5 5 5 5 5 5 5 5 5 5 5 5 5 5 5 5 5 5 5 5 5 5 5 5 5 5 5 5 5 5 5 5 5 5 5 5 5 5 5 5 5 5 5 5 5 5 5 5 5 5 5 5 5 5 5 5 5 5 5 5 5 5 5 5 5 5 5 5 5 5 5 5 5 5 5 5 5 5 5 5 5 5 5 5 5 5 5 5 5 5 5 5 5 5 5 5 5 5 5 5 5 5 5 5 5 5 5 5 5 5 5 5 5 5 5 5 5 5 5 5 5 5 5 5 5 5 5 5 5 5 5 5 5 5 5 5 5 5 5 5 5 5 5 5 5 5 5 5 5 5 5 5 5 5 5 5 5 5 5 5 5 5 5 5 5 5 5 5 5 5 5 5 5 5 5 5 5 5 5 5 5 5 5 5 5 5 5 5 5 5 5 5 5 5 5 5 5 5 5 5 5 5 5 5 5 5 5 5 5 5 5 5 5 5 5 5 5 5 5 5 5 5 5 5 5 5 5 5 5 5 5 5 5 5 5 5 5 5 5 5 5 5 5 5 5 5 5 5 5 5 5 5 5 5 5 5 5 5 5 5 5 5 5 5 5 5 5 5 5 5 5 5 5 5 5 5 5 5 5 5 5 5 5 5 5 5 5 5 5 5 5 5 5 5 5 5 5 5 5 5 5 5 5 5 5 5 5 5 5 5 5 5 5 5 5 5 5 5 5 5 5 5 5 5 5 5 5 5 5 5 5 5 5 5 5 5 5 5 5 5 5 5 5 5 5 5 5 5 5 5 5 5 5 5 5 5 5 5 5 5 5 5 5 5 5 5 5 5 5 5 5 5 5 5 5 5 5 5 5 5 5 5 5 5 5 5 5 5 5 5 5 5 5 5 5 5 5 5 5 5 5 5 5 5 5 5 5 5 5 5 5 5 5 5 5 5 5 5 5 5 5 5 5 5 5 5 5 5 5 5 5 5 5 5 5 5 5 5 5 5 5 5 5 5 5 5 5 5 5 5 5 5 5 5 5 5 5 5 5 5 5 5 5 5 5 5 5 5 5 5 5 5 5 5 5 5 5 5 5 5 5 5 5 5 5 5 5 5 5 5 5 5 5 5 5 5 5 5 5 5 5 5 5 5 5 5 5 5 5 5 5 5 5 5 5 5 5 5 5 5 5 5 5 5 5 5 5 5 5 5 5 5 5 5 5 5 5 5 5 5 5 5 5 5 5 5 5 5 5 5 5 5 5 5 5 5 5 5 5 5 5 5 5 5 5 5 5 5 5 5 5 5 5 5 5 5 5 5 5 5 5 5 5 5 5 5 5 5 5 5 5 5 5 5 5 5 5 5 5 5 5 5 5 5 5 5 5 5 5 5 5 5 5 5 5 5 5 5 5 5 5 5 5 5 5 5 5 5 5 5 5 5 5 5 5 5 5 5 5 5 5 5 5 5 5 5 5 5 5 5 5 5 5 5 5 5 5 5 5 5 5 5 5 5 5 5 5 5 5 5 5 5 5 5 5 5 5 5 5 5 5 5 5 5 5 5 5 5 5 5 5 5 5 5 5 5 5 5 5 5 5 5 5 5 5 5 5 5 5 5 5 5 5 5 5 5 5 5 5 5 5 5 5 5 5 5 5 5 5 5 5 5 5 5 5 5 5 5 5 5 5 5 5 5 5 5 5 5 5 5 5 5 5 5 5 5 5 5 5 5 5 5 5 5 5 5 5 5 5 5 5 5 5 5 5 5 5 5 5 5 5 5 5 5 5 5 5 5 5 5 5 5 5 5 5 5 5 5 5 5 5 5 5 5 5 5 5 5 5 5 5 5 5 5 5 5 5 5 5 5 5 5 5 5 5 5 5 5 5 5 5 5 5 5 5 5 5 5 5 5 5 5 5 5 5 5 5 5 5 5 5 5 5 5 5 5 5 5 5 5 5 5 5 5 5 5 5 5 5 5 5 5 5 5 5 5 5 5 5 5 5 5 5 5 5 5 5 5 5 5 5 5 5 5 5 5 5 5 5 5 5 5 5 5 5 5 5 5 5 5 5 5 5 5 5 5 5 5 5 5 5 5 5 5 5 5 5 5 5 5 5 5 5 5 5 5 5 5 5 5 5 5 5 5 5 5 5 5 5 5 5 5 5 5 5 5 5 5 5 5 5 5 5 5 5 5 5 5 5 5 5 5 5 5 5 5 5 5 5 5 5 5 5 5 5 5 5 5 5 5 5 5 5 5 5 5 5 5 5 5 5 5 5 5 5 5 5 5 5 5 5 5 5 5 5 5 5 5 5 5 5 5 5 5 5 5 5 5 5 5 5 5 5 5 5 5 5 5 5 5 5 5 5 5 5 5 5 5 5 5 5 5 5 5 5 5 5 5 5 5 5 5 5 5 5 5 5 5 5 5 5 5 5 5 5 5 5 5 5 5 5 5 5 5 5 5 5 5 5 5 5 5 5 5 5 5 5 5 5 5 5 5 5 5 5 5 5 5 5 5 5 5 5 5 5 5 5 5 5 5 5 5 5 5 5 5 5 5 5 5 5 5 5 5 5 5 5 5 5 5 5 5 5 5 5 5 5 5 5 5 5 5 5 5 5 5 5 5 5 5 5 5 5 5 5 5 5 5 5 5 5 5 5 5 5 5 5 5 5 5 5 5 5 5 5 5 5 5 5 5 5 5 5 5 5 5 5 5 5 5 5 5 5 5 5 5 5 5 5 5 5 5 5 5 5 5 5 5 5 5 5 5 5 5 5 5 5 5 5 5 5 5 5 5 5 5 5 5 5 5 5 5 5 5 5 5 5 5 5 5 5 5 5 5 5 5 5 5 5 5 5 5 5 5 5 5 5 5 5 5 5 5 5 5 5 5 5 5 5 5 5 5 5 5 5 5 5 5 5 5 5 5 5 5 5 5 5 5 5 5 5 5 5 5 5 5 5 5 5 5 5 5 5 5 5 5 5 5 5 5 5 5 5 5 5 5 5 5 5 5 5 5 5 5 5 5 5 5 5 5 5 5 5 5 5 5 5 5 5 5 5 5 5 5 5 5 5 5 5 5 5 5 5 5 5 5 5 5 5 5 5 5 5 5 5 5 5 5 5 5 5 5 5 5 5 5 5 5 5 5 5 5 5 5 5 5 5 5 5 5 5 5 5 5 5 5 5 5 5 5 5 5 5 5 5 5 5 5 5 5 5 5 5 5 5 5 5 5 5 5 5 5 5 5 5 5 5 5 5 5 5 5 5 5 5 5 5 5 5 5 5 5 5 5 5 5 5 5 5 5 5 5 5 5 5 5 5 5 5 5 5 5 5 5 5 5 5 5 5 5 5 5 5 5 5 5 5 5 5 5 5 5 5 5 5 5 5 5 5 5 5 5 5 5 5 5 5 5 5 5 5 5 5 5 5 5 5 5 5 5 5 5 5 5 5 5 5 5 5 5 5 5 5 5 5 5 5 5 5 5 5 5 5 5 5 5 5 5 5 5 5 5 5 5 5 5 5 5 5 5 5 5 5 5 5 5 5 5 5 5 5 5 5 5 5 5 5 5 5 5 5 5 5 5 5 5 5 5 5 5 5 5 5 5 5 5 5 5 5 5 5 5 5 5 5 5 5 5 5 5 5 5 5 5 5 5 5 5 5 5 5 5 5 5 5 5 5 5 5 5 5 5 5 5 5 5 5 5 5 5 5 5 5 5 5 5 5 5 5 5 5 5 5 5 5 5 5 5 5 5 5 5 5 5 5 5 5 5 5 5 5 5 5 5 5 5 5 5 5 5 5 5 5 5 5 5 5 5 5 5 5 5 5 5 5 5 5 5 5 5 5 5 5 5 5 5 5 5 5 5 5 5 5 5 5 5 5 5 5 5 5 5 5 5 5 5 5 5 5 5 5 5 5 5 5 5 5 5 5 5 5 5 5 5 5 5 5 5 5 5 5 5 5 5 5 5 5 5 5 5 5 5 5 5 5 5 5 5 5 5 5 5 5 5 5 5 5 5 5 5 5 5 5 5 5 5 5 5 5 5 5 5 5 5 5 5 5 5 5 5 5 5 5 5 5 5 5 5 5 5 5 5 5 5 5 5 5 5 5 5 5 5 5 5 5 5 5 5 5 5 5 5 5 5 5 5 5 5 5 5 5 5 5 5 5 5 5 5 5 5 5 5 5 5 5 5 5 5 5 5 5 5 5 5 5 5 5 5 5 5 5 5 5 5 5 5 5 5 5 5 5 5 5 5 5 5 5 5 5 5 5 5 5 5 5 5 5 5 5 5 5 5 5 5 5 5 5 5 5 5 5 5 5 5 5 5 5 5 5 5 5 5 5 5 5 5 5 5 5 5 5 5 5 5 5 5 5 5 5 5 5 5 5 5 5 5 5 5 5 5 5 5 5 5 5 5 5 5 5 5 5 5 5 5 5 5 5 5 5 5 5 5 5 5 5 5 5 5 5 5 5 5 5 5 5 5 5 5 5 5 5 5 5 5 5 5 5 5 5 5 5 5 5 5 5 5 5 5 5 5 5 5 5 5 5 5 5 5 5 5 5 5 5 5 5 5 5 5 5 5 5 5 5 5 5 5 5 5 5 5 5 5 5 5 5 5 5 5 5 5 5 5 5 5 5 5 5 5 5 5 5 5 5 5 5 5 5 5 5 5 5 5 5 5 5 5 5 5 5 5 5 5 5 5 5 5 5 5 5 5 5 5 5 5 5 5 5 5 5 5 5 5 5 5 5 5 5 5 5 5 5 5 5 5 5 5 5 5 5 5 5 5 5 5 5 5 5 5 5 5 5 5 5 5 5 5 5 5 5 5 5 5 5 5 5 5 5 5 5 5 5 5 5 5 5 5 5 5 5 5 5 5 5 5 5 5 5 5 5 5 5 5 5 5 5 5 5 5 5 5 5 5 5 5 5 5 5 5 5 5 5 5 5 5 5 5 5 5 5 5 5 5 5 5 5 5 5 5 5 5 5 5 5 5 5 5 5 5 5 5 5 5 5 5 5 5 5 5 5 5 5 5 5 5 5 5 5 5 5 5 5 5 5 5 5 5 5 5 5 5 5 5 5 5 5 5 5 5 5 5 5 5 5 5 5 5 5 5 5 5 5 5 5 5 5 5 5 5 5 5 5 5 5 5 5 5 5 5 5 5 5 5 5 5 5 5 5 5 5 5 5 5 5 5 5 5 5 5 5 5 5 5 5 5 5 5 5 5 5 5 5 5 5 5 5 5 5 5 5 5 5 5 5 5 5 5 5 5 5 5 5 5 5 5 5 5 5 5 5 5 5 5 5 5 5 5 5 5 5 5 5 5 5 5 5 5 5 5 5 5 5 5 5 5 5 5 5 5 5 5 5 5 5 5 5 5 5 5 5 5 5 5 5 5 5 5 5 5 5 5 5 5 5 5 5 5 5 5 5 5 5 5 5 5 5 5 5 5 5 5 5 5 5 5 5 5 5 5 5 5 5 5 5 5 5 5 5 5 5 5 5 5 5 5 5 5 5 5 5 5 5 5 5 5 5 5 5 5 5 5 5 5 5 5 5 5 5 5 5 5 5 5 5 5 5 5 5 5 5 5 5 5 5 5 5 5 5 5 5 5 5 5 5 5 5 5 5 5 5 5 5 5 5 5 5 5 5 5 5 5 5 5 5 5 5 5 5 5 5 5 5 5 5 5 5 5 5 5 5 5 5 5 5 5 5 5 5 5 5 5 5 5 5 5 5 5 5 5 5 5 5 5 5 5 5 5 5 5 5 5 5 5 5 5 5 5 5 5 5 5 5 5 5 5 5 5 5 5 5 5 5 5 5 5 5 5 5 5 5 5 5 5 5 5 5 5 5 5 5 5 5 5 5 5 5 5 5 5 5 5 5 5 5 5 5 5 5 5 5 5 5 5 5 5 5 5 5 5 5 5 5 5 5 5 5 5 5 5 5 5 5 5 5 5 5 5 5 5 5 5 5 5 5 5 5 5 5 5 5 5 5 5 5 5 5 5 5 5 5 5 5 5 5 5 5 5 5 5 5 5 5 5 5 5 5 5 5 5 5 5 5 5 5 5 5 5 5 5 5 5 5 5 5 5 5 5 5 5 5 5 5 5 5 5 5 5 5 5 5 5 5 5 5 5 5 5 5 5 5 5 5 5 5 5 5 5 5 5 5 5 5 5 5 5 5 5 5 5 5 5 5 5 5 5 5 5 5 5 5 5 5 5 5 5 5 5 5 5 5 5 5 5 5 5 5 5 5 5 5 5 5 5 5 5 5 5 5 5 5 5 5 5 5 5 5 5 5 5 5 5 5 5 5 5 5 5 5 5 5 5 5 5 5 5 5 5 5 5 5 5 5 5 5 5 5 5 5 5 5 5 5 5 5 5 5 5 5 5 5 5 5 5 5 5 5 5 5 5 5 5 5 5 5 5 5 5 5 5 5 5 5 5 5 5 5 5 5 5 5 5 5 5 5 5 5 5 5 5 5 5 5 5 5 5 5 5 5 5 5 5 5 5 5 5 5 5 5 5 5 5 5 5 5 5 5 5 5 5 5 5 5 5 5 5 5 5 5 5 5 5 5 5 5 5 5 5 5 5 5 5 5 5 5 5 5 5 5 5 5 5 5 5 5 5 5 5 5 5 5 5 5 5 5 5 5 5 5 5 5 5 5 5 5 5 5 5 5 5 5 5 5 5 5 5 5 5 5 5 5 5 5 5 5 5 5 5 5 5 5 5 5 5 5 5 5 5 5 5 5 5 5 5 5 5 5 5 5 5 5 5 5 5 5 5 5 5 5 5 5 5 5 5 5 5 5 5 5 5 5 5 5 5 5 5 5 5 5 5 5 5 5 5 5 5 5 5 5 5 5 5 5 5 5 5 5 5 5 5 5 5 5 5 5 5 5 5 5 5 5 5 5 5 5 5 5 5 5 5 5 5 5 5 5 5 5 5 5 5 5 5 5 5 5 5 5 5 5 5 5 5 5 5 5 5 5 5 5 5 5 5 5 5 5 5 5 5 5 5 5 5 5 5 5 5 5 5 5 5 5 5 5 5 5 5 5 5 5 5 5 5 5 5 5 5 5 5 5 5 5 5 5 5 5 5 5 5 5 5 5 5 5 5 5 5 5 5 5 5 5 5 5 5 5 5 5 5 5 5 5 5 5 5 5 5 5 5 5 5 5 5 5 5 5 5 5 5 5 5 5 5 5 5 5 5 5 5 5 5 5 5 5 5 5 5 5 5 5 5 5 5 5 5 5 5 5 5 5 5 5 5 5 5 5 5 5 5 5 5 5 5 5 5 5 5 5 5 5 5 5 5 5 5 5 5 5 5 5 5 5 5 5 5 5 5 5 5 5 5 5 5 5 5 5 5 5 5 5 5 5 5 5 5 5 5 5 5 5 5 5 5 5 5 5 5 5 5 5 5 5 5 5 5 5 5 5 5 5 5 5 5 5 5 5 5 5 5 5 5 5 5 5 5 5 5 5 5 5 5 5 5 5 5 5 5 5 5 5 5 5 5 5 5 5 5 5 5 5 5 5 5 5 5 5 5 5 5 5 5 5 5 5 5 5 5 5 5 5 5 5 5 5 5 5 5 5 5 5 5 5 5 5 5 5 5 5 5 5 5 5 5 5 5 5 5 5 5 5 5 5 5 5 5 5 5 5 5 5 5 5 5 5 5 5 5 5 5 5 5 5 5 5 5 5 5 5 5 5 5 5 5 5 5 5 5 5 5 5 5 5 5 5 5 5 5 5 5 5 5 5 5 5 5 5 5 5 5 5 5 5 5 5 5 5 5 5 5 5 5 5 5 5 5 5 5 5 5 5 5 5 5 5 5 5 5 5 5 5 5 5 5 5 5 5 5 5 5 5 5 5 5 5 5 5 5 5 5 5 5 5 5 5 5 5 5 5 5 5 5 5 5 5 5 5 5 5 5 5 5 5 5 5 5 5 5 5 5 5 5 5 5 5 5 5 5 5 5 5 5 5 5 5 5 5 5 5 5 5 5 5 5 5 5 5 5 5 5 5 5 5 5 5 5 5 5 5 5 5 5 5 5 5 5 5 5 5 5 5 5 5 5 5 5 5 5 5 5 5 5 5 5 5 5 5 5 5 5 5 5 5 5 5 5 5 5 5 5 5 5 5 5 5 5 5 5 5 5 5 5 5 5 5 5 5 5 5 5 5 5 5 5 5 5 5 5 5 5 5 5 5 5 5 5 5 5 5 5 5 5 5 5 5 5 5 5 5 5 5 5 5 5 5 5 5 5 5 5 5 5 5 5 5 5 5 5 5 5 5 5 5 5 5 5 5 5 5 5 5 5 5 5 5 5 5 5 5 5 5 5 5 5 5 5 5 5 5 5 5 5 5 5 5 5 5 5 5 5 5 5 5 5 5 5 5 5 5 5 5 5 5 5 5 5 5 5 5 5 5 5 5 5 5 5 5 5 5 5 5 5 5 5 5 5 5 5 5 5 5 5 5 5 5 5 5 5 5 5 5 5 5 5 5 5 5 5 5 5 5 5 5 5 5 5 5 5 5 5 5 5 5 5 5 5 5 5 5 5 5 5 5 5 5 5 5 5 5 5 5 5 5 5 5 5 5 5 5 5 5 5 5 5 5 5 5 5 5 5 5 5 5 5 5 5 5 5 5 5 5 5 5 5 5 5 5 5 5 5 5 5 5 5 5 5 5 5 5 5 5 5 5 5 5 5 5 5 5 5 5 5 5 5 5 5 5 5 5 5 5 5 5 5 5 5 5 5 5 5 5 5 5 5 5 5 5 5 5 5 5 5 5 5 5 5 5 5 5 5 5 5 5 5 5 5 5 5 5 5 5 5 5 5 5 5 5 5 5 5 5 5 5 5 5 5 5 5 5 5 5 5 5 5 5 5 5 5 5 5 5 5 5 5 5 5 5 5 5 5 5 5 5 5 5 5 5 5 5 5 5 5 5 5 5 5 5 5 5 5 5 5 5 5 5 5 5 5 5 5 5 5 5 5 5 5 5 5 5 5 5 5 5 5 5 5 5 5 5 5 5 5 5 5 5 5 5 5 5 5 5 5 5 5 5 5 5 5 5 5 5 5 5 5 5 5 5 5 5 5 5 5 5 5 5 5 5 5 5 5 5 5 5 5 5 5 5 5 5 5 5 5 5 5 5 5 5 5 5 5 5 5 5 5 5 5 5 5 5 5 5 5 5 5 5 5 5 5 5 5 5 5 5 5 5 5 5 5 5 5 5 5 5 5 5 5 5 5 5 5 5 5 5 5 5 5 5 5 5 5 5 5 5 5 5 5 5 5 5 5 5 5 5 5 5 5 5 5 5 5 5 5 5 5 5 5 5 5 5 5 5 5 5 5 5 5 5 5 5 5 5 5 5 5 5 5 5 5 5 5 5 5 5 5 5 5 5 5 5 5 5 5 5 5 5 5 5 5 5 5 5 5 5 5 5 5 5 5 5 5 5 5 5 5 5 5 5 5 5 5 5 5 5 5 5 5 5 5 5 5 5 5 5 5 5 5 5 5 5 5 5 5 5 5 5 5 5 5 5 5 5 5 5 5 5 5 5 5 5 5 5 5 5 5 5 5 5 5 5 5 5 5 5 5 5 5 5 5 5 5 5 5 5 5 5 5 5 5 5 5 5 5 5 5 5 5 5 5 5 5 5 5 5 5 5 5 5 5 5 5 5 5 5 5 5 5 5 5 5 5 5 5 5 5 5 5 5 5 5 5 5 5 5 5 5 5 5 5 5 5 5 5 5 5 5 5 5 5 5 5 5 5 5 5 5 5 5 5 5 5 5 5 5 5 5 5 5 5 5 5 5 5 5 5 5 5 5 5 5 5 5 5 5 5 5 5 5 5 5 5 5 5 5 5 5 5 5 5 5 5 5 5 5 5 5 5 5 5 5 5 5 5 5 5 5 5 5 5 5 5 5 5 5 5 5 5 5 5 5 5 5 5 5 5 5 5 5 5 5 5 5 5 5 5 5 5 5 5 5 5 5 5 5 5 5 5 5 5 5 5 5 5 5 5 5 5 5 5 5 5 5 5 5 5 5 5 5 5 5 5 5 5 5 5 5 5 5 5 5 5 5 5 5 5 5 5 5 5 5 5 5 5 5 5 5 5 5 5 5 5 5 5 5 5 5 5 5 5 5 5 5 5 5 5 5 5 5 5 5 5 5 5 5 5 5 5 5 5 5 5 5 5 5 5 5 5 5 5 5 5 5 5 5 5 5 5 5 5 5 5 5 5 5 5 5 5 5 5 5 5 5 5 5 5 5 5 5 5 5 5 5 5 5 5 5 5 5 5 5 5 5 5 5 5 5 5 5 5 5 5 5 5 5 5 5 5 5 5 5 5 5 5 5 5 5 5 5 5 5 5 5 5 5 5 5 5 5 5 5 5 5 5 5 5 5 5 5 5 5 5 5 5 5 5 5 5 5 5 5 5 5 5 5 5 5 5 5 5 5 5 5 5 5 5 5 5 5 5 5 5 5 5 5 5 5 5 5 5 5 5 5 5 5 5 5 5 5 5 5 5 5 5 5 5 5 5 5 5 5 5 5 5 5 5 5 5 5 5 5 5 5 5 5 5 5 5 5 5 5 5 5 5 5 5 5 5 5 5 5 5 5 5 5 5 5 5 5 5 5 5 5 5 5 5 5 5 5 5 5 5 5 5 5 5 5 5 5 5 5 5 5 5 5 5 5 5 5 5 5 5 5 5 5 5 5 5 5 5 5 5 5 5 5 5 5 5 5 5 5 5 5 5 5 5 5 5 5 5 5 5 5 5 5 5 5 5 5 5 5 5 5 5 5 5 5 5 5 5 5 5 5 5 5 5 5 5 5 5 5 5 5 5 5 5 5 5 5 5 5 5 5 5 5 5 5 5 5 5 5 5 5 5 5 5 5 5 5 5 5 5 5 5 5 5 5 5 5 5 5 5 5 5 5 5 5 5 5 5 5 5 5 5 5 5 5 5 5 5 5 5 5 5 5 5 5 5 5 5 5 5 5 5 5 5 5 5 5 5 5 5 5 5 5 5 5 5 5 5 5 5 5 5 5 5 5 5 5 5 5 5 5 5 5 5 5 5 5 5 5 5 5 5 5 5 5 5 5 5 5 5 5 5 5 5 5 5 5 5 5 5 5 5 5 5 5 5 5 5 5 5 5 5 5 5 5 5 5 5 5 5 5 5 5 5 5 5 5 5 5 5 5 5 5 5 5 5 5 5 5 5 5 5 5 5 5 5 5 5 5 5 5 5 5 5 5 5 5 5 5 5 5 5 5 5 5 5 5 5 5 5 5 5 5 5 5 5 5 5 5 5 5 5 5 5 5 5 5 5 5 5 5 5 5 5 5 5 5 5 5 5 5 5 5 5 5 5 5 5 5 5 5 5 5 5 5 5 5 5 5 5 5 5 5 5 5 5 5 5 5 5 5 5 5 5 5 5 5 5 5 5 5 5 5 5 5 5 5 5 5 5 5 5 5 5 5 5 5 5 5 5 5 5 5 5 5 5 5 5 5 5 5 5 5 5 5 5 5 5 5 5 5 5 5 5 5 5 5 5 5 5 5 5 5 5 5 5 5 5 5 5 5 5 5 5 5 5 5 5 5 5 5 5 5 5 5 5 5 5 5 5 5 5 5 5 5 5 5 5 5 5 5 5 5 5 5 5 5 5 5 5 5 5 5 5 5 5 5 5 5 5 5 5 5 5 5 5 5 5 5 5 5 5 5 5 5 5 5 5 5 5 5 5 5 5 5 5 5 5 5 5 5 5 5 5 5 5 5 5 5 5 5 5 5 5 5 5 5 5 5 5 5 5 5 5 5 5 5 5 5 5 5 5 5 5 5 5 5 5 5 5 5 5 5 5 5 5 5 5 5 5 5 5 5 5 5 5 5 5 5 5 5 5 5 5 5 5 5 5 5 5 5 5 5 5 5 5 5 5 5 5 5 5 5 5 5 5 5 5 5 5 5 5 5 5 5 5 5 5 5 5 5 5 5 5 5 5 5 5 5 5 5 5 5 5 5 5 5 5 5 5 5 5 5 5 5 5 5 5 5 5 5 5 5 5 5 5 5 5 5 5 5 5 5 5 5 5 5 5 5 5 5 5 5 5 5 5 5 5 5 5 5 5 5 5 5 5 5 5 5 5 5 5 5 5 5 5 5 5 5 5 5 5 5 5 5 5 5 5 5 5 5 5 5 5 5 5 5 5 5 5 5 5 5 5 5 5 5 5 5 5 5 5 5 5 5 5 5 5 5 5 5 5 5 5 5 5 5 5 5 5 5 5 5 5 5 5 5 5 5 5 5 5 5 5 5 5 5 5 5 5 5 5 5 5 5 5 5 5 5 5 5 5 5 5 5 5 5 5 5 5 5 5 5 5 5 5 5 5 5 5 5 5 5 5 5 5 5 5 5 5 5 5 5 5 5 5 5 5 5 5 5 5 5 5 5 5 5 5 5 5 5 5 5 5 5 5 5 5 5 5 5 5 5 5 5 5 5 5 5 5 5 5 5 5 5 5 5 5 5 5 5 5 5 5 5 5 5 5 5 5 5 5 5 5 5 5 5 5 5 5 5 5 5 5 5 5 5 5 5 5 5 5 5 5 5 5 5 5 5 5 5 5 5 5 5 5 5 5 5 5 5 5 5 5 5 5 5 5 5 5 5 5 5 5 5 5 5 5 5 5 5 5 5 5 5 5 5 5 5 5 5 5 5 5 5 5 5 5 5 5 5 5 5 5 5 5 5 5 5 5 5 5 5 5 5 5 5 5 5 5 5 5 5 5 5 5 5 5 5 5 5 5 5 5 5 5 5 5 5 5 5 5 5 5 5 5 5 5 5 5 5 5 5 5 5 5 5 5 5 5 5 5 5 5 5 5 5 5 5 5 5 5 5 5 5 5 5 5 5 5 5 5 5 5 5 5 5 5 5 5 5 5 5 5 5 5 5 5 5 5 5 5 5 5 5 5 5 5 5 5 5 5 5 5 5 5 5 5 5 5 5 5 5 5 5 5 5 5 5 5 5 5 5 5 5 5 5 5 5 5 5 5 5 5 5 5 5 5 5 5 5 5 5 5 5 5 5 5 5 5 5 5 5 5 5 5 5 5 5 5 5 5 5 5 5 5 5 5 5 5 5 5 5 5 5 5 5 5 5 5 5 5 5 5 5 5 5 5 5 5 5 5 5 5 5 5 5 5 5 5 5 5 5 5 5 5 5 5 5 5 5 5 5 5 5 5 5 5 5 5 5 5 5 5 5 5 5 5 5 5 5 5 5 5 5 5 5 5 5 5 5 5 5 5 5 5 5 5 5 5 5 5 5 5 5 5 5 5 5 5 5 5 5 5 5 5 5 5 5 5 5 5 5 5 5 5 5 5 5 5 5 5 5 5 5 5 5 5 5 5 5 5 5 5 5 5 5 5 5 5 5 5 5 5 5 5 5 5 5 5 5 5 5 5 5 5 5 5 5 5 5 5 5 5 5 5 5 5 5 5 5 5 5 5 5 5 5 5 5 5 5 5 5 5 5 5 5 5 5 5 5 5 5 5 5 5 5 5 5 5 5 5 5 5 5 5 5 5 5 5 5 5 5 5 5 5 5 5 5 5 5 5 5 5 5 5 5 5 5 5 5 5 5 5 5 5 5 5 5 5 5 5 5 5 5 5 5 5 5 5 5 5 5 5 5 5 5 5 5 5 5 5 5 5 5 5 5 5 5 5 5 5 5 5 5 5 5 5 5 5 5 5 5 5 5 5 5 5 5 5 5 5 5 5 5 5 5 5 5 5 5 5 5 5 5 5 5 5 5 5 5 5 5 5 5 5 5 5 5 5 5 5 5 5 5 5 5 5 5 5 5 5 5 5 5 5 5 5 5 5 5 5 5 5 5 5 5 5 5 5 5 5 5 5 5 5 5 5 5 5 5 5 5 5 5 5 5 5 5 5 5 5 5 5 5 5 5 5 5 5 5 5 5 5 5 5 5 5 5 5 5 5 5 5 5 5 5 5 5 5 5 5 5 5 5 5 5 5 5 5 5 5 5 5 5 5 5 5 5 5 5 5 5 5 5 5 5 5 5 5 5 5 5 5 5 5 5 5 5 5 5 5 5 5 5 5 5 5 5 5 5 5 5 5 5 5 5 5 5 5 5 5 5 5 5 5 5 5 5 5 5 5 5 5 5 5 5 5 5 5 5 5 5 5 5 5 5 5 5 5 5 5 5 5 5 5 5 5 5 5 5 5 5 5 5 5 5 5 5 5 5 5 5 5 5 5 5 5 5 5 5 5 5 5 5 5 5 5 5 5 5 5 5 5 5 5 5 5 5 5 5 5 5 5 5 5 5 5 5 5 5 5 5 5 5 5 5 5 5 5 5 5 5 5 5 5 5 5 5 5 5 5 5 5 5 5 5 5 5 5 5 5 5 5 5 5 5 5 5 5 5 5 5 5 5 5 5 5 5 5 5 5 5 5 5 5 5 5 5 5 5 5 5 5 5 5 5 5 5 5 5 5 5 5 5 5 5 5 5 5 5 5 5 5 5 5 5 5 5 5 5 5 5 5 5 5 5 5 5 5 5 5 5 5 5 5 5 5 5 5 5 5 5 5 5 5 5 5 5 5 5 5 5 5 5 5 5 5 5 5 5 5 5 5 5 5 5 5 5 5 5 5 5 5 5 5 5 5 5 5 5 5 5 5 5 5 5 5 5 5 5 5 5 5 5 5 5 5 5 5 5 5 5 5 5 5 5 5 5 5 5 5 5 5 5 5 5 5 5 5 5 5 5 5 5 5 5 5 5 5 5 5 5 5 5 5 5 5 5 5 5 5 5 5 5 5 5 5 5 5 5 5 5 5 5 5 5 5 5 5 5 5 5 5 5 5 5 5 5 5 5 5 5 5 5 5 5 5 5 5 5 5 5 5 5 5 5 5 5 5 5 5 5 5 5 5 5 5 5 5 5 5 5 5 5 5 5 5 5 5 5 5 5 5 5 5 5 5 5 5 5 5 5 5 5 5 5 5 5 5 5 5 5 5 5 5 5 5 5 5 5 5 5 5 5 5 5 5 5 5 5 5 5 5 5 5 5 5 5 5 5 5 5 5 5 5 5 5 5 5 5 5 5 5 5 5 5 5 5 5 5 5 5 5 5 5 5 5 5 5 5 5 5 5 5 5 5 5 5 5 5 5 5 5 5 5 5 5 5 5 5 5 5 5 5 5 5 5 5 5 5 5 5 5 5 5 5 5 5 5 5 5 5 5 5 5 5 5 5 5 5 5 5 5 5 5 5 5 5 5 5 5 5 5 5 5 5 5 5 5 5 5 5 5 5 5 5 5 5 5 5 5 5 5 5 5 5 5 5 5 5 5 5 5 5 5 5 5 5 5 5 5 5 5 5 5 5 5 5 5 5 5 5 5 5 5 5 5 5 5 5 5 5 5 5 5 5 5 5 5 5 5 5 5 5 5 5 5 5 5 5 5 5 5 5 5 5 5 5 5 5 5 5 5 5 5 5 5 5 5 5 5 5 5 5 5 5 5 5 5 5 5 5 5 5 5 5 5 5 5 5 5 5 5 5 5 5 5 5 5 5 5 5 5 5 5 5 5 5 5 5 5 5 5 5 5 5 5 5 5 5 5 5 5 5 5 5 5 5 5 5 5 5 5 5 5 5 5 5 5 5 5 5 5 5 5 5 5 5 5 5 5 5 5 5 5 5 5 5 5 5 5 5 5 5 5 5 5 5 5 5 5 5 5 5 5 5 5 5 5 5 5 5 5 5 5 5 5 5 5 5 5 5 5 5 5 5 5 5 5 5 5 5 5 5 5 5 5 5 5 5 5 5 5 5 5 5 5 5 5 5 5 5 5 5 5 5 5 5 5 5 5 5 5 5 5 5 5 5 5 5 5 5 5 5 5 5 5 5 5 5 5 5 5 5 5 5 5 5 5 5 5 5 5 5 5 5 5 5 5 5 5 5 5 5 5 5 5 5 5 5 5 5 5 5 5 5 5 5 5 5 5 5 5 5 5 5 5 5 5 5 5 5 5 5 5 5 5 5 5 5 5 5 5 5 5 5 5 5 5 5 5 5 5 5 5 5 5 5 5 5 5 5 5 5 5 5 5 5 5 5 5 5 5 5 5 5 5 5 5 5 5 5 5 5 5 5 5 5 5 5 5 5 5 5 5 5 5 5 5 5 5 5 5 5 5 5 5 5 5 5 5 5 5 5 5 5 5 5 5 5 5 5 5 5 5 5 5 5 5 5 5 5 5 5 5 5 5 5 5 5 5 5 5 5 5 5 5 5 5 5 5 5 5 5 5 5 5 5 5 5 5 5 5 5 5 5 5 5 5 5 5 5 5 5 5 5 5 5 5 5 5 5 5 5 5 5 5 5 5 5 5 5 5 5 5 5 5 5 5 5 5 5 5 5 5 5 5 5 5 5 5 5 5 5 5 5 5 5 5 5 5 5 5 5 5 5 5 5 5 5 5 5 5 5 5 5 5 5 5 5 5 5 5 5 5 5 5 5 5 5 5 5 5 5 5 5 5 5 5 5 5 5 5 5 5 5 5 5 5 5 5 5 5 5 5 5 5 5 5 5 5 5 5 5 5 5 5 5 5 5 5 5 5 5 5 5 5 5 5 5 5 5 5 5 5 5 5 5 5 5 5 5 5 5 5 5 5 5 5 5 5 5 5 5 5 5 5 5 5 5 5 5 5 5 5 5 5 5 5 5 5 5 5 5 5 5 5 5 5 5 5 5 5 5 5 5 5 5 5 5 5 5 5 5 5 5 5 5 5 5 5 5 5 5 5 5 5 5 5 5 5 5 5 5 5 5 5 5 5 5 5 5 5 5 5 5 5 5 5 5 5 5 5 5 5 5 5 5 5 5 5 5 5 5 5 5 5 5 5 5 5 5 5 5 5 5 5 5 5 5 5 5 5 5 5 5 5 5 5 5 5 5 5 5 5 5 5 5 5 5 5 5 5 5 5 5 5 5 5 5 5 5 5 5 5 5 5 5 5 5 5 5 5 5 5 5 5 5 5 5 5 5 5 5 5 5 5 5 5 5 5 5 5 5 5 5 5 5 5 5 5 5 5 5 5 5 5 5 5 5 5 5 5 5 5 5 5 5 5 5 5 5 5 5 5 5 5 5 5 5 5 5 5 5 5 5 5 5 5 5 5 5 5 5 5 5 5 5 5 5 5 5 5 5 5 5 5 5 5 5 5 5 5 5 5 5 5 5 5 5 5 5 5 5 5 5 5 5 5 5 5 5 5 5 5 5 5 5 5 5 5 5 5 5 5 5 5 5 5 5 5 5 5 5 5 5 5 5 5 5 5 5 5 5 5 5 5 5 5 5 5 5 5 5 5 5 5 5 5 5 5 5 5 5 5 5 5 5 5 5 5 5 5 5 5 5 5 5 5 5 5 5 5 5 5 5 5 5 5 5 5 5 5 5 5 5 5 5 5 5 5 5 5 5 5 5 5 5 5 5 5 5 5 5 5 5 5 5 5 5 5 5 5 5 5 5 5 5 5 5 5 5 5 5 5 5 5 5 5 5 5 5 5 5 5 5 5 5 5 5 5 5 5 5 5 5 5 5 5 5 5 5 5 5 5 5 5 5 5 5 5 5 5 5 5 5 5 5 5 5 5 5 5 5 5 5 5 5 5 5 5 5 5 5 5 5 5 5 5 5 5 5 5 5 5 5 5 5 5 5 5 5 5 5 5 5 5 5 5 5 5 5 5 5 5 5 5 5 5 5 5 5 5 5 5 5 5 5 5 5 5 5 5 5 5 5 5 5 5 5 5 5 5 5 5 5 5 5 5 5 5 5 5 5 5 5 5 5 5 5 5 5 5 5 5 5 5 5 5 5 5 5 5 5 5 5 5 5 5 5 5 5 5 5 5 5 5 5 5 5 5 5 5 5 5 5 5 5 5 5 5 5 5 5 5 5 5 5 5 5 5 5 5 5 5 5 5 5 5 5 5 5 5 5 5 5 5 5 5 5 5 5 5 5 5 5 5 5 5 5 5 5 5 5 5 5 5 5 5 5 5 5 5 5 5 5 5 5 5 5 5 5 5 5 5 5 5 5 5 5 5 5 5 5 5 5 5 5 5 5 5 5 5 5 5 5 5 5 5 5 5 5 5 5 5 5 5 5 5 5 5 5 5 5 5 5 5 5 5 5 5 5 5 5 5 5 5 5 5 5 5 5 5 5 5 5 5 5 5 5 5 5 5 5 5 5 5 5 5 5 5 5 5 5 5 5 5 5 5 5 5 5 5 5 5 5 5 5 5 5 5 5 5 5 5 5 5 5 5 5 5 5 5 5 5 5 5 5 5 5 5 5 5 5 5 5 5 5 5 5 5 5 5 5 5 5 5 5 5 5 5 5 5 5 5 5 5 5 5 5 5 5 5 5 5 5 5 5 5 5 5 5 5 5 5 5 5 5 5 5 5 5 5 5 5 5 5 5 5 5 5 5 5 5 5 5 5 5 5 5 5 5 5 5 5 5 5 5 5 5 5 5 5 5 5 5 5 5 5 5 5 5 5 5 5 5 5 5 5 5 5 5 5 5 5 5 5 5 5 5 5 5 5 5 5 5 5 5 5 5 5 5 5 5 5 5 5 5 5 5 5 5 5 5 5 5 5 5 5 5 5 5 5 5 5 5 5 5 5 5 5 5 5 5 5 5 5 5 5 5 5 5 5 5 5 5 5 5 5 5 5 5 5 5 5 5 5 5 5 5 5 5 5 5 5 5 5 5 5 5 5 5 5 5 5 5 5 5 5 5 5 5 5 5 5 5 5 5 5 5 5 5 5 5 5 5 5 5 5 5 5 5 5 5 5 5 5 5 5 5 5 5 5 5 5 5 5 5 5 5 5 5 5 5 5 5 5 5 5 5 5 5 5 5 5 5 5 5 5 5 5 5 5 5 5 5 5 5 5 5 5 5 5 5 5 5 5 5 5 5 5 5 5 5 5 5 5 5 5 5 5 5 5 5 5 5 5 5 5 5 5 5 5 5 5 5 5 5 5 5 5 5 5 5 5 5 5 5 5 5 5 5 5 5 5 5 5 5 5 5 5 5 5 5 5 5 5 5 5 5 5 5 5 5 5 5 5 5 5 5 5 5 5 5 5 5 5 5 5 5 5 5 5 5 5 5 5 5 5 5 5 5 5 5 5 5 5 5 5 5 5 5 5 5 5 5 5 5 5 5 5 5 5 5 5 5 5 5 5 5 5 5 5 5 5 5 5 5 5 5 5 5 5 5 5 5 5 5 5 5 5 5 5 5 5 5 5 5 5 5 5 5 5 5 5 5 5 5 5 5 5 5 5 5 5 5 5 5 5 5 5 5 5 5 5 5 5 5 5 5 5 5 5 5 5 5 5 5 5 5 5 5 5 5 5 5 5 5 5 5 5 5 5 5 5 5 5 5 5 5 5 5 5 5 5 5 5 5 5 5 5 5 5 5 5 5 5 5 5 5 5 5 5 5 5 5 5 5 5 5 5 5 5 5 5 5 5 5 5 5 5 5 5 5 5 5 5 5 5 5 5 5 5 5 5 5 5 5 5 5 5 5 5 5 5 5 5 5 5 5 5 5 5 5 5 5 5 5 5 5 5 5 5 5 5 5 5 5 5 5 5 5 5 5 5 5 5 5 5 5 5 5 5 5 5 5 5 5 5 5 5 5 5 5 5 5 5 5 5 5 5 5 5 5 5 5 5 5 5 5 5 5 5 5 5 5 5 5 5 5 5 5 5 5 5 5 5 5 5 5 5 5 5 5 5 5 5 5 5 5 5 5 5 5 5 5 5 5 5 5 5 5 5 5 5 5 5 5 5 5 5 5 5 5 5 5 5 5 5 5 5 5 5 5 5 5 5 5 5 5 5 5 5 5 5 5 5 5 5 5 5 5 5 5 5 5 5 5 5 5 5 5 5 5 5 5 5 5 5 5 5 5 5 5 5 5 5 5 5 5 5 5 5 5 5 5 5 5 5 5 5 5 5 5 5 5 5 5 5 5 5 5 5 5 5 5 5 5 5 5 5 5 5 5 5 5 5 5 5 5 5 5 5 5 5 5 5 5 5 5 5 5 5 5 5 5 5 5 5 5 5 5 5 5 5 5 5 5 5 5 5 5 5 5 5 5 5 5 5 5 5 5 5 5 5 5 5 5 5 5 5 5 5 5 5 5 5 5 5 5 5 5 5 5 5 5 5 5 5 5 5 5 5 5 5 5 5 5 5 5 5 5 5 5 5 5 5 5 5 5 5 5 5 5 5 5 5 5 5 5 5 5 5 5 5 5 5 5 5 5 5 5 5 5 5 5 5 5 5 5 5 5 5 5 5 5 5 5 5 5 5 5 5 5 5 5 5 5 5 5 5 5 5 5 5 5 5 5 5 5 5 5 5 5 5 5 5 5 5 5 5 5 5 5 5 5 5 5 5 5 5 5 5 5 5 5 5 5 5 5 5 5 5 5 5 5 5 5 5 5 5 5 5 5 5 5 5 5 5 5 5 5 5 5 5 5 5 5 5 5 5 5 5 5 5 5 5 5 5 5 5 5 5 5 5 5 5 5 5 5 5 5 5 5 5 5 5 5 5 5 5 5 5 5 5 5 5 5 5 5 5 5 5 5 5 5 5 5 5 5 5 5 5 5 5 5 5 5 5 5 5 5 5 5 5 5 5 5 5 5 5 5 5 5 5 5 5 5 5 5 5 5 5 5 5 5 5 5 5 5 5 5 5 5 5 5 5 5 5 5 5 5 5 5 5 5 5 5 5 5 5 5 5 5 5 5 5 5 5 5 5 5 5 5 5 5 5 5 5 5 5 5 5 5 5 5 5 5 5 5 5 5 5 5 5 5 5 5 5 5 5 5 5 5 5 5 5 5 5 5 5 5 5 5 5 5 5 5 5 5 5 5 5 5 5 5 5 5 5 5 5 5 5 5 5 5 5 5 5 5 5 5 5 5 5 5 5 5 5 5 5 5 5 5 5 5 5 5 5 5 5 5 5 5 5 5 5 5 5 5 5 5 5 5 5 5 5 5 5 5 5 5 5 5 5 5 5 5 5 5 5 5 5 5 5 5 5 5 5 5 5 5 5 5 5 5 5 5 5 5 5 5 5 5 5 5 5 5 5 5 5 5 5 5 5 5 5 5 5 5 5 5 5 5 5 5 5 5 5 5 5 5 5 5 5 5 5 5 5 5 5 5 5 5 5 5 5 5 5 5 5 5 5 5 5 5 5 5 5 5 5 5 5 5 5 5 5 5 5 5 5 5 5 5 5 5 5 5 5 5 5 5 5 5 5 5 5 5 5 5 5 5 5 5 5 5 5 5 5 5 5 5 5 5 5 5 5 5 5 5 5 5 5 5 5 5 5 5 5 5 5 5 5 5 5 5 5 5 5 5 5 5 5 5 5 5 5 5 5 5 5 5 5 5 5 5 5 5 5 5 5 5 5 5 5 5 5 5 5 5 5 5 5 5 5 5 5 5 5 5 5 5 5 5 5 5 5 5 5 5 5 5 5 5 5 5 5 5 5 5 5 5 5 5 5 5 5 5 5 5 5 5 5 5 5 5 5 5 5 5 5 5 5 5 5 5 5 5 5 5 5 5 5 5 5 5 5 5 5 5 5 5 5 5 5 5 5 5 5 5 5 5 5 5 5 5 5 5 5 5 5 5 5 5 5 5 5 5 5 5 5 5 5 5 5 5 5 5 5 5 5 5 5 5 5 5 5 5 5 5 5 5 5 5 5 5 5 5 5 5 5 5 5 5 5 5 5 5 5 5 5 5 5 5 5 5 5 5 5 5 5 5 5 5 5 5 5 5 5 5 5 5 5 5 5 5 5 5 5 5 5 5 5 5 5 5 5 5 5 5 5 5 5 5 5 5 5 5 5 5 5 5 5 5 5 5 5 5 5 5 5 5 5 5 5 5 5 5 5 5 5 5 5 5 5 5 5 5 5 5 5 5 5 5 5 5 5 5 5 5 5 5 5 5 5 5 5 5 5 5 5 5 5 5 5 5 5 5 5 5 5 5 5 5 5 5 5 5 5 5 5 5 5 5 5 5 5 5 5 5 5 5 5 5 5 5 5 5 5 5 5 5 5 5 5 5 5 5 5 5 5 5 5 5 5 5 5 5 5 5 5 5 5 5 5 5 5 5 5 5 5 5 5 5 5 5 5 5 5 5 5 5 5 5 5 5 5 5 5 5 5 5 5 5 5 5 5 5 5 5 5 5 5 5 5 5 5 5 5 5 5 5 5 5 5 5 5 5 5 5 5 5 5 5 5 5 5 5 5 5 5 5 5 5 5 5 5 5 5 5 5 5 5 5 5 5 5 5 5 5 5 5 5 5 5 5 5 5 5 5 5 5 5 5 5 5 5 5 5 5 5 5 5 5 5 5 5 5 5 5 5 5 5 5 5 5 5 5 5 5 5 5 5 5 5 5 5 5 5 5 5 5 5 5 5 5 5 5 5 5 5 5 5 5 5 5 5 5 5 5 5 5 5 5 5 5 5 5 5 5 5 5 5 5 5 5 5 5 5 5 5 5 5 5 5 5 5 5 5 5 5 5 5 5 5 5 5 5 5 5 5 5 5 5 5 5 5 5 5 5 5 5 5 5 5 5 5 5 5 5 5 5 5 5 5 5 5 5 5 5 5 5 5 5 5 5 5 5 5 5 5 5 5 5 5 5 5 5 5 5 5 5 5 5 5 5 5 5 5 5 5 5 5 5 5 5 5 5 5 5 5 5 5 5 5 5 5 5 5 5 5 5 5 5 5 5 5 5 5 5 5 5 5 5 5 5 5 5 5 5 5 5 5 5 5 5 5 5 5 5 5 5 5 5 5 5 5 5 5 5 5 5 5 5 5 5 5 5 5 5 5 5 5 5 5 5 5 5 5 5 5 5 5 5 5 5 5 5 5 5 5 5 5 5 5 5 5 5 5 5 5 5 5 5 5 5 5 5 5 5 5 5 5 5 5 5 5 5 5 5 5 5 5 5 5 5 5 5 5 5 5 5 5 5 5 5 5 5 5 5 5 5 5 5 5 5 5 5 5 5 5 5 5 5 5 5 5 5 5 5 5 5 5 5 5 5 5 5 5 5 5 5 5 5 5 5 5 5 5 5 5 5 5 5 5 5 5 5 5 5 5 5 5 5 5 5 5 5 5 5 5 5 5 5 5 5 5 5 5 5 5 5 5 5 5 5 5 5 5 5 5 5 5 5 5 5 5 5 5 5 5 5 5 5 5 5 5 5 5 5 5 5 5 5 5 5 5 5 5 5 5 5 5 5 5 5 5 5 5 5 5 5 5 5 5 5 5 5 5 5 5 5 5 5 5 5 5 5 5 5 5 5 5 5 5 5 5 5 5 5 5 5 5 5 5 5 5 5 5 5 5 5 5 5 5 5 5 5 5 5 5 5 5 5 5 5 5 5 5 5 5 5 5 5 5 5 5 5 5 5 5 5 5 5 5 5 5 5 5 5 5 5 5 5 5 5 5 5 5 5 5 5 5 5 5 5 5 5 5 5 5 5 5 5 5 5 5 5 5 5 5 5 5 5 5 5 5 5 5 5 5 5 5 5 5 5 5 5 5 5 5 5 5 5 5 5 5 5 5 5 5 5 5 5 5 5 5 5 5 5 5 5 5 5 5 5 5 5 5 5 5 5 5 5 5 5 5 5 5 5 5 5 5 5 5 5 5 5 5 5 5 5 5 5 5 5 5 5 5 5 5 5 5 5 5 5 5 5 5 5 5 5 5 5 5 5 5 5 5 5 5 5 5 5 5 5 5 5 5 5 5 5 5 5 5 5 5 5 5 5 5 5 5 5 5 5 5 5 5 5 5 5 5 5 5 5 5 5 5 5 5 5 5 5 5 5 5 5 5 5 5 5 5 5 5 5 5 5 5 5 5 5 5 5 5 5 5 5 5 5 5 5 5 5 5 5 5 5 5 5 5 5 5 5 5 5 5 5 5 5 5 5 5 5 5 5 5 5 5 5 5 5 5 5 5 5 5 5 5 5 5 5 5 5 5 5 5 5 5 5 5 5 5 5 5 5 5 5 5 5 5 5 5 5 5 5 5 5 5 5 5 5 5 5 5 5 5 5 5 5 5 5 5 5 5 5 5 5 5 5 5 5 5 5 5 5 5 5 5 5 5 5 5 5 5 5 5 5 5 5 5 5 5 5 5 5 5 5 5 5 5 5 5 5 5 5 5 5 5 5 5 5 5 5 5 5 5 5 5 5 5 5 5 5 5 5 5 5 5 5 5 5 5 5 5 5 5 5 5 5 5 5 5 5 5 5 5 5 5 5 5 5 5 5 5 5 5 5 5 5 5 5 5 5 5 5 5 5 5 5 5 5 5 5 5 5 5 5 5 5 5 5 5 5 5 5 5 5 5 5 5 5 5 5 5 5 5 5 5 5 5 5 5 5 5 5 5 5 5 5 5 5 5 5 5 5 5 5 5 5 5 5 5 5 5 5 5 5 5 5 5 5 5 5 5 5 5 5 5 5 5 5 5 5 5 5 5 5 5 5 5 5 5 5 5 5 5 5 5 5 5 5 5 5 5 5 5 5 5 5 5 5 5 5 5 5 5 5 5 5 5 5 5 5 5 5 5 5 5 5 5 5 5 5 5 5 5 5 5 5 5 5 5 5 5 5 5 5 5 5 5 5 5 5 5 5 5 5 5 5 5 5 5 5 5 5 5 5 5 5 5 5 5 5 5 5 5 5 5 5 5 5 5 5 5 5 5 5 5 5 5 5 5 5 5 5 5 5 5 5 5 5 5 5 5 5 5 5 5 5 5 5 5 5 5 5 5 5 5 5 5 5 5 5 5 5 5 5 5 5 5 5 5 5 5 5 5 5 5 5 5 5 5 5 5 5 5 5 5 5 5 5 5 5 5 5 5 5 5 5 5 5 5 5 5 5 5 5 5 5 5 5 5 5 5 5 5 5 5 5 5 5 5 5 5 5 5 5 5 5 5 5 5 5 5 5 5 5 5 5 5 5 5 5 5 5 5 5 5 5 5 5 5 5 5 5 5 5 5 5 5 5 5 5 5 5 5 5 5 5 5 5 5 5 5 5 5 5 5 5 5 5 5 5 5 5 5 5 5 5 5 5 5 5 5 5 5 5 5 5 5 5 5 5 5 5 5 5 5 5 5 5 5 5 5 5 5 5 5 5 5 5 5 5 5 5 5 5 5 5 5 5 5 5 5 5 5 5 5 5 5 5 5 5 5 5 5 5 5 5 5 5 5 5 5 5 5 5 5 5 5 5 5 5 5 5 5 5 5 5 5 5 5 5 5 5 5 5 5 5 5 5 5 5 5 5 5 5 5 5 5 5 5 5 5 5 5 5 5 5 5 5 5 5 5 5 5 5 5 5 5 5 5 5 5 5 5 5 5 5 5 5 5 5 5 5 5 5 5 5 5 5 5 5 5 5 5 5 5 5 5 5 5 5 5 5 5 5 5 5 5 5 5 5 5 5 5 5 5 5 5 5 5 5 5 5 5 5 5 5 5 5 5 5 5 5 5 5 5 5 5 5 5 5 5 5 5 5 5 5 5 5 5 5 5 5 5 5 5 5 5 5 5 5 5 5 5 5 5 5 5 5 5 5 5 5 5 5 5 5 5 5 5 5 5 5 5 5 5 5 5 5 5 5 5 5 5 5 5 5 5 5 5 5 5 5 5 5 5 5 5 5 5 5 5 5 5 5 5 5 5 5 5 5 5 5 5 5 5 5 5 5 5 5 5 5 5 5 5 5 5 5 5 5 5 5 5 5 5 5 5 5 5 5 5 5 5 5 5 5 5 5 5 5 5 5 5 5 5 5 5 5 5 5 5 5 5 5 5 5 5 5 5 5 5 5 5 5 5 5 5 5 5 5 5 5 5 5 5 5 5 5 5 5 5 5 5 5 5 5 5 5 5 5 5 5 5 5 5 5 5 5 5 5 5 5 5 5 5 5 5 5 5 5 5 5 5 5 5 5 5 5 5 5 5 5 5 5 5 5 5 5 5 5 5 5 5 5 5 5 5 5 5 5 5 5 5 5 5 5 5 5 5 5 5 5 5 5 5 5 5 5 5 5 5 5 5 5 5 5 5 5 5 5 5 5 5 5 5 5 5 5 5 5 5 5 5 5 5 5 5 5 5 5 5 5 5 5 5 5 5 5 5 5 5 5 5 5 5 5 5 5 5 5 5 5 5 5 5 5 5 5 5 5 5 5 5 5 5 5 5 5 5 5 5 5 5 5 5 5 5 5 5 5 5 5 5 5 5 5 5 5 5 5 5 5 5 5 5 5 5 5 5 5 5 5 5 5 5 5 5 5 5 5 5 5 5 5 5 5 5 5 5 5 5 5 5 5 5 5 5 5 5 5 5 5 5 5 5 5 5 5 5 5 5 5 5 5 5 5 5 5 5 5 5 5 5 5 5 5 5 5 5 5 5 5 5 5 5 5 5 5 5 5 5 5 5 5 5 5 5 5 5 5 5 5 5 5 5 5 5 5 5 5 5 5 5 5 5 5 5 5 5 5 5 5 5 5 5 5 5 5 5 5 5 5 5 5 5 5 5 5 5 5 5 5 5 5 5 5 5 5 5 5 5 5 5 5 5 5 5 5 5 5 5 5 5 5 5 5 5 5 5 5 5 5 5 5 5 5 5 5 5 5 5 5 5 5 5 5 5 5 5 5 5 5 5 5 5 5 5 5 5 5 5 5 5 5 5 5 5 5 5 5 5 5 5 5 5 5 5 5 5 5 5 5 5 5 5 5 5 5 5 5 5 5 5 5 5 5 5 5 5 5 5 5 5 5 5 5 5 5 5 5 5 5 5 5 5 5 5 5 5 5 5 5 5 5 5 5 5 5 5 5 5 5 5 5 5 5 5 5 5 5 5 5 5 5 5 5 5 5 5 5 5 5 5 5 5 5 5 5 5 5 5 5 5 5 5 5 5 5 5 5 5 5 5 5 5 5 5 5 5 5 5 5 5 5 5 5 5 5 5 5 5 5 5 5 5 5 5 5 5 5 5 5 5 5 5 5 5 5 5 5 5 5 5 5 5 5 5 5 5 5 5 5 5 5 5 5 5 5 5 5 5 5 5 5 5 5 5 5 5 5 5 5 5 5 5 5 5 5 5 5 5 5 5 5 5 5 5 5 5 5 5 5 5 5 5 5 5 5 5 5 5 5 5 5 5 5 5 5 5 5 5 5 5 5 5 5 5 5 5 5 5 5 5 5 5 5 5 5 5 5 5 5 5 5 5 5 5 5 5 5 5 5 5 5 5 5 5 5 5 5 5 5 5 5 5 5 5 5 5 5 5 5 5 5 5 5 5 5 5 5 5 5 5 5 5 5 5 5 5 5 5 5 5 5 5 5 5 5 5 5 5 5 5 5 5 5 5 5 5 5 5 5 5 5 5 5 5 5 5 5 5 5 5 5 5 5 5 5 5 5 5 5 5 5 5 5 5 5 5 5 5 5 5 5 5 5 5 5 5 5 5 5 5 5 5 5 5 5 5 5 5 5 5 5 5 5 5 5 5 5 5 5 5 5 5 5 5 5 5 5 5 5 5 5 5 5 5 5 5 5 5 5 5 5 5 5 5 5 5 5 5 5 5 5 5 5 5 5 5 5 5 5 5 5 5 5 5 5 5 5 5 5 5 5 5 5 5 5 5 5 5 5 5 5 5 5 5 5 5 5 5 5 5 5 5 5 5 5 5 5 5 5 5 5 5 5 5 5 5 5 5 5 5 5 5 5 5 5 5 5 5 5 5 5 5 5 5 5 5 5 5 5 5 5 5 5 5 5 5 5 5 5 5 5 5 5 5 5 5 5 5 5 5 5 5 5 5 5 5 5 5 5 5 5 5 5 5 5 5 5 5 5 5 5 5 5 5 5 5 5 5 5 5 5 5 5 5 5 5 5 5 5 5 5 5 5 5 5 5 5 5 5 5 5 5 5 5 5 5 5 5 5 5 5 5 5 5 5 5 5 5 5 5 5 5 5 5 5 5 5 5 5 5 5 5 5 5 5 5 5 5 5 5 5 5 5 5 5 5 5 5 5 5 5 5 5 5 5 5 5 5 5 5 5 5 5 5 5 5 5 5 5 5 5 5 5 5 5 5 5 5 5 5 5 5 5 5 5 5 5 5 5 5 5 5 5 5 5 5 5 5 5 5 5 5 5 5 5 5 5 5 5 5 5 5 5 5 5 5 5 5 5 5 5 5 5 5 5 5 5 5 5 5 5 5 5 5 5 5 5 5 5 5 5 5 5 5 5 5 5 5 5 5 5 5 5 5 5 5 5 5 5 5 5 5 5 5 5 5 5 5 5 5 5 5 5 5 5 5 5 5 5 5 5 5 5 5 5 5 5 5 5 5 5 5 5 5 5 5 5 5 5 5 5 5 5 5 5 5 5 5 5 5 5 5 5 5 5 5 5 5 5 5 5 5 5 5 5 5 5 5 5 5 5 5 5 5 5 5 5 5 5 5 5 5 5 5 5 5 5 5 5 5 5 5 5 5 5 5 5 5 5 5 5 5 5 5 5 5 5 5 5 5 5 5 5 5 5 5 5 5 5 5 5 5 5 5 5 5 5 5 5 5 5 5 5 5 5 5 5 5 5 5 5 5 5 5 5 5 5 5 5 5 5 5 5 5 5 5 5 5 5 5 5 5 5 5 5 5 5 5 5 5 5 5 5 5 5 5 5 5 5 5 5 5 5 5 5 5 5 5 5 5 5 5 5 5 5 5 5 5 5 5 5 5 5 5 5 5 5 5 5 5 5 5 5 5 5 5 5 5 5 5 5 5 5 5 5 5 5 5 5 5 5 5 5 5 5 5 5 5 5 5 5 5 5 5 5 5 5 5 5 5 5 5 5 5 5 5 5 5 5 5 5 5 5 5 5 5 5 5 5 5 5 5 5 5 5 5 5 5 5 5 5 5 5 5 5 5 5 5 5 5 5 5 5 5 5 5 5 5 5 5 5 5 5 5 5 5 5 5 5 5 5 5 5 5 5 5 5 5 5 5 5 5 5 5 5 5 5 5 5 5 5 5 5 5 5 5 5 5 5 5 5 5 5 5 5 5 5 5 5 5 5 5 5 5 5 5 5 5 5 5 5 5 5 5 5 5 5 5 5 5 5 5 5 5 5 5 5 5 5 5 5 5 5 5 5 5 5 5 5 5 5 5 5 5 5 5 5 5 5 5 5 5 5 5 5 5 5 5 5 5 5 5 5 5 5 5 5 5 5 5 5 5 5 5 5 5 5 5 5 5 5 5 5 5 5 5 5 5 5 5 5 5 5 5 5 5 5 5 5 5 5 5 5 5 5 5 5 5 5 5 5 5 5 5 5 5 5 5 5 5 5 5 5 5 5 5 5 5 5 5 5 5 5 5 5 5 5 5 5 5 5 5 5 5 5 5 5 5 5 5 5 5 5 5 5 5 5 5 5 5 5 5 5 5 5 5 5 5 5 5 5 5 5 5 5 5 5 5 5 5 5 5 5 5 5 5 5 5 5 5 5 5 5 5 5 5 5 5 5 5 5 5 5 5 5 5 5 5 5 5 5 5 5 5 5 5 5 5 5 5 5 5 5 5 5 5 5 5 5 5 5 5 5 5 5 5 5 5 5 5 5 5 5 5 5 5 5 5 5 5 5 5 5 5 5 5 5 5 5 5 5 5 5 5 5 5 5 5 5 5 5 5 5 5 5 5 5 5 5 5 5 5 5 5 5 5 5 5 5 5 5 5 5 5 5 5 5 5 5 5 5 5 5 5 5 5 5 5 5 5 5 5 5 5 5 5 5 5 5 5 5 5 5 5 5 5 5 5 5 5 5 5 5 5 5 5 5 5 5 5 5 5 5 5 5 5 5 5 5 5 5 5 5 5 5 5 5 5 5 5 5 5 5 5 5 5 5 5 5 5 5 5 5 5 5 5 5 5 5 5 5 5 5 5 5 5 5 5 5 5 5 5 5 5 5 5 5 5 5 5 5 5 5 5 5 5 5 5 5 5 5 5 5 5 5 5 5 5 5 5 5 5 5 5 5 5 5 5 5 5 5 5 5 5 5 5 5 5 5 5 5 5 5 5 5 5 5 5 5 5 5 5 5 5 5 5 5 5 5 5 5 5 5 5 5 5 5 5 5 5 5 5 5 5 5 5 5 5 5 5 5 5 5 5 5 5 5 5 5 5 5 5 5 5 5 5 5 5 5 5 5 5 5 5 5 5 5 5 5 5 5 5 5 5 5 5 5 5 5 5 5 5 5 5 5 5 5 5 5 5 5 5 5 5 5 5 5 5 5 5 5 5 5 5 5 5 5 5 5 5 5 5 5 5 5 5 5 5 5 5 5 5 5 5 5 5 5 5 5 5 5 5 5 5 5 5 5 5 5 5 5 5 5 5 5 5 5 5 5 5 5 5 5 5 5 5 5 5 5 5 5 5 5 5 5 5 5 5 5 5 5 5 5 5 5 5 5 5 5 5 5 5 5 5 5 5 5 5 5 5 5 5 5 5 5 5 5 5 5 5 5 5 5 5 5 5 5 5 5 5 5 5 5 5 5 5 5 5 5 5 5 5 5 5 5 5 5 5 5 5 5 5 5 5 5 5 5 5 5 5 5 5 5 5 5 5 5 5 5 5 5 5 5 5 5 5 5 5 5 5 5 5 5 5 5 5 5 5 5 5 5 5 5 5 5 5 5 5 5 5 5 5 5 5 5 5 5 5 5 5 5 5 5 5 5 5 5 5 5 5 5 5 5 5 5 5 5 5 5 5 5 5 5 5 5 5 5 5 5 5 5 5 5 5 5 5 5 5 5 5 5 5 5 5 5 5 5 5 5 5 5 5 5 5 5 5 5 5 5 5 5 5 5 5 5 5 5 5 5 5 5 5 5 5 5 5 5 5 5 5 5 5 5 5 5 5 5 5 5 5 5 5 5 5 5 5 5 5 5 5 5 5 5 5 5 5 5 5 5 5 5 5 5 5 5 5 5 5 5 5 5 5 5 5 5 5 5 5 5 5 5 5 5 5 5 5 5 5 5 5 5 5 5 5 5 5 5 5 5 5 5 5 5 5 5 5 5 5 5 5 5 5 5 5 5 5 5 5 5 5 5 5 5 5 5 5 5 5 5 5 5 5 5 5 5 5 5 5 5 5 5 5 5 5 5 5 5 5 5 5 5 5 5 5 5 5 5 5 5 5 5 5 5 5 5 5 5 5 5 5 5 5 5 5 5 5 5 5 5 5 5 5 5 5 5 5 5 5 5 5 5 5 5 5 5 5 5 5 5 5 5 5 5 5 5 5 5 5 5 5 5 5 5 5 5 5 5 5 5 5 5 5 5 5 5 5 5 5 5 5 5 5 5 5 5 5 5 5 5 5 5 5 5 5 5 5 5 5 5 5 5 5 5 5 5 5 5 5 5 5 5 5 5 5 5 5 5 5 5 5 5 5 5 5 5 5 5 5 5 5 5 5 5 5 5 5 5 5 5 5 5 5 5 5 5 5 5 5 5 5 5 5 5 5 5 5 5 5 5 5 5 5 5 5 5 5 5 5 5 5 5 5 5 5 5 5 5 5 5 5 5 5 5 5 5 5 5 5 5 5 5 5 5 5 5 5 5 5 5 5 5 5 5 5 5 5 5 5 5 5 5 5 5 5 5 5 5 5 5 5 5 5 5 5 5 5 5 5 5 5 5 5 5 5 5 5 5 5 5 5 5 5 5 5 5 5 5 5 5 5 5 5 5 5 5 5 5 5 5 5 5 5 5 5 5 5 5 5 5 5 5 5 5 5 5 5 5 5 5 5 5 5 5 5 5 5 5 5 5 5 5 5 5 5 5 5 5 5 5 5 5 5 5 5 5 5 5 5 5 5 5 5 5 5 5 5 5 5 5 5 5 5 5 5 5 5 5 5 5 5 5 5 5 5 5 5 5 5 5 5 5 5 5 5 5 5 5 5 5 5 5 5 5 5 5 5 5 5 5 5 5 5 5 5 5 5 5 5 5 5 5 5 5 5 5 5 5 5 5 5 5 5 5 5 5 5 5 5 5 5 5 5 5 5 5 5 5 5 5 5 5 5 5 5 5 5 5 5 5 5 5 5 5 5 5 5 5 5 5 5 5 5 5 5 5 5 5 5 5 5 5 5 5 5 5 5 5 5 5 5 5 5 5 5 5 5 5 5 5 5 5 5 5 5 5 5 5 5 5 5 5 5 5 5 5 5 5 5 5 5 5 5 5 5 5 5 5 5 5 5 5 5 5 5 5 5 5 5 5 5 5 5 5 5 5 5 5 5 5 5 5 5 5 5 5 5 5 5 5 5 5 5 5 5 5 5 5 5 5 5 5 5 5 5 5 5 5 5 5 5 5 5 5 5 5 5 5 5 5 5 5 5 5 5 5 5 5 5 5 5 5 5 5 5 5 5 5 5 5 5 5 5 5 5 5 5 5 5 5 5 5 5 5 5 5 5 5 5 5 5 5 5 5 5 5 5 5 5 5 5 5 5 5 5 5 5 5 5 5 5 5 5 5 5 5 5 5 5 5 5 5 5 5 5 5 5 5 5 5 5 5 5 5 5 5 5 5 5 5 5 5 5 5 5 5 5 5 5 5 5 5 5 5 5 5 5 5 5 5 5 5 5 5 5 5 5 5 5 5 5 5 5 5 5 5 5 5 5 5 5 5 5 5 5 5 5 5 5 5 5 5 5 5 5 5 5 5 5 5 5 5 5 5 5 5 5 5 5 5 5 5 5 5 5 5 5 5 5 5 5 5 5 5 5 5 5 5 5 5 5 5 5 5 5 5 5 5 5 5 5 5 5 5 5 5 5 5 5 5 5 5 5 5 5 5 5 5 5 5 5 5 5 5 5 5 5 5 5 5 5 5 5 5 5 5 5 5 5 5 5 5 5 5 5 5 5 5 5 5 5 5 5 5 5 5 5 5 5 5 5 5 5 5 5 5 5 5 5 5 5 5 5 5 5 5 5 5 5 5 5 5 5 5 5 5 5 5 5 5 5 5 5 5 5 5 5 5 5 5 5 5 5 5 5 5 5 5 5 5 5 5 5 5 5 5 5 5 5 5 5 5 5 5 5 5 5 5 5 5 5 5 5 5 5 5 5 5 5 5 5 5 5 5 5 5 5 5 5 5 5 5 5 5 5 5 5 5 5 5 5 5 5 5 5 5 5 5 5 5 5 5 5 5 5 5 5 5 5 5 5 5 5 5 5 5 5 5 5 5 5 5 5 5 5 5 5 5 5 5 5 5 5 5 5 5 5 5 5 5 5 5 5 5 5 5 5 5 5 5 5 5 5 5 5 5 5 5 5 5 5 5 5 5 5 5 5 5 5 5 5 5 5 5 5 5 5 5 5 5 5 5 5 5 5 5 5 5 5 5 5 5 5 5 5 5 5 5 5 5 5 5 5 5 5 5 5 5 5 5 5 5 5 5 5 5 5 5 5 5 5 5 5 5 5 5 5 5 5 5 5 5 5 5 5 5 5 5 5 5 5 5 5 5 5 5 5 5 5 5 5 5 5 5 5 5 5 5 5 5 5 5 5 5 5 5 5 5 5 5 5 5 5 5 5 5 5 5 5 5 5 5 5 5 5 5 5 5 5 5 5 5 5 5 5 5 5 5 5 5 5 5 5 5 5 5 5 5 5 5 5 5 5 5 5 5 5 5 5 5 5 5 5 5 5 5 5 5 5 5 5 5 5 5 5 5 5 5 5 5 5 5 5 5 5 5 5 5 5 5 5 5 5 5 5 5 5 5 5 5 5 5 5 5 5 5 5 5 5 5 5 5 5 5 5 5 5 5 5 5 5 5 5 5 5 5 5 5 5 5 5 5 5 5 5 5 5 5 5 5 5 5 5 5 5 5 5 5 5 5 5 5 5 5 5 5 5 5 5 5 5 5 5 5 5 5 5 5 5 5 5 5 5 5 5 5 5 5 5 5 5 5 5 5 5 5 5 5 5 5 5 5 5 5 5 5 5 5 5 5 5 5 5 5 5 5 5 5 5 5 5 5 5 5 5 5 5 5 5 5 5 5 5 5 5 5 5 5 5 5 5 5 5 5 5 5 5 5 5 5 5 5 5 5 5 5 5 5 5 5 5 5 5 5 5 5 5 5 5 5 5 5 5 5 5 5 5 5 5 5 5 5 5 5 5 5 5 5 5 5 5 5 5 5 5 5 5 5 5 5 5 5 5 5 5 5 5 5 5 5 5 5 5 5 5 5 5 5 5 5 5 5 5 5 5 5 5 5 5 5 5 5 5 5 5 5 5 5 5 5 5 5 5 5 5 5 5 5 5 5 5 5 5 5 5 5 5 5 5 5 5 5 5 5 5 5 5 5 5 5 5 5 5 5 5 5 5 5 5 5 5 5 5 5 5 5 5 5 5 5 5 5 5 5 5 5 5 5 5 5 5 5 5 5 5 5 5 5 5 5 5 5 5 5 5 5 5 5 5 5 5 5 5 5 5 5 5 5 5 5 5 5 5 5 5 5 5 5 5 5 5 5 5 5 5 5 5 5 5 5 5 5 5 5 5 5 5 5 5 5 5 5 5 5 5 5 5 5 5 5 5 5 5 5 5 5 5 5 5 5 5 5 5 5 5 5 5 5 5 5 5 5 5 5 5 5 5 5 5 5 5 5 5 5 5 5 5 5 5 5 5 5 5 5 5 5 5 5 5 5 5 5 5 5 5 5 5 5 5 5 5 5 5 5 5 5 5 5 5 5 5 5 5 5 5 5 5 5 5 5 5 5 5 5 5 5 5 5 5 5 5 5 5 5 5 5 5 5 5 5 5 5 5 5 5 5 5 5 5 5 5 5 5 5 5 5 5 5 5 5 5 5 5 5 5 5 5 5 5 5 5 5 5 5 5 5 5 5 5 5 5 5 5 5 5 5 5 5 5 5 5 5 5 5 5 5 5 5 5 5 5 5 5 5 5 5 5 5 5 5 5 5 5 5 5 5 5 5 5 5 5 5 5 5 5 5 5 5 5 5 5 5 5 5 5 5 5 5 5 5 5 5 5 5 5 5 5 5 5 5 5 5 5 5 5 5 5 5 5 5 5 5 5 5 5 5 5 5 5 5 5 5 5 5 5 5 5 5 5 5 5 5 5 5 5 5 5 5 5 5 5 5 5 5 5 5 5 5 5 5 5 5 5 5 5 5 5 5 5 5 5 5 5 5 5 5 5 5 5 5 5 5 5 5 5 5 5 5 5 5 5 5 5 5 5 5 5 5 5 5 5 5 5 5 5 5 5 5 5 5 5 5 5 5 5 5 5 5 5 5 5 5 5 5 5 5 5 5 5 5 5 5 5 5 5 5 5 5 5 5 5 5 5 5 5 5 5 5 5 5 5 5 5 5 5 5 5 5 5 5 5 5 5 5 5 5 5 5 5 5 5 5 5 5 5 5 5 5 5 5 5 5 5 5 5 5 5 5 5 5 5 5 5 5 5 5 5 5 5 5 5 5 5 5 5 5 5 5 5 5 5 5 5 5 5 5 5 5 5 5 5 5 5 5 5 5 5 5 5 5 5 5 5 5 5 5 5 5 5 5 5 5 5 5 5 5 5 5 5 5 5 5 5 5 5 5 5 5 5 5 5 5 5 5 5 5 5 5 5 5 5 5 5 5 5 5 5 5 5 5 5 5 5 5 5 5 5 5 5 5 5 5 5 5 5 5 5 5 5 5 5 5 5 5 5 5 5 5 5 5 5 5 5 5 5 5 5 5 5 5 5 5 5 5 5 5 5 5 5 5 5 5 5 5 5 5 5 5 5 5 5 5 5 5 5 5 5 5 5 5 5 5 5 5 5 5 5 5 5 5 5 5 5 5 5 5 5 5 5 5 5 5 5 5 5 5 5 5 5 5 5 5 5 5 5 5 5 5 5 5 5 5 5 5 5 5 5 5 5 5 5 5 5 5 5 5 5 5 5 5 5 5 5 5 5 5 5 5 5 5 5 5 5 5 5 5 5 5 5 5 5 5 5 5 5 5 5 5 5 5 5 5 5 5 5 5 5 5 5 5 5 5 5 5 5 5 5 5 5 5 5 5 5 5 5 5 5 5 5 5 5 5 5 5 5 5 5 5 5 5 5 5 5 5 5 5 5 5 5 5 5 5 5 5 5 5 5 5 5 5 5 5 5 5 5 5 5 5 5 5 5 5 5 5 5 5 5 5 5 5 5 5 5 5 5 5 5 5 5 5 5 5 5 5 5 5 5 5 5 5 5 5 5 5 5 5 5 5 5 5 5 5 5 5 5 5 5 5 5 5 5 5 5 5 5 5 5 5 5 5 5 5 5 5 5 5 5 5 5 5 5 5 5 5 5 5 5 5 5 5 5 5 5 5 5 5 5 5 5 5 5 5 5 5 5 5 5 5 5 5 5 5 5 5 5 5 5 5 5 5 5 5 5 5 5 5 5 5 5 5 5 5 5 5 5 5 5 5 5 5 5 5 5 5 5 5 5 5 5 5 5 5 5 5 5 5 5 5 5 5 5 5 5 5 5 5 5 5 5 5 5 5 5 5 5 5 5 5 5 5 5 5 5 5 5 5 5 5 5 5 5 5 5 5 5 5 5 5 5 5 5 5 5 5 5 5 5 5 5 5 5 5 5 5 5 5 5 5 5 5 5 5 5 5 5 5 5 5 5 5 5 5 5 5 5 5 5 5 5 5 5 5 5 5 5 5 5 5 5 5 5 5 5 5 5 5 5 5 5 5 5 5 5 5 5 5 5 5 5 5 5 5 5 5 5 5 5 5 5 5 5 5 5 5 5 5 5 5 5 5 5 5 5 5 5 5 5 5 5 5 5 5 5 5 5 5 5 5 5 5 5 5 5 5 5 5 5 5 5 5 5 5 5 5 5 5 5 5 5 5 5 5 5 5 5 5 5 5 5 5 5 5 5 5 5 5 5 5 5 5 5 5 5 5 5 5 5 5 5 5 5 5 5 5 5 5 5 5 5 5 5 5 5 5 5 5 5 5 5 5 5 5 5 5 5 5 5 5 5 5 5 5 5 5 5 5 5 5 5 5 5 5 5 5 5 5 5 5 5 5 5 5 5 5 5 5 5 5 5 5 5 5 5 5 5 5 5 5 5 5 5 5 5 5 5 5 5 5 5 5 5 5 5 5 5 5 5 5 5 5 5 5 5 5 5 5 5 5 5 5 5 5 5 5 5 5 5 5 5 5 5 5 5 5 5 5 5 5 5 5 5 5 5 5 5 5 5 5 5 5 5 5 5 5 5 5 5 5 5 5 5 5 5 5 5 5 5 5 5 5 5 5 5 5 5 5 5 5 5 5 5 5 5 5 5 5 5 5 5 5 5 5 5 5 5 5 5 5 5 5 5 5 5 5 5 5 5 5 5 5 5 5 5 5 5 5 5 5 5 5 5 5 5 5 5 5 5 5 5 5 5 5 5 5 5 5 5 5 5 5 5 5 5 5 5 5 5 5 5 5 5 5 5 5 5 5 5 5 5 5 5 5 5 5 5 5 5 5 5 5 5 5 5 5 5 5 5 5 5 5 5 5 5 5 5 5 5 5 5 5 5 5 5 5 5 5 5 5 5 5 5 5 5 5 5 5 5 5 5 5 5 5 5 5 5 5 5 5 5 5 5 5 5 5 5 5 5 5 5 5 5 5 5 5 5 5 5 5 5 5 5 5 5 5 5 5 5 5 5 5 5 5 5 5 5 5 5 5 5 5 5 5 5 5 5 5 5 5 5 5 5 5 5 5 5 5 5 5 5 5 5 5 5 5 5 5 5 5 5 5 5 5 5 5 5 5 5 5 5 5 5 5 5 5 5 5 5 5 5 5 5 5 5 5 5 5 5 5 5 5 5 5 5 5 5 5 5 5 5 5 5 5 5 5 5 5 5 5 5 5 5 5 5 5 5 5 5 5 5 5 5 5 5 5 5 5 5 5 5 5 5 5 5 5 5 5 5 5 5 5 5 5 5 5 5 5 5 5 5 5 5 5 5 5 5 5 5 5 5 5 5 5 5 5 5 5 5 5 5 5 5 5 5 5 5 5 5 5 5 5 5 5 5 5 5 5 5 5 5 5 5 5 5 5 5 5 5 5 5 5 5 5 5 5 5 5 5 5 5 5 5 5 5 5 5 5 5 5 5 5 5 5 5 5 5 5 5 5 5 5 5 5 5 5 5 5 5 5 5 5 5 5 5 5 5 5 5 5 5 5 5 5 5 5 5 5 5 5 5 5 5 5 5 5 5 5 5 5 5 5 5 5 5 5 5 5 5 5 5 5 5 5 5 5 5 5 5 5 5 5 5 5 5 5 5 5 5 5 5 5 5 5 5 5 5 5 5 5 5 5 5 5 5 5 5 5 5 5 5 5 5 5 5 5 5 5 5 5 5 5 5 5 5 5 5 5 5 5 5 5 5 5 5 5 5 5 5 5 5 5 5 5 5 5 5 5 5 5 5 5 5 5 5 5 5 5 5 5 5 5 5 5 5 5 5 5 5 5 5 5 5 5 5 5 5 5 5 5 5 5 5 5 5 5 5 5 5 5 5 5 5 5 5 5 5 5 5 5 5 5 5 5 5 5 5 5 5 5 5 5 5 5 5 5 5 5 5 5 5 5 5 5 5 5 5 5 5 5 5 5 5 5 5 5 5 5 5 5 5 5 5 5 5 5 5 5 5 5 5 5 5 5 5 5 5 5 5 5 5 5 5 5 5 5 5 5 5 5 5 5 5 5 5 5 5 5 5 5 5 5 5 5 5 5 5 5 5 5 5 5 5 5 5 5 5 5 5 5 5 5 5 5 5 5 5 5 5 5 5 5 5 5 5 5 5 5 5 5 5 5 5 5 5 5 5 5 5 5 5 5 5 5 5 5 5 5 5 5 5 5 5 5 5 5 5 5 5 5 5 5 5 5 5 5 5 5 5 5 5 5 5 5 5 5 5 5 5 5 5 5 5 5 5 5 5 5 5 5 5 5 5 5 5 5 5 5 5 5 5 5 5 5 5 5 5 5 5 5 5 5 5 5 5 5 5 5 5 5 5 5 5 5 5 5 5 5 5 5 5 5 5 5 5 5 5 5 5 5 5 5 5 5 5 5 5 5 5 5 5 5 5 5 5 5 5 5 5 5 5 5 5 5 5 5 5 5 5 5 5 5 5 5 5 5 5 5 5 5 5 5 5 5 5 5 5 5 5 5 5 5 5 5 5 5 5 5 5 5 5 5 5 5 5 5 5 5 5 5 5 5 5 5 5 5 5 5 5 5 5 5 5 5 5 5 5 5 5 5 5 5 5 5 5 5 5 5 5 5 5 5 5 5 5 5 5 5 5 5 5 5 5 5 5 5 5 5 5 5 5 5 5 5 5 5 5 5 5 5 5 5 5 5 5 5 5 5 5 5 5 5 5 5 5 5 5 5 5 5 5 5 5 5 5 5 5 5 5 5 5 5 5 5 5 5 5 5 5 5 5 5 5 5 5 5 5 5 5 5 5 5 5 5 5 5 5 5 5 5 5 5 5 5 5 5 5 5 5 5 5 5 5 5 5 5 5 5 5 5 5 5 5 5 5 5 5 5 5 5 5 5 5 5 5 5 5 5 5 5 5 5 5 5 5 5 5 5 5 5 5 5 5 5 5 5 5 5 5 5 5 5 5 5 5 5 5 5 5 5 5 5 5 5 5 5 5 5 5 5 5 5 5 5 5 5 5 5 5 5 5 5 5 5 5 5 5 5 5 5 5 5 5 5 5 5 5 5 5 5 5 5 5 5 5 5 5 5 5 5 5 5 5 5 5 5 5 5 5 5 5 5 5 5 5 5 5 5 5 5 5 5 5 5 5 5 5 5 5 5 5 5 5 5 5 5 5 5 5 5 5 5 5 5 5 5 5 5 5 5 5 5 5 5 5 5 5 5 5 5 5 5 5 5 5 5 5 5 5 5 5 5 5 5 5 5 5 5 5 5 5 5 5 5 5 5 5 5 5 5 5 5 5 5 5 5 5 5 5 5 5 5 5 5 5 5 5 5 5 5 5 5 5 5 5 5 5 5 5 5 5 5 5 5 5 5 5 5 5 5 5 5 5 5 5 5 5 5 5 5 5 5 5 5 5 5 5 5 5 5 5 5 5 5 5 5 5 5 5 5 5 5 5 5 5 5 5 5 5 5 5 5 5 5 5 5 5 5 5 5 5 5 5 5 5 5 5 5 5 5 5 5 5 5 5 5 5 5 5 5 5 5 5 5 5 5 5 5 5 5 5 5 5 5 5 5 5 5 5 5 5 5 5 5 5 5 5 5 5 5 5 5 5 5 5 5 5 5 5 5 5 5 5 5 5 5 5 5 5 5 5 5 5 5 5 5 5 5 5 5 5 5 5 5 5 5 5 5 5 5 5 5 5 5 5 5 5 5 5 5 5 5 5 5 5 5 5 5 5 5 5 5 5 5 5 5 5 5 5 5 5 5 5 5 5 5 5 5 5 5 5 5 5 5 5 5 5 5 5 5 5 5 5 5 5 5 5 5 5 5 5 5 5 5 5 5 5 5 5 5 5 5 5 5 5 5 5 5 5 5 5 5 5 5 5 5 5 5 5 5 5 5 5 5 5 5 5 5 5 5 5 5 5 5 5 5 5 5 5 5 5 5 5 5 5 5 5 5 5 5 5 5 5 5 5 5 5 5 5 5 5 5 5 5 5 5 5 5 5 5 5 5 5 5 5 5 5 5 5 5 5 5 5 5 5 5 5 5 5 5 5 5 5 5 5 5 5 5 5 5 5 5 5 5 5 5 5 5 5 5 5 5 5 5 5 5 5 5 5 5 5 5 5 5 5 5 5 5 5 5 5 5 5 5 5 5 5 5 5 5 5 5 5 5 5 5 5 5 5 5 5 5 5 5 5 5 5 5 5 5 5 5 5 5 5 5 5 5 5 5 5 5 5 5 5 5 5 5 5 5 5 5 5 5 5 5 5 5 5 5 5 5 5 5 5 5 5 5 5 5 5 5 5 5 5 5 5 5 5 5 5 5 5 5 5 5 5 5 5 5 5 5 5 5 5 5 5 5 5 5 5 5 5 5 5 5 5 5 5 5 5 5 5 5 5 5 5 5 5 5 5 5 5 5 5 5 5 5 5 5 5 5 5 5 5 5 5 5 5 5 5 5 5 5 5 5 5 5 5 5 5 5 5 5 5 5 5 5 5 5 5 5 5 5 5 5 5 5 5 5 5 5 5 5 5 5 5 5 5 5 5 5 5 5 5 5 5 5 5 5 5 5 5 5 5 5 5 5 5 5 5 5 5 5 5 5 5 5 5 5 5 5 5 5 5 5 5 5 5 5 5 5 5 5 5 5 5 5 5 5 5 5 5 5 5 5 5 5 5 5 5 5 5 5 5 5 5 5 5 5 5 5 5 5 5 5 5 5 5 5 5 5 5 5 5 5 5 5 5 5 5 5 5 5 5 5 5 5 5 5 5 5 5 5 5 5 5 5 5 5 5 5 5 5 5 5 5 5 5 5 5 5 5 5 5 5 5 5 5 5 5 5 5 5 5 5 5 5 5 5 5 5 5 5 5 5 5 5 5 5 5 5 5 5 5 5 5 5 5 5 5 5 5 5 5 5 5 5 5 5 5 5 5 5 5 5 5 5 5 5 5 5 5 5 5 5 5 5 5 5 5 5 5 5 5 5 5 5 5 5 5 5 5 5 5 5 5 5 5 5 5 5 5 5 5 5 5 5 5 5 5 5 5 5 5 5 5 5 5 5 5 5 5 5 5 5 5 5 5 5 5 5 5 5 5 5 5 5 5 5 5 5 5 5 5 5 5 5 5 5 5 5 5 5 5 5 5 5 5 5 5 5 5 5 5 5 5 5 5 5 5 5 5 5 5 5 5 5 5 5 5 5 5 5 5 5 5 5 5 5 5 5 5 5 5 5 5 5 5 5 5 5 5 5 5 5 5 5 5 5 5 5 5 5 5 5 5 5 5 5 5 5 5 5 5 5 5 5 5 5 5 5 5 5 5 5 5 5 5 5 5 5 5 5 5 5 5 5 5 5 5 5 5 5 5 5 5 5 5 5 5 5 5 5 5 5 5 5 5 5 5 5 5 5 5 5 5 5 5 5 5 5 5 5 5 5 5 5 5 5 5 5 5 5 5 5 5 5 5 5 5 5 5 5 5 5 5 5 5 5 5 5 5 5 5 5 5 5 5 5 5 5 5 5 5 5 5 5 5 5 5 5 5 5 5 5 5 5 5 5 5 5 5 5 5 5 5 5 5 5 5 5 5 5 5 5 5 5 5 5 5 5 5 5 5 5 5 5 5 5 5 5 5 5 5 5 5 5 5 5 5 5 5 5 5 5 5 5 5 5 5 5 5 5 5 5 5 5 5 5 5 5 5 5 5 5 5 5 5 5 5 5 5 5 5 5 5 5 5 5 5 5 5 5 5 5 5 5 5 5 5 5 5 5 5 5 5 5 5 5 5 5 5 5 5 5 5 5 5 5 5 5 5 5 5 5 5 5 5 5 5 5 5 5 5 5 5 5 5 5 5 5 5 5 5 5 5 5 5 5 5 5 5 5 5 5 5 5 5 5 5 5 5 5 5 5 5 5 5 5 5 5 5 5 5 5 5 5 5 5 5 5 5 5 5 5 5 5 5 5 5 5 5 5 5 5 5 5 5 5 5 5 5 5 5 5 5 5 5 5 5 5 5 5 5 5 5 5 5 5 5 5 5 5 5 5 5 5 5 5 5 5 5 5 5 5 5 5 5 5 5 5 5 5 5 5 5 5 5 5 5 5 5 5 5 5 5 5 5 5 5 5 5 5 5 5 5 5 5 5 5 5 5 5 5 5 5 5 5 5 5 5 5 5 5 5 5 5 5 5 5 5 5 5 5 5 5 5 5 5 5 5 5 5 5 5 5 5 5 5 5 5 5 5 5 5 5 5 5 5 5 5 5 5 5 5 5 5 5 5 5 5 5 5 5 5 5 5 5 5 5 5 5 5 5 5 5 5 5 5 5 5 5 5 5 5 5 5 5 5 5 5 5 5 5 5 5 5 5 5 5 5 5 5 5 5 5 5 5 5 5 5 5 5 5 5 5 5 5 5 5 5 5 5 5 5 5 5 5 5 5 5 5 5 5 5 5 5 5 5 5 5 5 5 5 5 5 5 5 5 5 5 5 5 5 5 5 5 5 5 5 5 5 5 5 5 5 5 5 5 5 5 5 5 5 5 5 5 5 5 5 5 5 5 5 5 5 5 5 5 5 5 5 5 5 5 5 5 5 5 5 5 5 5 5 5 5 5 5 5 5 5 5 5 5 5 5 5 5 5 5 5 5 5 5 5 5 5 5 5 5 5 5 5 5 5 5 5 5 5 5 5 5 5 5 5 5 5 5 5 5 5 5 5 5 5 5 5 5 5 5 5 5 5 5 5 5 5 5 5 5 5 5 5 5 5 5 5 5 5 5 5 5 5 5 5 5 5 5 5 5 5 5 5 5 5 5 5 5 5 5 5 5 5 5 5 5 5 5 5 5 5 5 5 5 5 5 5 5 5 5 5 5 5 5 5 5 5 5 5 5 5 5 5 5 5 5 5 5 5 5 5 5 5 5 5 5 5 5 5 5 5 5 5 5 5 5 5 5 5 5 5 5 5 5 5 5 5 5 5 5 5 5 5 5 5 5 5 5 5 5 5 5 5 5 5 5 5 5 5 5 5 5 5 5 5 5 5 5 5 5 5 5 5 5 5 5 5 5 5 5 5 5 5 5 5 5 5 5 5 5 5 5 5 5 5 5 5 5 5 5 5 5 5 5 5 5 5 5 5 5 5 5 5 5 5 5 5 5 5 5 5 5 5 5 5 5 5 5 5 5 5 5 5 5 5 5 5 5 5 5 5 5 5 5 5 5 5 5 5 5 5 5 5 5 5 5 5 5 5 5 5 5 5 5 5 5 5 5 5 5 5 5 5 5 5 5 5 5 5 5 5 5 5 5 5 5 5 5 5 5 5 5 5 5 5 5 5 5 5 5 5 5 5 5 5 5 5 5 5 5 5 5 5 5 5 5 5 5 5 5 5 5 5 5 5 5 5 5 5 5 5 5 5 5 5 5 5 5 5 5 5 5 5 5 5 5 5 5 5 5 5 5 5 5 5 5 5 5 5 5 5 5 5 5 5 5 5 5 5 5 5 5 5 5 5 5 5 5 5 5 5 5 5 5 5 5 5 5 5 5 5 5 5 5 5 5 5 5 5 5 5 5 5 5 5 5 5 5 5 5 5 5 5 5 5 5 5 5 5 5 5 5 5 5 5 5 5 5 5 5 5 5 5 5 5 5 5 5 5 5 5 5 5 5 5 5 5 5 5 5 5 5 5 5 5 5 5 5 5 5 5 5 5 5 5 5 5 5 5 5 5 5 5 5 5 5 5 5 5 5 5 5 5 5 5 5 5 5 5 5 5 5 5 5 5 5 5 5 5 5 5 5 5 5 5 5 5 5 5 5 5 5 5 5 5 5 5 5 5 5 5 5 5 5 5 5 5 5 5 5 5 5 5 5 5 5 5 5 5 5 5 5 5 5 5 5 5 5 5 5 5 5 5 5 5 5 5 5 5 5 5 5 5 5 5 5 5 5 5 5 5 5 5 5 5 5 5 5 5 5 5 5 5 5 5 5 5 5 5 5 5 5 5 5 5 5 5 5 5 5 5 5 5 5 5 5 5 5 5 5 5 5 5 5 5 5 5 5 5 5 5 5 5 5 5 5 5 5 5 5 5 5 5 5 5 5 5 5 5 5 5 5 5 5 5 5 5 5 5 5 5 5 5 5 5 5 5 5 5 5 5 5 5 5 5 5 5 5 5 5 5 5 5 5 5 5 5 5 5 5 5 5 5 5 5 5 5 5 5 5 5 5 5 5 5 5 5 5 5 5 5 5 5 5 5 5 5 5 5 5 5 5 5 5 5 5 5 5 5 5 5 5 5 5 5 5 5 5 5 5 5 5 5 5 5 5 5 5 5 5 5 5 5 5 5 5 5 5 5 5 5 5 5 5 5 5 5 5 5 5 5 5 5 5 5 5 5 5 5 5 5 5 5 5 5 5 5 5 5 5 5 5 5 5 5 5 5 5 5 5 5 5 5 5 5 5 5 5 5 5 5 5 5 5 5 5 5 5 5 5 5 5 5 5 5 5 5 5 5 5 5 5 5 5 5 5 5 5 5 5 5 5 5 5 5 5 5 5 5 5 5 5 5 5 5 5 5 5 5 5 5 5 5 5 5 5 5 5 5 5 5 5 5 5 5 5 5 5 5 5 5 5 5 5 5 5 5 5 5 5 5 5 5 5 5 5 5 5 5 5 5 5 5 5 5 5 5 5 5 5 5 5 5 5 5 5 5 5 5 5 5 5 5 5 5 5 5 5 5 5 5 5 5 5 5 5 5 5 5 5 5 5 5 5 5 5 5 5 5 5 5 5 5 5 5 5 5 5 5 5 5 5 5 5 5 5 5 5 5 5 5 5 5 5 5 5 5 5 5 5 5 5 5 5 5 5 5 5 5 5 5 5 5 5 5 5 5 5 5 5 5 5 5 5 5 5 5 5 5 5 5 5 5 5 5 5 5 5 5 5 5 5 5 5 5 5 5 5 5 5 5 5 5 5 5 5 5 5 5 5 5 5 5 5 5 5 5 5 5 5 5 5 5 5 5 5 5 5 5 5 5 5 5 5 5 5 5 5 5 5 5 5 5 5 5 5 5 5 5 5 5 5 5 5 5 5 5 5 5 5 5 5 5 5 5 5 5 5 5 5 5 5 5 5 5 5 5 5 5 5 5 5 5 5 5 5 5 5 5 5 5 5 5 5 5 5 5 5 5 5 5 5 5 5 5 5 5 5 5 5 5 5 5 5 5 5 5 5 5 5 5 5 5 5 5 5 5 5 5 5 5 5 5 5 5 5 5 5 5 5 5 5 5 5 5 5 5 5 5 5 5 5 5 5 5 5 5 5 5 5 5 5 5 5 5 5 5 5 5 5 5 5 5 5 5 5 5 5 5 5 5 5 5 5 5 5 5 5 5 5 5 5 5 5 5 5 5 5 5 5 5 5 5 5 5 5 5 5 5 5 5 5 5 5 5 5 5 5 5 5 5 5 5 5 5 5 5 5 5 5 5 5 5 5 5 5 5 5 5 5 5 5 5 5 5 5 5 5 5 5 5 5 5 5 5 5 5 5 5 5 5 5 5 5 5 5 5 5 5 5 5 5 5 5 5 5 5 5 5 5 5 5 5 5 5 5 5 5 5 5 5 5 5 5 5 5 5 5 5 5 5 5 5 5 5 5 5 5 5 5 5 5 5 5 5 5 5 5 5 5 5 5 5 5 5 5 5 5 5 5 5 5 5 5 5 5 5 5 5 5 5 5 5 5 5 5 5 5 5 5 5 5 5 5 5 5 5 5 5 5 5 5 5 5 5 5 5 5 5 5 5 5 5 5 5 5 5 5 5 5 5 5 5 5 5 5 5 5 5 5 5 5 5 5 5 5 5 5 5 5 5 5 5 5 5 5 5 5 5 5 5 5 5 5 5 5 5 5 5 5 5 5 5 5 5 5 5 5 5 5 5 5 5 5 5 5 5 5 5 5 5 5 5 5 5 5 5 5 5 5 5 5 5 5 5 5 5 5 5 5 5 5 5 5 5 5 5 5 5 5 5 5 5 5 5 5 5 5 5 5 5 5 5 5 5 5 5 5 5 5 5 5 5 5 5 5 5 5 5 5 5 5 5 5 5 5 5 5 5 5 5 5 5 5 5 5 5 5 5 5 5 5 5 5 5 5 5 5 5 5 5 5 5 5 5 5 5 5 5 5 5 5 5 5 5 5 5 5 5 5 5 5 5 5 5 5 5 5 5 5 5 5 5 5 5 5 5 5 5 5 5 5 5 5 5 5 5 5 5 5 5 5 5 5 5 5 5 5 5 5 5 5 5 5 5 5 5 5 5 5 5 5 5 5 5 5 5 5 5 5 5 5 5 5 5 5 5 5 5 5 5 5 5 5 5 5 5 5 5 5 5 5 5 5 5 5 5 5 5 5 5 5 5 5 5 5 5 5 5 5 5 5 5 5 5 5 5 5 5 5 5 5 5 5 5 5 5 5 5 5 5 5 5 5 5 5 5 5 5 5 5 5 5 5 5 5 5 5 5 5 5 5 5 5 5 5 5 5 5 5 5 5 5 5 5 5 5 5 5 5 5 5 5 5 5 5 5 5 5 5 5 5 5 5 5 5 5 5 5 5 5 5 5 5 5 5 5 5 5 5 5 5 5 5 5 5 5 5 5 5 5 5 5 5 5 5 5 5 5 5 5 5 5 5 5 5 5 5 5 5 5 5 5 5 5 5 5 5 5 5 5 5 5 5 5 5 5 5 5 5 5 5 5 5 5 5 5 5 5 5 5 5 5 5 5 5 5 5 5 5 5 5 5 5 5 5 5 5 5 5 5 5 5 5 5 5 5 5 5 5 5 5 5 5 5 5 5 5 5 5 5 5 5 5 5 5 5 5 5 5 5 5 5 5 5 5 5 5 5 5 5 5 5 5 5 5 5 5 5 5 5 5 5 5 5 5 5 5 5 5 5 5 5 5 5 5 5 5 5 5 5 5 5 5 5 5 5 5 5 5 5 5 5 5 5 5 5 5 5 5 5 5 5 5 5 5 5 5 5 5 5 5 5 5 5 5 5 5 5 5 5 5 5 5 5 5 5 5 5 5 5 5 5 5 5 5 5 5 5 5 5 5 5 5 5 5 5 5 5 5 5 5 5 5 5 5 5 5 5 5 5 5 5 5 5 5 5 5 5 5 5 5 5 5 5 5 5 5 5 5 5 5 5 5 5 5 5 5 5 5 5 5 5 5 5 5 5 5 5 5 5 5 5 5 5 5 5 5 5 5 5 5 5 5 5 5 5 5 5 5 5 5 5 5 5 5 5 5 5 5 5 5 5 5 5 5 5 5 5 5 5 5 5 5 5 5 5 5 5 5 5 5 5 5 5 5 5 5 5 5 5 5 5 5 5 5 5 5 5 5 5 5 5 5 5 5 5 5 5 5 5 5 5 5 5 5 5 5 5 5 5 5 5 5 5 5 5 5 5 5 5 5 5 5 5 5 5 5 5 5 5 5 5 5 5 5 5 5 5 5 5 5 5 5 5 5 5 5 5 5 5 5 5 5 5 5 5 5 5 5 5 5 5 5 5 5 5 5 5 5 5 5 5 5 5 5 5 5 5 5 5 5 5 5 5 5 5 5 5 5 5 5 5 5 5 5 5 5 5 5 5 5 5 5 5 5 5 5 5 5 5 5 5 5 5 5 5 5 5 5 5 5 5 5 5 5 5 5 5 5 5 5 5 5 5 5 5 5 5 5 5 5 5 5 5 5 5 5 5 5 5 5 5 5 5 5 5 5 5 5 5 5 5 5 5 5 5 5 5 5 5 5 5 5 5 5 5 5 5 5 5 5 5 5 5 5 5 5 5 5 5 5 5 5 5 5 5 5 5 5 5 5 5 5 5 5 5 5 5 5 5 5 5 5 5 5 5 5 5 5 5 5 5 5 5 5 5 5 5 5 5 5 5 5 5 5 5 5 5 5 5 5 5 5 5 5 5 5 5 5 5 5 5 5 5 5 5 5 5 5 5 5 5 5 5 5 5 5 5 5 5 5 5 5 5 5 5 5 5 5 5 5 5 5 5 5 5 5 5 5 5 5 5 5 5 5 5 5 5 5 5 5 5 5 5 5 5 5 5 5 5 5 5 5 5 5 5 5 5 5 5 5 5 5 5 5 5 5 5 5 5 5 5 5 5 5 5 5 5 5 5 5 5 5 5 5 5 5 5 5 5 5 5 5 5 5 5 5 5 5 5 5 5 5 5 5 5 5 5 5 5 5 5 5 5 5 5 5 5 5 5 5 5 5 5 5 5 5 5 5 5 5 5 5 5 5 5 5 5 5 5 5 5 5 5 5 5 5 5 5 5 5 5 5 5 5 5 5 5 5 5 5 5 5 5 5 5 5 5 5 5 5 5 5 5 5 5 5 5 5 5 5 5 5 5 5 5 5 5 5 5 5 5 5 5 5 5 5 5 5 5 5 5 5 5 5 5 5 5 5 5 5 5 5 5 5 5 5 5 5 5 5 5 5 5 5 5 5 5 5 5 5 5 5 5 5 5 5 5 5 5 5 5 5 5 5 5 5 5 5 5 5 5 5 5 5 5 5 5 5 5 5 5 5 5 5 5 5 5 5 5 5 5 5 5 5 5 5 5 5 5 5 5 5 5 5 5 5 5 5 5 5 5 5 5 5 5 5 5 5 5 5 5 5 5 5 5 5 5 5 5 5 5 5 5 5 5 5 5 5 5 5 5 5 5 5 5 5 5 5 5 5 5 5 5 5 5 5 5 5 5 5 5 5 5 5 5 5 5 5 5 5 5 5 5 5 5 5 5 5 5 5 5 5 5 5 5 5 5 5 5 5 5 5 5 5 5 5 5 5 5 5 5 5 5 5 5 5 5 5 5 5 5 5 5 5 5 5 5 5 5 5 5 5 5 5 5 5 5 5 5 5 5 5 5 5 5 5 5 5 5 5 5 5 5 5 5 5 5 5 5 5 5 5 5 5 5 5 5 5 5 5 5 5 5 5 5 5 5 5 5 5 5 5 5 5 5 5 5 5 5 5 5 5 5 5 5 5 5 5 5 5 5 5 5 5 5 5 5 5 5 5 5 5 5 5 5 5 5 5 5 5 5 5 5 5 5 5 5 5 5 5 5 5 5 5 5 5 5 5 5 5 5 5 5 5 5 5 5 5 5 5 5 5 5 5 5 5 5 5 5 5 5 5 5 5 5 5 5 5 5 5 5 5 5 5 5 5 5 5 5 5 5 5 5 5 5 5 5 5 5 5 5 5 5 5 5 5 5 5 5 5 5 5 5 5 5 5 5 5 5 5 5 5 5 5 5 5 5 5 5 5 5 5 5 5 5 5 5 5 5 5 5 5 5 5 5 5 5 5 5 5 5 5 5 5 5 5 5 5 5 5 5 5 5 5 5 5 5 5 5 5 5 5 5 5 5 5 5 5 5 5 5 5 5 5 5 5 5 5 5 5 5 5 5 5 5 5 5 5 5 5 5 5 5 5 5 5 5 5 5 5 5 5 5 5 5 5 5 5 5 5 5 5 5 5 5 5 5 5 5 5 5 5 5 5 5 5 5 5 5 5 5 5 5 5 5 5 5 5 5 5 5 5 5 5 5 5 5 5 5 5 5 5 5 5 5 5 5 5 5 5 5 5 5 5 5 5 5 5 5 5 5 5 5 5 5 5 5 5 5 5 5 5 5 5 5 5 5 5 5 5 5 5 5 5 5 5 5 5 5 5 5 5 5 5 5 5 5 5 5 5 5 5 5 5 5 5 5 5 5 5 5 5 5 5 5 5 5 5 5 5 5 5 5 5 5 5 5 5 5 5 5 5 5 5 5 5 5 5 5 5 5 5 5 5 5 5 5 5 5 5 5 5 5 5 5 5 5 5 5 5 5 5 5 5 5 5 5 5 5 5 5 5 5 5 5 5 5 5 5 5 5 5 5 5 5 5 5 5 5 5 5 5 5 5 5 5 5 5 5 5 5 5 5 5 5 5 5 5 5 5 5 5 5 5 5 5 5 5 5 5 5 5 5 5 5 5 5 5 5 5 5 5 5 5 5 5 5 5 5 5 5 5 5 5 5 5 5 5 5 5 5 5 5 5 5 5 5 5 5 5 5 5 5 5 5 5 5 5 5 5 5 5 5 5 5 5 5 5 5 5 5 5 5 5 5 5 5 5 5 5 5 5 5 5 5 5 5 5 5 5 5 5 5 5 5 5 5 5 5 5 5 5 5 5 5 5 5 5 5 5 5 5 5 5 5 5 5 5 5 5 5 5 5 5 5 5 5 5 5 5 5 5 5 5 5 5 5 5 5 5 5 5 5 5 5 5 5 5 5 5 5 5 5 5 5 5 5 5 5 5 5 5 5 5 5 5 5 5 5 5 5 5 5 5 5 5 5 5 5 5 5 5 5 5 5 5 5 5 5 5 5 5 5 5 5 5 5 5 5 5 5 5 5 5 5 5 5 5 5 5 5 5 5 5 5 5 5 5 5 5 5 5 5 5 5 5 5 5 5 5 5 5 5 5 5 5 5 5 5 5 5 5 5 5 5 5 5 5 5 5 5 5 5 5 5 5 5 5 5 5 5 5 5 5 5 5 5 5 5 5 5 5 5 5 5 5 5 5 5 5 5 5 5 5 5 5 5 5 5 5 5 5 5 5 5 5 5 5 5 5 5 5 5 5 5 5 5 5 5 5 5 5 5 5 5 5 5 5 5 5 5 5 5 5 5 5 5 5 5 5 5 5 5 5 5 5 5 5 5 5 5 5 5 5 5 5 5 5 5 5 5 5 5 5 5 5 5 5 5 5 5 5 5 5 5 5 5 5 5 5 5 5 5 5 5 5 5 5 5 5 5 5 5 5 5 5 5 5 5 5 5 5 5 5 5 5 5 5 5 5 5 5 5 5 5 5 5 5 5 5 5 5 5 5 5 5 5 5 5 5 5 5 5 5 5 5 5 5 5 5 5 5 5 5 5 5 5 5 5 5 5 5 5 5 5 5 5 5 5 5 5 5 5 5 5 5 5 5 5 5 5 5 5 5 5 5 5 5 5 5 5 5 5 5 5 5 5 5 5 5 5 5 5 5 5 5 5 5 5 5 5 5 5 5 5 5 5 5 5 5 5 5 5 5 5 5 5 5 5 5 5 5 5 5 5 5 5 5 5 5 5 5 5 5 5 5 5 5 5 5 5 5 5 5 5 5 5 5 5 5 5 5 5 5 5 5 5 5 5 5 5 5 5 5 5 5 5 5 5 5 5 5 5 5 5 5 5 5 5 5 5 5 5 5 5 5 5 5 5 5 5 5 5 5 5 5 5 5 5 5 5 5 5 5 5 5 5 5 5 5 5 5 5 5 5 5 5 5 5 5 5 5 5 5 5 5 5 5 5 5 5 5 5 5 5 5 5 5 5 5 5 5 5 5 5 5 5 5 5 5 5 5 5 5 5 5 5 5 5 5 5 5 5 5 5 5 5 5 5 5 5 5 5 5 5 5 5 5 5 5 5 5 5 5 5 5 5 5 5 5 5 5 5 5 5 5 5 5 5 5 5 5 5 5 5 5 5 5 5 5 5 5 5 5 5 5 5 5 5 5 5 5 5 5 5 5 5 5 5 5 5 5 5 5 5 5 5 5 5 5 5 5 5 5 5 5 5 5 5 5 5 5 5 5 5 5 5 5 5 5 5 5 5 5 5 5 5 5 5 5 5 5 5 5 5 5 5 5 5 5 5 5 5 5 5 5 5 5 5 5 5 5 5 5 5 5 5 5 5 5 5 5 5 5 5 5 5 5 5 5 5 5 5 5 5 5 5 5 5 5 5 5 5 5 5 5 5 5 5 5 5 5 5 5 5 5 5 5 5 5 5 5 5 5 5 5 5 5 5 5 5 5 5 5 5 5 5 5 5 5 5 5 5 5 5 5 5 5 5 5 5 5 5 5 5 5 5 5 5 5 5 5 5 5 5 5 5 5 5 5 5 5 5 5 5 5 5 5 5 5 5 5 5 5 5 5 5 5 5 5 5 5 5 5 5 5 5 5 5 5 5 5 5 5 5 5 5 5 5 5 5 5 5 5 5 5 5 5 5 5 5 5 5 5 5 5 5 5 5 5 5 5 5 5 5 5 5 5 5 5 5 5 5 5 5 5 5 5 5 5 5 5 5 5 5 5 5 5 5 5 5 5 5 5 5 5 5 5 5 5 5 5 5 5 5 5 5 5 5 5 5 5 5 5 5 5 5 5 5 5 5 5 5 5 5 5 5 5 5 5 5 5 5 5 5 5 5 5 5 5 5 5 5 5 5 5 5 5 5 5 5 5 5 5 5 5 5 5 5 5 5 5 5 5 5 5 5 5 5 5 5 5 5 5 5 5 5 5 5 5 5 5 5 5 5 5 5 5 5 5 5 5 5 5 5 5 5 5 5 5 5 5 5 5 5 5 5 5 5 5 5 5 5 5 5 5 5 5 5 5 5 5 5 5 5 5 5 5 5 5 5 5 5 5 5 5 5 5 5 5 5 5 5 5 5 5 5 5 5 5 5 5 5 5 5 5 5 5 5 5 5 5 5 5 5 5 5 5 5 5 5 5 5 5 5 5 5 5 5 5 5 5 5 5 5 5 5 5 5 5 5 5 5 5 5 5 5 5 5 5 5 5 5 5 5 5 5 5 5 5 5 5 5 5 5 5 5 5 5 5 5 5 5 5 5 5 5 5 5 5 5 5 5 5 5 5 5 5 5 5 5 5 5 5 5 5 5 5 5 5 5 5 5 5 5 5 5 5 5 5 5 5 5 5 5 5 5 5 5 5 5 5 5 5 5 5 5 5 5 5 5 5 5 5 5 5 5 5 5 5 5 5 5 5 5 5 5 5 5 5 5 5 5 5 5 5 5 5 5 5 5 5 5 5 5 5 5 5 5 5 5 5 5 5 5 5 5 5 5 5 5 5 5 5 5 5 5 5 5 5 5 5 5 5 5 5 5 5 5 5 5 5 5 5 5 5 5 5 5 5 5 5 5 5 5 5 5 5 5 5 5 5 5 5 5 5 5 5 5 5 5 5 5 5 5 5 5 5 5 5 5 5 5 5 5 5 5 5 5 5 5 5 5 5 5 5 5 5 5 5 5 5 5 5 5 5 5 5 5 5 5 5 5 5 5 5 5 5 5 5 5 5 5 5 5 5 5 5 5 5 5 5 5 5 5 5 5 5 5 5 5 5 5 5 5 5 5 5 5 5 5 5 5 5 5 5 5 5 5 5 5 5 5 5 5 5 5 5 5 5 5 5 5 5 5 5 5 5 5 5 5 5 5 5 5 5 5 5 5 5 5 5 5 5 5 5 5 5 5 5 5 5 5 5 5 5 5 5 5 5 5 5 5 5 5 5 5 5 5 5 5 5 5 5 5 5 5 5 5 5 5 5 5 5 5 5 5 5 5 5 5 5 5 5 5 5 5 5 5 5 5 5 5 5 5 5 5 5 5 5 5 5 5 5 5 5 5 5 5 5 5 5 5 5 5 5 5 5 5 5 5 5 5 5 5 5 5 5 5 5 5 5 5 5 5 5 5 5 5 5 5 5 5 5 5 5 5 5 5 5 5 5 5 5 5 5 5 5 5 5 5 5 5 5 5 5 5 5 5 5 5 5 5 5 5 5 5 5 5 5 5 5 5 5 5 5 5 5 5 5 5 5 5 5 5 5 5 5 5 5 5 5 5 5 5 5 5 5 5 5 5 5 5 5 5 5 5 5 5 5 5 5 5 5 5 5 5 5 5 5 5 5 5 5 5 5 5 5 5 5 5 5 5 5 5 5 5 5 5 5 5 5 5 5 5 5 5 5 5 5 5 5 5 5 5 5 5 5 5 5 5 5 5 5 5 5 5 5 5 5 5 5 5 5 5 5 5 5 5 5 5 5 5 5 5 5 5 5 5 5 5 5 5 5 5 5 5 5 5 5 5 5 5 5 5 5 5 5 5 5 5 5 5 5 5 5 5 5 5 5 5 5 5 5 5 5 5 5 5 5 5 5 5 5 5 5 5 5 5 5 5 5 5 5 5 5 5 5 5 5 5 5 5 5 5 5 5 5 5 5 5 5 5 5 5 5 5 5 5 5 5 5 5 5 5 5 5 5 5 5 5 5 5 5 5 5 5 5 5 5 5 5 5 5 5 5 5 5 5 5 5 5 5 5 5 5 5 5 5 5 5 5 5 5 5 5 5 5 5 5 5 5 5 5 5 5 5 5 5 5 5 5 5 5 5 5 5 5 5 5 5 5 5 5 5 5 5 5 5 5 5 5 5 5 5 5 5 5 5 5 5 5 5 5 5 5 5 5 5 5 5 5 5 5 5 5 5 5 5 5 5 5 5 5 5 5 5 5 5 5 5 5 5 5 5 5 5 5 5 5 5 5 5 5 5 5 5 5 5 5 5 5 5 5 5 5 5 5 5 5 5 5 5 5 5 5 5 5 5 5 5 5 5 5 5 5 5 5 5 5 5 5 5 5 5 5 5 5 5 5 5 5 5 5 5 5 5 5 5 5 5 5 5 5 5 5 5 5 5 5 5 5 5 5 5 5 5 5 5 5 5 5 5 5 5 5 5 5 5 5 5 5 5 5 5 5 5 5 5 5 5 5 5 5 5 5 5 5 5 5 5 5 5 5 5 5 5 5 5 5 5 5 5 5 5 5 5 5 5 5 5 5 5 5 5 5 5 5 5 5 5 5 5 5 5 5 5 5 5 5 5 5 5 5 5 5 5 5 5 5 5 5 5 5 5 5 5 5 5 5 5 5 5 5 5 5 5 5 5 5 5 5 5 5 5 5 5 5 5 5 5 5 5 5 5 5 5 5 5 5 5 5 5 5 5 5 5 5 5 5 5 5 5 5 5 5 5 5 5 5 5 5 5 5 5 5 5 5 5 5 5 5 5 5 5 5 5 5 5 5 5 5 5 5 5 5 5 5 5 5 5 5 5 5 5 5 5 5 5 5 5 5 5 5 5 5 5 5 5 5 5 5 5 5 5 5 5 5 5 5 5 5 5 5 5 5 5 5 5 5 5 5 5 5 5 5 5 5 5 5 5 5 5 5 5 5 5 5 5 5 5 5 5 5 5 5 5 5 5 5 5 5 5 5 5 5 5 5 5 5 5 5 5 5 5 5 5 5 5 5 5 5 5 5 5 5 5 5 5 5 5 5 5 5 5 5 5 5 5 5 5 5 5 5 5 5 5 5 5 5 5 5 5 5 5 5 5 5 5 5 5 5 5 5 5 5 5 5 5 5 5 5 5 5 5 5 5 5 5 5 5 5 5 5 5 5 5 5 5 5 5 5 5 5 5 5 5 5 5 5 5 5 5 5 5 5 5 5 5 5 5 5 5 5 5 5 5 5 5 5 5 5 5 5 5 5 5 5 5 5 5 5 5 5 5 5 5 5 5 5 5 5 5 5 5 5 5 5 5 5 5 5 5 5 5 5 5 5 5 5 5 5 5 5 5 5 5 5 5 5 5 5 5 5 5 5 5 5 5 5 5 5 5 5 5 5 5 5 5 5 5 5 5 5 5 5 5 5 5 5 5 5 5 5 5 5 5 5 5 5 5 5 5 5 5 5 5 5 5 5 5 5 5 5 5 5 5 5 5 5 5 5 5 5 5 5 5 5 5 5 5 5 5 5 5 5 5 5 5 5 5 5 5 5 5 5 5 5 5 5 5 5 5 5 5 5 5 5 5 5 5 5 5 5 5 5 5 5 5 5 5 5 5 5 5 5 5 5 5 5 5 5 5 5 5 5 5 5 5 5 5 5 5 5 5 5 5 5 5 5 5 5 5 5 5 5 5 5 5 5 5 5 5 5 5 5 5 5 5 5 5 5 5 5 5 5 5 5 5 5 5 5 5 5 5 5 5 5 5 5 5 5 5 5 5 5 5 5 5 5 5 5 5 5 5 5 5 5 5 5 5 5 5 5 5 5 5 5 5 5 5 5 5 5 5 5 5 5 5 5 5 5 5 5 5 5 5 5 5 5 5 5 5 5 5 5 5 5 5 5 5 5 5 5 5 5 5 5 5 5 5 5 5 5 5 5 5 5 5 5 5 5 5 5 5 5 5 5 5 5 5 5 5 5 5 5 5 5 5 5 5 5 5 5 5 5 5 5 5 5 5 5 5 5 5 5 5 5 5 5 5 5 5 5 5 5 5 5 5 5 5 5 5 5 5 5 5 5 5 5 5 5 5 5 5 5 5 5 5 5 5 5 5 5 5 5 5 5 5 5 5 5 5 5 5 5 5 5 5 5 5 5 5 5 5 5 5 5 5 5 5 5 5 5 5 5 5 5 5 5 5 5 5 5 5 5 5 5 5 5 5 5 5 5 5 5 5 5 5 5 5 5 5 5 5 5 5 5 5 5 5 5 5 5 5 5 5 5 5 5 5 5 5 5 5 5 5 5 5 5 5 5 5 5 5 5 5 5 5 5 5 5 5 5 5 5 5 5 5 5 5 5 5 5 5 5 5 5 5 5 5 5 5 5 5 5 5 5 5 5 5 5 5 5 5 5 5 5 5 5 5 5 5 5 5 5 5 5 5 5 5 5 5 5 5 5 5 5 5 5 5 5 5 5 5 5 5 5 5 5 5 5 5 5 5 5 5 5 5 5 5 5 5 5 5 5 5 5 5 5 5 5 5 5 5 5 5 5 5 5 5 5 5 5 5 5 5 5 5 5 5 5 5 5 5 5 5 5 5 5 5 5 5 5 5 5 5 5 5 5 5 5 5 5 5 5 5 5 5 5 5 5 5 5 5 5 5 5 5 5 5 5 5 5 5 5 5 5 5 5 5 5 5 5 5 5 5 5 5 5 5 5 5 5 5 5 5 5 5 5 5 5 5 5 5 5 5 5 5 5 5 5 5 5 5 5 5 5 5 5 5 5 5 5 5 5 5 5 5 5 5 5 5 5 5 5 5 5 5 5 5 5 5 5 5 5 5 5 5 5 5 5 5 5 5 5 5 5 5 5 5 5 5 5 5 5 5 5 5 5 5 5 5 5 5 5 5 5 5 5 5 5 5 5 5 5 5 5 5 5 5 5 5 5 5 5 5 5 5 5 5 5 5 5 5 5 5 5 5 5 5 5 5 5 5 5 5 5 5 5 5 5 5 5 5 5 5 5 5 5 5 5 5 5 5 5 5 5 5 5 5 5 5 5 5 5 5 5 5 5 5 5 5 5 5 5 5 5 5 5 5 5 5 5 5 5 5 5 5 5 5 5 5 5 5 5 5 5 5 5 5 5 5 5 5 5 5 5 5 5 5 5 5 5 5 5 5 5 5 5 5 5 5 5 5 5 5 5 5 5 5 5 5 5 5 5 5 5 5 5 5 5 5 5 5 5 5 5 5 5 5 5 5 5 5 5 5 5 5 5 5 5 5 5 5 5 5 5 5 5 5 5 5 5 5 5 5 5 5 5 5 5 5 5 5 5 5 5 5 5 5 5 5 5 5 5 5 5 5 5 5 5 5 5 5 5 5 5 5 5 5 5 5 5 5 5 5 5 5 5 5 5 5 5 5 5 5 5 5 5 5 5 5 5 5 5 5 5 5 5 5 5 5 5 5 5 5 5 5 5 5 5 5 5 5 5 5 5 5 5 5 5 5 5 5 5 5 5 5 5 5 5 5 5 5 5 5 5 5 5 5 5 5 5 5 5 5 5 5 5 5 5 5 5 5 5 5 5 5 5 5 5 5 5 5 5 5 5 5 5 5 5 5 5 5 5 5 5 5 5 5 5 5 5 5 5 5 5 5 5 5 5 5 5 5 5 5 5 5 5 5 5 5 5 5 5 5 5 5 5 5 5 5 5 5 5 5 5 5 5 5 5 5 5 5 5 5 5 5 5 5 5 5 5 5 5 5 5 5 5 5 5 5 5 5 5 5 5 5 5 5 5 5 5 5 5 5 5 5 5 5 5 5 5 5 5 5 5 5 5 5 5 5 5 5 5 5 5 5 5 5 5 5 5 5 5 5 5 5 5 5 5 5 5 5 5 5 5 5 5 5 5 5 5 5 5 5 5 5 5 5 5 5 5 5 5 5 5 5 5 5 5 5 5 5 5 5 5 5 5 5 5 5 5 5 5 5 5 5 5 5 5 5 5 5 5 5 5 5 5 5 5 5 5 5 5 5 5 5 5 5 5 5 5 5 5 5 5 5 5 5 5 5 5 5 5 5 5 5 5 5 5 5 5 5 5 5 5 5 5 5 5 5 5 5 5 5 5 5 5 5 5 5 5 5 5 5 5 5 5 5 5 5 5 5 5 5 5 5 5 5 5 5 5 5 5 5 5 5 5 5 5 5 5 5 5 5 5 5 5 5 5 5 5 5 5 5 5 5 5 5 5 5 5 5 5 5 5 5 5 5 5 5 5 5 5 5 5 5 5 5 5 5 5 5 5 5 5 5 5 5 5 5 5 5 5 5 5 5 5 5 5 5 5 5 5 5 5 5 5 5 5 5 5 5 5 5 5 5 5 5 5 5 5 5 5 5 5 5 5 5 5 5 5 5 5 5 5 5 5 5 5 5 5 5 5 5 5 5 5 5 5 5 5 5 5 5 5 5 5 5 5 5 5 5 5 5 5 5 5 5 5 5 5 5 5 5 5 5 5 5 5 5 5 5 5 5 5 5 5 5 5 5 5 5 5 5 5 5 5 5 5 5 5 5 5 5 5 5 5 5 5 5 5 5 5 5 5 5 5 5 5 5 5 5 5 5 5 5 5 5 5 5 5 5 5 5 5 5 5 5 5 5 5 5 5 5 5 5 5 5 5 5 5 5 5 5 5 5 5 5 5 5 5 5 5 5 5 5 5 5 5 5 5 5 5 5 5 5 5 5 5 5 5 5 5 5 5 5 5 5 5 5 5 5 5 5 5 5 5 5 5 5 5 5 5 5 5 5 5 5 5 5 5 5 5 5 5 5 5 5 5 5 5 5 5 5 5 5 5 5 5 5 5 5 5 5 5 5 5 5 5 5 5 5 5 5 5 5 5 5 5 5 5 5 5 5 5 5 5 5 5 5 5 5 5 5 5 5 5 5 5 5 5 5 5 5 5 5 5 5 5 5 5 5 5 5 5 5 5 5 5 5 5 5 5 5 5 5 5 5 5 5 5 5 5 5 5 5 5 5 5 5 5 5 5 5 5 5 5 5 5 5 5 5 5 5 5 5 5 5 5 5 5 5 5 5 5 5 5 5 5 5 5 5 5 5 5 5 5 5 5 5 5 5 5 5 5 5 5 5 5 5 5 5 5 5 5 5 5 5 5 5 5 5 5 5 5 5 5 5 5 5 5 5 5 5 5 5 5 5 5 5 5 5 5 5 5 5 5 5 5 5 5 5 5 5 5 5 5 5 5 5 5 5 5 5 5 5 5 5 5 5 5 5 5 5 5 5 5 5 5 5 5 5 5 5 5 5 5 5 5 5 5 5 5 5 5 5 5 5 5 5 5 5 5 5 5 5 5 5 5 5 5 5 5 5 5 5 5 5 5 5 5 5 5 5 5 5 5 5 5 5 5 5 5 5 5 5 5 5 5 5 5 5 5 5 5 5 5 5 5 5 5 5 5 5 5 5 5 5 5 5 5 5 5 5 5 5 5 5 5 5 5 5 5 5 5 5 5 5 5 5 5 5 5 5 5 5 5 5 5 5 5 5 5 5 5 5 5 5 5 5 5 5 5 5 5 5 5 5 5 5 5 5 5 5 5 5 5 5 5 5 5 5 5 5 5 5 5 5 5 5 5 5 5 5 5 5 5 5 5 5 5 5 5 5 5 5 5 5 5 5 5 5 5 5 5 5 5 5 5 5 5 5 5 5 5 5 5 5 5 5 5 5 5 5 5 5 5 5 5 5 5 5 5 5 5 5 5 5 5 5 5 5 5 5 5 5 5 5 5 5 5 5 5 5 5 5 5 5 5 5 5 5 5 5 5 5 5 5 5 5 5 5 5 5 5 5 5 5 5 5 5 5 5 5 5 5 5 5 5 5 5 5 5 5 5 5 5 5 5 5 5 5 5 5 5 5 5 5 5 5 5 5 5 5 5 5 5 5 5 5 5 5 5 5 5 5 5 5 5 5 5 5 5 5 5 5 5 5 5 5 5 5 5 5 5 5 5 5 5 5 5 5 5 5 5 5 5 5 5 5 5 5 5 5 5 5 5 5 5 5 5 5 5 5 5 5 5 5 5 5 5 5 5 5 5 5 5 5 5 5 5 5 5 5 5 5 5 5 5 5 5 5 5 5 5 5 5 5 5 5 5 5 5 5 5 5 5 5 5 5 5 5 5 5 5 5 5 5 5 5 5 5 5 5 5 5 5 5 5 5 5 5 5 5 5 5 5 5 5 5 5 5 5 5 5 5 5 5 5 5 5 5 5 5 5 5 5 5 5 5 5 5 5 5 5 5 5 5 5 5 5 5 5 5 5 5 5 5 5 5 5 5 5 5 5 5 5 5 5 5 5 5 5 5 5 5 5 5 5 5 5 5 5 5 5 5 5 5 5 5 5 5 5 5 5 5 5 5 5 5 5 5 5 5 5 5 5 5 5 5 5 5 5 5 5 5 5 5 5 5 5 5 5 5 5 5 5 5 5 5 5 5 5 5 5 5 5 5 5 5 5 5 5 5 5 5 5 5 5 5 5 5 5 5 5 5 5 5 5 5 5 5 5 5 5 5 5 5 5 5 5 5 5 5 5 5 5 5 5 5 5 5 5 5 5 5 5 5 5 5 5 5 5 5 5 5 5 5 5 5 5 5 5 5 5 5 5 5 5 5 5 5 5 5 5 5 5 5 5 5 5 5 5 5 5 5 5 5 5 5 5 5 5 5 5 5 5 5 5 5 5 5 5 5 5 5 5 5 5 5 5 5 5 5 5 5 5 5 5 5 5 5 5 5 5 5 5 5 5 5 5 5 5 5 5 5 5 5 5 5 5 5 5 5 5 5 5 5 5 5 5 5 5 5 5 5 5 5 5 5 5 5 5 5 5 5 5 5 5 5 5 5 5 5 5 5 5 5 5 5 5 5 5 5 5 5 5 5 5 5 5 5 5 5 5 5 5 5 5 5 5 5 5 5 5 5 5 5 5 5 5 5 5 5 5 5 5 5 5 5 5 5 5 5 5 5 5 5 5 5 5 5 5 5 5 5 5 5 5 5 5 5 5 5 5 5 5 5 5 5 5 5 5 5 5 5 5 5 5 5 5 5 5 5 5 5 5 5 5 5 5 5 5 5 5 5 5 5 5 5 5 5 5 5 5 5 5 5 5 5 5 5 5 5 5 5 5 5 5 5 5 5 5 5 5 5 5 5 5 5 5 5 5 5 5 5 5 5 5 5 5 5 5 5 5 5 5 5 5 5 5 5 5 5 5 5 5 5 5 5 5 5 5 5 5 5 5 5 5 5 5 5 5 5 5 5 5 5 5 5 5 5 5 5 5 5 5 5 5 5 5 5 5 5 5 5 5 5 5 5 5 5 5 5 5 5 5 5 5 5 5 5 5 5 5 5 5 5 5 5 5 5 5 5 5 5 5 5 5 5 5 5 5 5 5 5 5 5 5 5 5 5 5 5 5 5 5 5 5 5 5 5 5 5 5 5 5 5 5 5 5 5 5 5 5 5 5 5 5 5 5 5 5 5 5 5 5 5 5 5 5 5 5 5 5 5 5 5 5 5 5 5 5 5 5 5 5 5 5 5 5 5 5 5 5 5 5 5 5 5 5 5 5 5 5 5 5 5 5 5 5 5 5 5 5 5 5 5 5 5 5 5 5 5 5 5 5 5 5 5 5 5 5 5 5 5 5 5 5 5 5 5 5 5 5 5 5 5 5 5 5 5 5 5 5 5 5 5 5 5 5 5 5 5 5 5 5 5 5 5 5 5 5 5 5 5 5 5 5 5 5 5 5 5 5 5 5 5 5 5 5 5 5 5 5 5 5 5 5 5 5 5 5 5 5 5 5 5 5 5 5 5 5 5 5 5 5 5 5 5 5 5 5 5 5 5 5 5 5 5 5 5 5 5 5 5 5 5 5 5 5 5 5 5 5 5 5 5 5 5 5 5 5 5 5 5 5 5 5 5 5 5 5 5 5 5 5 5 5 5 5 5 5 5 5 5 5 5 5 5 5 5 5 5 5 5 5 5 5 5 5 5 5 5 5 5 5 5 5 5 5 5 5 5 5 5 5 5 5 5 5 5 5 5 5 5 5 5 5 5 5 5 5 5 5 5 5 5 5 5 5 5 5 5 5 5 5 5 5 5 5 5 5 5 5 5 5 5 5 5 5 5 5 5 5 5 5 5 5 5 5 5 5 5 5 5 5 5 5 5 5 5 5 5 5 5 5 5 5 5 5 5 5 5 5 5 5 5 5 5 5 5 5 5 5 5 5 5 5 5 5 5 5 5 5 5 5 5 5 5 5 5 5 5 5 5 5 5 5 5 5 5 5 5 5 5 5 5 5 5 5 5 5 5 5 5 5 5 5 5 5 5 5 5 5 5 5 5 5 5 5 5 5 5 5 5 5 5 5 5 5 5 5 5 5 5 5 5 5 5 5 5 5 5 5 5 5 5 5 5 5 5 5 5 5 5 5 5 5 5 5 5 5 5 5 5 5 5 5 5 5 5 5 5 5 5 5 5 5 5 5 5 5 5 5 5 5 5 5 5 5 5 5 5 5 5 5 5 5 5 5 5 5 5 5 5 5 5 5 5 5 5 5 5 5 5 5 5 5 5 5 5 5 5 5 5 5 5 5 5 5 5 5 5 5 5 5 5 5 5 5 5 5 5 5 5 5 5 5 5 5 5 5 5 5 5 5 5 5 5 5 5 5 5 5 5 5 5 5 5 5 5 5 5 5 5 5 5 5 5 5 5 5 5 5 5 5 5 5 5 5 5 5 5 5 5 5 5 5 5 5 5 5 5 5 5 5 5 5 5 5 5 5 5 5 5 5 5 5 5 5 5 5 5 5 5 5 5 5 5 5 5 5 5 5 5 5 5 5 5 5 5 5 5 5 5 5 5 5 5 5 5 5 5 5 5 5 5 5 5 5 5 5 5 5 5 5 5 5 5 5 5 5 5 5 5 5 5 5 5 5 5 5 5 5 5 5 5 5 5 5 5 5 5 5 5 5 5 5 5 5 5 5 5 5 5 5 5 5 5 5 5 5 5 5 5 5 5 5 5 5 5 5 5 5 5 5 5 5 5 5 5 5 5 5 5 5 5 5 5 5 5 5 5 5 5 5 5 5 5 5 5 5 5 5 5 5 5 5 5 5 5 5 5 5 5 5 5 5 5 5 5 5 5 5 5 5 5 5 5 5 5 5 5 5 5 5 5 5 5 5 5 5 5 5 5 5 5 5 5 5 5 5 5 5 5 5 5 5 5 5 5 5 5 5 5 5 5 5 5 5 5 5 5 5 5 5 5 5 5 5 5 5 5 5 5 5 5 5 5 5 5 5 5 5 5 5 5 5 5 5 5 5 5 5 5 5 5 5 5 5 5 5 5 5 5 5 5 5 5 5 5 5 5 5 5 5 5 5 5 5 5 5 5 5 5 5 5 5 5 5 5 5 5 5 5 5 5 5 5 5 5 5 5 5 5 5 5 5 5 5 5 5 5 5 5 5 5 5 5 5 5 5 5 5 5 5 5 5 5 5 5 5 5 5 5 5 5 5 5 5 5 5 5 5 5 5 5 5 5 5 5 5 5 5 5 5 5 5 5 5 5 5 5 5 5 5 5 5 5 5 5 5 5 5 5 5 5 5 5 5 5 5 5 5 5 5 5 5 5 5 5 5 5 5 5 5 5 5 5 5 5 5 5 5 5 5 5 5 5 5 5 5 5 5 5 5 5 5 5 5 5 5 5 5 5 5 5 5 5 5 5 5 5 5 5 5 5 5 5 5 5 5 5 5 5 5 5 5 5 5 5 5 5 5 5 5 5 5 5 5 5 5 5 5 5 5 5 5 5 5 5 5 5 5 5 5 5 5 5 5 5 5 5 5 5 5 5 5 5 5 5 5 5 5 5 5 5 5 5 5 5 5 5 5 5 5 5 5 5 5 5 5 5 5 5 5 5 5 5 5 5 5 5 5 5 5 5 5 5 5 5 5 5 5 5 5 5 5 5 5 5 5 5 5 5 5 5 5 5 5 5 5 5 5 5 5 5 5 5 5 5 5 5 5 5 5 5 5 5 5 5 5 5 5 5 5 5 5 5 5 5 5 5 5 5 5 5 5 5 5 5 5 5 5 5 5 5 5 5 5 5 5 5 5 5 5 5 5 5 5 5 5 5 5 5 5 5 5 5 5 5 5 5 5 5 5 5 5 5 5 5 5 5 5 5 5 5 5 5 5 5 5 5 5 5 5 5 5 5 5 5 5 5 5 5 5 5 5 5 5 5 5 5 5 5 5 5 5 5 5 5 5 5 5 5 5 5 5 5 5 5 5 5 5 5 5 5 5 5 5 5 5 5 5 5 5 5 5 5 5 5 5 5 5 5 5 5 5 5 5 5 5 5 5 5 5 5 5 5 5 5 5 5 5 5 5 5 5 5 5 5 5 5 5 5 5 5 5 5 5 5 5 5 5 5 5 5 5 5 5 5 5 5 5 5 5 5 5 5 5 5 5 5 5 5 5 5 5 5 5 5 5 5 5 5 5 5 5 5 5 5 5 5 5 5 5 5 5 5 5 5 5 5 5 5 5 5 5 5 5 5 5 5 5 5 5 5 5 5 5 5 5 5 5 5 5 5 5 5 5 5 5 5 5 5 5 5 5 5 5 5 5 5 5 5 5 5 5 5 5 5 5 5 5 5 5 5 5 5 5 5 5 5 5 5 5 5 5 5 5 5 5 5 5 5 5 5 5 5 5 5 5 5 5 5 5 5 5 5 5 5 5 5 5 5 5 5 5 5 5 5 5 5 5 5 5 5 5 5 5 5 5 5 5 5 5 5 5 5 5 5 5 5 5 5 5 5 5 5 5 5 5 5 5 5 5 5 5 5 5 5 5 5 5 5 5 5 5 5 5 5 5 5 5 5 5 5 5 5 5 5 5 5 5 5 5 5 5 5 5 5 5 5 5 5 5 5 5 5 5 5 5 5 5 5 5 5 5 5 5 5 5 5 5 5 5 5 5 5 5 5 5 5 5 5 5 5 5 5 5 5 5 5 5 5 5 5 5 5 5 5 5 5 5 5 5 5 5 5 5 5 5 5 5 5 5 5 5 5 5 5 5 5 5 5 5 5 5 5 5 5 5 5 5 5 5 5 5 5 5 5 5 5 5 5 5 5 5 5 5 5 5 5 5 5 5 5 5 5 5 5 5 5 5 5 5 5 5 5 5 5 5 5 5 5 5 5 5 5 5 5 5 5 5 5 5 5 5 5 5 5 5 5 5 5 5 5 5 5 5 5 5 5 5 5 5 5 5 5 5 5 5 5 5 5 5 5 5 5 5 5 5 5 5 5 5 5 5 5 5 5 5 5 5 5 5 5 5 5 5 5 5 5 5 5 5 5 5 5 5 5 5 5 5 5 5 5 5 5 5 5 5 5 5 5 5 5 5 5 5 5 5 5 5 5 5 5 5 5 5 5 5 5 5 5 5 5 5 5 5 5 5 5 5 5 5 5 5 5 5 5 5 5 5 5 5 5 5 5 5 5 5 5 5 5 5 5 5 5 5 5 5 5 5 5 5 5 5 5 5 5 5 5 5 5 5 5 5 5 5 5 5 5 5 5 5 5 5 5 5 5 5 5 5 5 5 5 5 5 5 5 5 5 5 5 5 5 5 5 5 5 5 5 5 5 5 5 5 5 5 5 5 5 5 5 5 5 5 5 5 5 5 5 5 5 5 5 5 5 5 5 5 5 5 5 5 5 5 5 5 5 5 5 5 5 5 5 5 5 5 5 5 5 5 5 5 5 5 5 5 5 5 5 5 5 5 5 5 5 5 5 5 5 5 5 5 5 5 5 5 5 5 5 5 5 5 5 5 5 5 5 5 5 5 5 5 5 5 5 5 5 5 5 5 5 5 5 5 5 5 5 5 5 5 5 5 5 5 5 5 5 5 5 5 5 5 5 5 5 5 5 5 5 5 5 5 5 5 5 5 5 5 5 5 5 5 5 5 5 5 5 5 5 5 5 5 5 5 5 5 5 5 5 5 5 5 5 5 5 5 5 5 5 5 5 5 5 5 5 5 5 5 5 5 5 5 5 5 5 5 5 5 5 5 5 5 5 5 5 5 5 5 5 5 5 5 5 5 5 5 5 5 5 5 5 5 5 5 5 5 5 5 5 5 5 5 5 5 5 5 5 5 5 5 5 5 5 5 5 5 5 5 5 5 5 5 5 5 5 5 5 5 5 5 5 5 5 5 5 5 5 5 5 5 5 5 5 5 5 5 5 5 5 5 5 5 5 5 5 5 5 5 5 5 5 5 5 5 5 5 5 5 5 5 5 5 5 5 5 5 5 5 5 5 5 5 5 5 5 5 5 5 5 5 5 5 5 5 5 5 5 5 5 5 5 5 5 5 5 5 5 5 5 5 5 5 5 5 5 5 5 5 5 5 5 5 5 5 5 5 5 5 5 5 5 5 5 5 5 5 5 5 5 5 5 5 5 5 5 5 5 5 5 5 5 5 5 5 5 5 5 5 5 5 5 5 5 5 5 5 5 5 5 5 5 5 5 5 5 5 5 5 5 5 5 5 5 5 5 5 5 5 5 5 5 5 5 5 5 5 5 5 5 5 5 5 5 5 5 5 5 5 5 5 5 5 5 5 5 5 5 5 5 5 5 5 5 5 5 5 5 5 5 5 5 5 5 5 5 5 5 5 5 5 5 5 5 5 5 5 5 5 5 5 5 5 5 5 5 5 5 5 5 5 5 5 5 5 5 5 5 5 5 5 5 5 5 5 5 5 5 5 5 5 5 5 5 5 5 5 5 5 5 5 5 5 5 5 5 5 5 5 5 5 5 5 5 5 5 5 5 5 5 5 5 5 5 5 5 5 5 5 5 5 5 5 5 5 5 5 5 5 5 5 5 5 5 5 5 5 5 5 5 5 5 5 5 5 5 5 5 5 5 5 5 5 5 5 5 5 5 5 5 5 5 5 5 5 5 5 5 5 5 5 5 5 5 5 5 5 5 5 5 5 5 5 5 5 5 5 5 5 5 5 5 5 5 5 5 5 5 5 5 5 5 5 5 5 5 5 5 5 5 5 5 5 5 5 5 5 5 5 5 5 5 5 5 5 5 5 5 5 5 5 5 5 5 5 5 5 5 5 5 5 5 5 5 5 5 5 5 5 5 5 5 5 5 5 5 5 5 5 5 5 5 5 5 5 5 5 5 5 5 5 5 5 5 5 5 5 5 5 5 5 5 5 5 5 5 5 5 5 5 5 5 5 5 5 5 5 5 5 5 5 5 5 5 5 5 5 5 5 5 5 5 5 5 5 5 5 5 5 5 5 5 5 5 5 5 5 5 5 5 5 5 5 5 5 5 5 5 5 5 5 5 5 5 5 5 5 5 5 5 5 5 5 5 5 5 5 5 5 5 5 5 5 5 5 5 5 5 5 5 5 5 5 5 5 5 5 5 5 5 5 5 5 5 5 5 5 5 5 5 5 5 5 5 5 5 5 5 5 5 5 5 5 5 5 5 5 5 5 5 5 5 5 5 5 5 5 5 5 5 5 5 5 5 5 5 5 5 5 5 5 5 5 5 5 5 5 5 5 5 5 5 5 5 5 5 5 5 5 5 5 5 5 5 5 5 5 5 5 5 5 5 5 5 5 5 5 5 5 5 5 5 5 5 5 5 5 5 5 5 5 5 5 5 5 5 5 5 5 5 5 5 5 5 5 5 5 5 5 5 5 5 5 5 5 5 5 5 5 5 5 5 5 5 5 5 5 5 5 5 5 5 5 5 5 5 5 5 5 5 5 5 5 5 5 5 5 5 5 5 5 5 5 5 5 5 5 5 5 5 5 5 5 5 5 5 5 5 5 5 5 5 5 5 5 5 5 5 5 5 5 5 5 5 5 5 5 5 5 5 5 5 5 5 5 5 5 5 5 5 5 5 5 5 5 5 5 5 5 5 5 5 5 5 5 5 5 5 5 5 5 5 5 5 5 5 5 5 5 5 5 5 5 5 5 5 5 5 5 5 5 5 5 5 5 5 5 5 5 5 5 5 5 5 5 5 5 5 5 5 5 5 5 5 5 5 5 5 5 5 5 5 5 5 5 5 5 5 5 5 5 5 5 5 5 5 5 5 5 5 5 5 5 5 5 5 5 5 5 5 5 5 5 5 5 5 5 5 5 5 5 5 5 5 5 5 5 5 5 5 5 5 5 5 5 5 5 5 5 5 5 5 5 5 5 5 5 5 5 5 5 5 5 5 5 5 5 5 5 5 5 5 5 5 5 5 5 5 5 5 5 5 5 5 5 5 5 5 5 5 5 5 5 5 5 5 5 5 5 5 5 5 5 5 5 5 5 5 5 5 5 5 5 5 5 5 5 5 5 5 5 5 5 5 5 5 5 5 5 5 5 5 5 5 5 5 5 5 5 5 5 5 5 5 5 5 5 5 5 5 5 5 5 5 5 5 5 5 5 5 5 5 5 5 5 5 5 5 5 5 5 5 5 5 5 5 5 5 5 5 5 5 5 5 5 5 5 5 5 5 5 5 5 5 5 5 5 5 5 5 5 5 5 5 5 5 5 5 5 5 5 5 5 5 5 5 5 5 5 5 5 5 5 5 5 5 5 5 5 5 5 5 5 5 5 5 5 5 5 5 5 5 5 5 5 5 5 5 5 5 5 5 5 5 5 5 5 5 5 5 5 5 5 5 5 5 5 5 5 5 5 5 5 5 5 5 5 5 5 5 5 5 5 5 5 5 5 5 5 5 5 5 5 5 5 5 5 5 5 5 5 5 5 5 5 5 5 5 5 5 5 5 5 5 5 5 5 5 5 5 5 5 5 5 5 5 5 5 5 5 5 5 5 5 5 5 5 5 5 5 5 5 5 5 5 5 5 5 5 5 5 5 5 5 5 5 5 5 5 5 5 5 5 5 5 5 5 5 5 5 5 5 5 5 5 5 5 5 5 5 5 5 5 5 5 5 5 5 5 5 5 5 5 5 5 5 5 5 5 5 5 5 5 5 5 5 5 5 5 5 5 5 5 5 5 5 5 5 5 5 5 5 5 5 5 5 5 5 5 5 5 5 5 5 5 5 5 5 5 5 5 5 5 5 5 5 5 5 5 5 5 5 5 5 5 5 5 5 5 5 5 5 5 5 5 5 5 5 5 5 5 5 5 5 5 5 5 5 5 5 5 5 5 5 5 5 5 5 5 5 5 5 5 5 5 5 5 5 5 5 5 5 5 5 5 5 5 5 5 5 5 5 5 5 5 5 5 5 5 5 5 5 5 5 5 5 5 5 5 5 5 5 5 5 5 5 5 5 5 5 5 5 5 5 5 5 5 5 5 5 5 5 5 5 5 5 5 5 5 5 5 5 5 5 5 5 5 5 5 5 5 5 5 5 5 5 5 5 5 5 5 5 5 5 5 5 5 5 5 5 5 5 5 5 5 5 5 5 5 5 5 5 5 5 5 5 5 5 5 5 5 5 5 5 5 5 5 5 5 5 5 5 5 5 5 5 5 5 5 5 5 5 5 5 5 5 5 5 5 5 5 5 5 5 5 5 5 5 5 5 5 5 5 5 5 5 5 5 5 5 5 5 5 5 5 5 5 5 5 5 5 5 5 5 5 5 5 5 5 5 5 5 5 5 5 5 5 5 5 5 5 5 5 5 5 5 5 5 5 5 5 5 5 5 5 5 5 5 5 5 5 5 5 5 5 5 5 5 5 5 5 5 5 5 5 5 5 5 5 5 5 5 5 5 5 5 5 5 5 5 5 5 5 5 5 5 5 5 5 5 5 5 5 5 5 5 5 5 5 5 5 5 5 5 5 5 5 5 5 5 5 5 5 5 5 5 5 5 5 5 5 5 5 5 5 5 5 5 5 5 5 5 5 5 5 5 5 5 5 5 5 5 5 5 5 5 5 5 5 5 5 5 5 5 5 5 5 5 5 5 5 5 5 5 5 5 5 5 5 5 5 5 5 5 5 5 5 5 5 5 5 5 5 5 5 5 5 5 5 5 5 5 5 5 5 5 5 5 5 5 5 5 5 5 5 5 5 5 5 5 5 5 5 5 5 5 5 5 5 5 5 5 5 5 5 5 5 5 5 5 5 5 5 5 5 5 5 5 5 5 5 5 5 5 5 5 5 5 5 5 5 5 5 5 5 5 5 5 5 5 5 5 5 5 5 5 5 5 5 5 5 5 5 5 5 5 5 5 5 5 5 5 5 5 5 5 5 5 5 5 5 5 5 5 5 5 5 5 5 5 5 5 5 5 5 5 5 5 5 5 5 5 5 5 5 5 5 5 5 5 5 5 5 5 5 5 5 5 5 5 5 5 5 5 5 5 5 5 5 5 5 5 5 5 5 5 5 5 5 5 5 5 5 5 5 5 5 5 5 5 5 5 5 5 5 5 5 5 5 5 5 5 5 5 5 5 5 5 5 5 5 5 5 5 5 5 5 5 5 5 5 5 5 5 5 5 5 5 5 5 5 5 5 5 5 5 5 5 5 5 5 5 5 5 5 5 5 5 5 5 5 5 5 5 5 5 5 5 5 5 5 5 5 5 5 5 5 5 5 5 5 5 5 5 5 5 5 5 5 5 5 5 5 5 5 5 5 5 5 5 5 5 5 5 5 5 5 5 5 5 5 5 5 5 5 5 5 5 5 5 5 5 5 5 5 5 5 5 5 5 5 5 5 5 5 5 5 5 5 5 5 5 5 5 5 5 5 5 5 5 5 5 5 5 5 5 5 5 5 5 5 5 5 5 5 5 5 5 5 5 5 5 5 5 5 5 5 5 5 5 5 5 5 5 5 5 5 5 5 5 5 5 5 5 5 5 5 5 5 5 5 5 5 5 5 5 5 5 5 5 5 5 5 5 5 5 5 5 5 5 5 5 5 5 5 5 5 5 5 5 5 5 5 5 5 5 5 5 5 5 5 5 5 5 5 5 5 5 5 5 5 5 5 5 5 5 5 5 5 5 5 5 5 5 5 5 5 5 5 5 5 5 5 5 5 5 5 5 5 5 5 5 5 5 5 5 5 5 5 5 5 5 5 5 5 5 5 5 5 5 5 5 5 5 5 5 5 5 5 5 5 5 5 5 5 5 5 5 5 5 5 5 5 5 5 5 5 5 5 5 5 5 5 5 5 5 5 5 5 5 5 5 5 5 5 5 5 5 5 5 5 5 5 5 5 5 5 5 5 5 5 5 5 5 5 5 5 5 5 5 5 5 5 5 5 5 5 5 5 5 5 5 5 5 5 5 5 5 5 5 5 5 5 5 5 5 5 5 5 5 5 5 5 5 5 5 5 5 5 5 5 5 5 5 5 5 5 5 5 5 5 5 5 5 5 5 5 5 5 5 5 5 5 5 5 5 5 5 5 5 5 5 5 5 5 5 5 5 5 5 5 5 5 5 5 5 5 5 5 5 5 5 5 5 5 5 5 5 5 5 5 5 5 5 5 5 5 5 5 5 5 5 5 5 5 5 5 5 5 5 5 5 5 5 5 5 5 5 5 5 5 5 5 5 5 5 5 5 5 5 5 5 5 5 5 5 5 5 5 5 5 5 5 5 5 5 5 5 5 5 5 5 5 5 5 5 5 5 5 5 5 5 5 5 5 5 5 5 5 5 5 5 5 5 5 5 5 5 5 5 5 5 5 5 5 5 5 5 5 5 5 5 5 5 5 5 5 5 5 5 5 5 5 5 5 5 5 5 5 5 5 5 5 5 5 5 5 5 5 5 5 5 5 5 5 5 5 5 5 5 5 5 5 5 5 5 5 5 5 5 5 5 5 5 5 5 5 5 5 5 5 5 5 5 5 5 5 5 5 5 5 5 5 5 5 5 5 5 5 5 5 5 5 5 5 5 5 5 5 5 5 5 5 5 5 5 5 5 5 5 5 5 5 5 5 5 5 5 5 5 5 5 5 5 5 5 5 5 5 5 5 5 5 5 5 5 5 5 5 5 5 5 5 5 5 5 5 5 5 5 5 5 5 5 5 5 5 5 5 5 5 5 5 5 5 5 5 5 5 5 5 5 5 5 5 5 5 5 5 5 5 5 5 5 5 5 5 5 5 5 5 5 5 5 5 5 5 5 5 5 5 5 5 5 5 5 5 5 5 5 5 5 5 5 5 5 5 5 5 5 5 5 5 5 5 5 5 5 5 5 5 5 5 5 5 5 5 5 5 5 5 5 5 5 5 5 5 5 5 5 5 5 5 5 5 5 5 5 5 5 5 5 5 5 5 5 5 5 5 5 5 5 5 5 5 5 5 5 5 5 5 5 5 5 5 5 5 5 5 5 5 5 5 5 5 5 5 5 5 5 5 5 5 5 5 5 5 5 5 5 5 5 5 5 5 5 5 5 5 5 5 5 5 5 5 5 5 5 5 5 5 5 5 5 5 5 5 5 5 5 5 5 5 5 5 5 5 5 5 5 5 5 5 5 5 5 5 5 5 5 5 5 5 5 5 5 5 5 5 5 5 5 5 5 5 5 5 5 5 5 5 5 5 5 5 5 5 5 5 5 5 5 5 5 5 5 5 5 5 5 5 5 5 5 5 5 5 5 5 5 5 5 5 5 5 5 5 5 5 5 5 5 5 5 5 5 5 5 5 5 5 5 5 5 5 5 5 5 5 5 5 5 5 5 5 5 5 5 5 5 5 5 5 5 5 5 5 5 5 5 5 5 5 5 5 5 5 5 5 5 5 5 5 5 5 5 5 5 5 5 5 5 5 5 5 5 5 5 5 5 5 5 5 5 5 5 5 5 5 5 5 5 5 5 5 5 5 5 5 5 5 5 5 5 5 5 5 5 5 5 5 5 5 5 5 5 5 5 5 5 5 5 5 5 5 5 5 5 5 5 5 5 5 5 5 5 5 5 5 5 5 5 5 5 5 5 5 5 5 5 5 5 5 5 5 5 5 5 5 5 5 5 5 5 5 5 5 5 5 5 5 5 5 5 5 5 5 5 5 5 5 5 5 5 5 5 5 5 5 5 5 5 5 5 5 5 5 5 5 5 5 5 5 5 5 5 5 5 5 5 5 5 5 5 5 5 5 5 5 5 5 5 5 5 5 5 5 5 5 5 5 5 5 5 5 5 5 5 5 5 5 5 5 5 5 5 5 5 5 5 5 5 5 5 5 5 5 5 5 5 5 5 5 5 5 5 5 5 5 5 5 5 5 5 5 5 5 5 5 5 5 5 5 5 5 5 5 5 5 5 5 5 5 5 5 5 5 5 5 5 5 5 5 5 5 5 5 5 5 5 5 5 5 5 5 5 5 5 5 5 5 5 5 5 5 5 5 5 5 5 5 5 5 5 5 5 5 5 5 5 5 5 5 5 5 5 5 5 5 5 5 5 5 5 5 5 5 5 5 5 5 5 5 5 5 5 5 5 5 5 5 5 5 5 5 5 5 5 5 5 5 5 5 5 5 5 5 5 5 5 5 5 5 5 5 5 5 5 5 5 5 5 5 5 5 5 5 5 5 5 5 5 5 5 5 5 5 5 5 5 5 5 5 5 5 5 5 5 5 5 5 5 5 5 5 5 5 5 5 5 5 5 5 5 5 5 5 5 5 5 5 5 5 5 5 5 5 5 5 5 5 5 5 5 5 5 5 5 5 5 5 5 5 5 5 5 5 5 5 5 5 5 5 5 5 5 5 5 5 5 5 5 5 5 5 5 5 5 5 5 5 5 5 5 5 5 5 5 5 5 5 5 5 5 5 5 5 5 5 5 5 5 5 5 5 5 5 5 5 5 5 5 5 5 5 5 5 5 5 5 5 5 5 5 5 5 5 5 5 5 5 5 5 5 5 5 5 5 5 5 5 5 5 5 5 5 5 5 5 5 5 5 5 5 5 5 5 5 5 5 5 5 5 5 5 5 5 5 5 5 5 5 5 5 5 5 5 5 5 5 5 5 5 5 5 5 5 5 5 5 5 5 5 5 5 5 5 5 5 5 5 5 5 5 5 5 5 5 5 5 5 5 5 5 5 5 5 5 5 5 5 5 5 5 5 5 5 5 5 5 5 5 5 5 5 5 5 5 5 5 5 5 5 5 5 5 5 5 5 5 5 5 5 5 5 5 5 5 5 5 5 5 5 5 5 5 5 5 5 5 5 5 5 5 5 5 5 5 5 5 5 5 5 5 5 5 5 5 5 5 5 5 5 5 5 5 5 5 5 5 5 5 5 5 5 5 5 5 5 5 5 5 5 5 5 5 5 5 5 5 5 5 5 5 5 5 5 5 5 5 5 5 5 5 5 5 5 5 5 5 5 5 5 5 5 5 5 5 5 5 5 5 5 5 5 5 5 5 5 5 5 5 5 5 5 5 5 5 5 5 5 5 5 5 5 5 5 5 5 5 5 5 5 5 5 5 5 5 5 5 5 5 5 5 5 5 5 5 5 5 5 5 5 5 5 5 5 5 5 5 5 5 5 5 5 5 5 5 5 5 5 5 5 5 5 5 5 5 5 5 5 5 5 5 5 5 5 5 5 5 5 5 5 5 5 5 5 5 5 5 5 5 5 5 5 5 5 5 5 5 5 5 5 5 5 5 5 5 5 5 5 5 5 5 5 5 5 5 5 5 5 5 5 5 5 5 5 5 5 5 5 5 5 5 5 5 5 5 5 5 5 5 5 5 5 5 5 5 5 5 5 5 5 5 5 5 5 5 5 5 5 5 5 5 5 5 5 5 5 5 5 5 5 5 5 5 5 5 5 5 5 5 5 5 5 5 5 5 5 5 5 5 5 5 5 5 5 5 5 5 5 5 5 5 5 5 5 5 5 5 5 5 5 5 5 5 5 5 5 5 5 5 5 5 5 5 5 5 5 5 5 5 5 5 5 5 5 5 5 5 5 5 5 5 5 5 5 5 5 5 5 5 5 5 5 5 5 5 5 5 5 5 5 5 5 5 5 5 5 5 5 5 5 5 5 5 5 5 5 5 5 5 5 5 5 5 5 5 5 5 5 5 5 5 5 5 5 5 5 5 5 5 5 5 5 5 5 5 5 5 5 5 5 5 5 5 5 5 5 5 5 5 5 5 5 5 5 5 5 5 5 5 5 5 5 5 5 5 5 5 5 5 5 5 5 5 5 5 5 5 5 5 5 5 5 5 5 5 5 5 5 5 5 5 5 5 5 5 5 5 5 5 5 5 5 5 5 5 5 5 5 5 5 5 5 5 5 5 5 5 5 5 5 5 5 5 5 5 5 5 5 5 5 5 5 5 5 5 5 5 5 5 5 5 5 5 5 5 5 5 5 5 5 5 5 5 5 5 5 5 5 5 5 5 5 5 5 5 5 5 5 5 5 5 5 5 5 5 5 5 5 5 5 5 5 5 5 5 5 5 5 5 5 5 5 5 5 5 5 5 5 5 5 5 5 5 5 5 5 5 5 5 5 5 5 5 5 5 5 5 5 5 5 5 5 5 5 5 5 5 5 5 5 5 5 5 5 5 5 5 5 5 5 5 5 5 5 5 5 5 5 5 5 5 5 5 5 5 5 5 5 5 5 5 5 5 5 5 5 5 5 5 5 5 5 5 5 5 5 5 5 5 5 5 5 5 5 5 5 5 5 5 5 5 5 5 5 5 5 5 5 5 5 5 5 5 5 5 5 5 5 5 5 5 5 5 5 5 5 5 5 5 5 5 5 5 5 5 5 5 5 5 5 5 5 5 5 5 5 5 5 5 5 5 5 5 5 5 5 5 5 5 5 5 5 5 5 5 5 5 5 5 5 5 5 5 5 5 5 5 5 5 5 5 5 5 5 5 5 5 5 5 5 5 5 5 5 5 5 5 5 5 5 5 5 5 5 5 5 5 5 5 5 5 5 5 5 5 5 5 5 5 5 5 5 5 5 5 5 5 5 5 5 5 5 5 5 5 5 5 5 5 5 5 5 5 5 5 5 5 5 5 5 5 5 5 5 5 5 5 5 5 5 5 5 5 5 5 5 5 5 5 5 5 5 5 5 5 5 5 5 5 5 5 5 5 5 5 5 5 5 5 5 5 5 5 5 5 5 5 5 5 5 5 5 5 5 5 5 5 5 5 5 5 5 5 5 5 5 5 5 5 5 5 5 5 5 5 5 5 5 5 5 5 5 5 5 5 5 5 5 5 5 5 5 5 5 5 5 5 5 5 5 5 5 5 5 5 5 5 5 5 5 5 5 5 5 5 5 5 5 5 5 5 5 5 5 5 5 5 5 5 5 5 5 5 5 5 5 5 5 5 5 5 5 5 5 5 5 5 5 5 5 5 5 5 5 5 5 5 5 5 5 5 5 5 5 5 5 5 5 5 5 5 5 5 5 5 5 5 5 5 5 5 5 5 5 5 5 5 5 5 5 5 5 5 5 5 5 5 5 5 5 5 5 5 5 5 5 5 5 5 5 5 5 5 5 5 5 5 5 5 5 5 5 5 5 5 5 5 5 5 5 5 5 5 5 5 5 5 5 5 5 5 5 5 5 5 5 5 5 5 5 5 5 5 5 5 5 5 5 5 5 5 5 5 5 5 5 5 5 5 5 5 5 5 5 5 5 5 5 5 5 5 5 5 5 5 5 5 5 5 5 5 5 5 5 5 5 5 5 5 5 5 5 5 5 5 5 5 5 5 5 5 5 5 5 5 5 5 5 5 5 5 5 5 5 5 5 5 5 5 5 5 5 5 5 5 5 5 5 5 5 5 5 5 5 5 5 5 5 5 5 5 5 5 5 5 5 5 5 5 5 5 5 5 5 5 5 5 5 5 5 5 5 5 5 5 5 5 5 5 5 5 5 5 5 5 5 5 5 5 5 5 5 5 5 5 5 5 5 5 5 5 5 5 5 5 5 5 5 5 5 5 5 5 5 5 5 5 5 5 5 5 5 5 5 5 5 5 5 5 5 5 5 5 5 5 5 5 5 5 5 5 5 5 5 5 5 5 5 5 5 5 5 5 5 5 5 5 5 5 5 5 5 5 5 5 5 5 5 5 5 5 5 5 5 5 5 5 5 5 5 5 5 5 5 5 5 5 5 5 5 5 5 5 5 5 5 5 5 5 5 5 5 5 5 5 5 5 5 5 5 5 5 5 5 5 5 5 5 5 5 5 5 5 5 5 5 5 5 5 5 5 5 5 5 5 5 5 5 5 5 5 5 5 5 5 5 5 5 5 5 5 5 5 5 5 5 5 5 5 5 5 5 5 5 5 5 5 5 5 5 5 5 5 5 5 5 5 5 5 5 5 5 5 5 5 5 5 5 5 5 5 5 5 5 5 5 5 5 5 5 5 5 5 5 5 5 5 5 5 5 5 5 5 5 5 5 5 5 5 5 5 5 5 5 5 5 5 5 5 5 5 5 5 5 5 5 5 5 5 5 5 5 5 5 5 5 5 5 5 5 5 5 5 5 5 5 5 5 5 5 5 5 5 5 5 5 5 5 5 5 5 5 5 5 5 5 5 5 5 5 5 5 5 5 5 5 5 5 5 5 5 5 5 5 5 5 5 5 5 5 5 5 5 5 5 5 5 5 5 5 5 5 5 5 5 5 5 5 5 5 5 5 5 5 5 5 5 5 5 5 5 5 5 5 5 5 5 5 5 5 5 5 5 5 5 5 5 5 5 5 5 5 5 5 5 5 5 5 5 5 5 5 5 5 5 5 5 5 5 5 5 5 5 5 5 5 5 5 5 5 5 5 5 5 5 5 5 5 5 5 5 5 5 5 5 5 5 5 5 5 5 5 5 5 5 5 5 5 5 5 5 5 5 5 5 5 5 5 5 5 5 5 5 5 5 5 5 5 5 5 5 5 5 5 5 5 5 5 5 5 5 5 5 5 5 5 5 5 5 5 5 5 5 5 5 5 5 5 5 5 5 5 5 5 5 5 5 5 5 5 5 5 5 5 5 5 5 5 5 5 5 5 5 5 5 5 5 5 5 5 5 5 5 5 5 5 5 5 5 5 5 5 5 5 5 5 5 5 5 5 5 5 5 5 5 5 5 5 5 5 5 5 5 5 5 5 5 5 5 5 5 5 5 5 5 5 5 5 5 5 5 5 5 5 5 5 5 5 5 5 5 5 5 5 5 5 5 5 5 5 5 5 5 5 5 5 5 5 5 5 5 5 5 5 5 5 5 5 5 5 5 5 5 5 5 5 5 5 5 5 5 5 5 5 5 5 5 5 5 5 5 5 5 5 5 5 5 5 5 5 5 5 5 5 5 5 5 5 5 5 5 5 5 5 5 5 5 5 5 5 5 5 5 5 5 5 5 5 5 5 5 5 5 5 5 5 5 5 5 5 5 5 5 5 5 5 5 5 5 5 5 5 5 5 5 5 5 5 5 5 5 5 5 5 5 5 5 5 5 5 5 5 5 5 5 5 5 5 5 5 5 5 5 5 5 5 5 5 5 5 5 5 5 5 5 5 5 5 5 5 5 5 5 5 5 5 5 5 5 5 5 5 5 5 5 5 5 5 5 5 5 5 5 5 5 5 5 5 5 5 5 5 5 5 5 5 5 5 5 5 5 5 5 5 5 5 5 5 5 5 5 5 5 5 5 5 5 5 5 5 5 5 5 5 5 5 5 5 5 5 5 5 5 5 5 5 5 5 5 5 5 5 5 5 5 5 5 5 5 5 5 5 5 5 5 5 5 5 5 5 5 5 5 5 5 5 5 5 5 5 5 5 5 5 5 5 5 5 5 5 5 5 5 5 5 5 5 5 5 5 5 5 5 5 5 5 5 5 5 5 5 5 5 5 5 5 5 5 5 5 5 5 5 5 5 5 5 5 5 5 5 5 5 5 5 5 5 5 5 5 5 5 5 5 5 5 5 5 5 5 5 5 5 5 5 5 5 5 5 5 5 5 5 5 5 5 5 5 5 5 5 5 5 5 5 5 5 5 5 5 5 5 5 5 5 5 5 5 5 5 5 5 5 5 5 5 5 5 5 5 5 5 5 5 5 5 5 5 5 5 5 5 5 5 5 5 5 5 5 5 5 5 5 5 5 5 5 5 5 5 5 5 5 5 5 5 5 5 5 5 5 5 5 5 5 5 5 5 5 5 5 5 5 5 5 5 5 5 5 5 5 5 5 5 5 5 5 5 5 5 5 5 5 5 5 5 5 5 5 5 5 5 5 5 5 5 5 5 5 5 5 5 5 5 5 5 5 5 5 5 5 5 5 5 5 5 5 5 5 5 5 5 5 5 5 5 5 5 5 5 5 5 5 5 5 5 5 5 5 5 5 5 5 5 5 5 5 5 5 5 5 5 5 5 5 5 5 5 5 5 5 5 5 5 5 5 5 5 5 5 5 5 5 5 5 5 5 5 5 5 5 5 5 5 5 5 5 5 5 5 5 5 5 5 5 5 5 5 5 5 5 5 5 5 5 5 5 5 5 5 5 5 5 5 5 5 5 5 5 5 5 5 5 5 5 5 5 5 5 5 5 5 5 5 5 5 5 5 5 5 5 5 5 5 5 5 5 5 5 5 5 5 5 5 5 5 5 5 5 5 5 5 5 5 5 5 5 5 5 5 5 5 5 5 5 5 5 5 5 5 5 5 5 5 5 5 5 5 5 5 5 5 5 5 5 5 5 5 5 5 5 5 5 5 5 5 5 5 5 5 5 5 5 5 5 5 5 5 5 5 5 5 5 5 5 5 5 5 5 5 5 5 5 5 5 5 5 5 5 5 5 5 5 5 5 5 5 5 5 5 5 5 5 5 5 5 5 5 5 5 5 5 5 5 5 5 5 5 5 5 5 5 5 5 5 5 5 5 5 5 5 5 5 5 5 5 5 5 5 5 5 5 5 5 5 5 5 5 5 5 5 5 5 5 5 5 5 5 5 5 5 5 5 5 5 5 5 5 5 5 5 5 5 5 5 5 5 5 5 5 5 5 5 5 5 5 5 5 5 5 5 5 5 5 5 5 5 5 5 5 5 5 5 5 5 5 5 5 5 5 5 5 5 5 5 5 5 5 5 5 5 5 5 5 5 5 5 5 5 5 5 5 5 5 5 5 5 5 5 5 5 5 5 5 5 5 5 5 5 5 5 5 5 5 5 5 5 5 5 5 5 5 5 5 5 5 5 5 5 5 5 5 5 5 5 5 5 5 5 5 5 5 5 5 5 5 5 5 5 5 5 5 5 5 5 5 5 5 5 5 5 5 5 5 5 5 5 5 5 5 5 5 5 5 5 5 5 5 5 5 5 5 5 5 5 5 5 5 5 5 5 5 5 5 5 5 5 5 5 5 5 5 5 5 5 5 5 5 5 5 5 5 5 5 5 5 5 5 5 5 5 5 5 5 5 5 5 5 5 5 5 5 5 5 5 5 5 5 5 5 5 5 5 5 5 5 5 5 5 5 5 5 5 5 5 5 5 5 5 5 5 5 5 5 5 5 5 5 5 5 5 5 5 5 5 5 5 5 5 5 5 5 5 5 5 5 5 5 5 5 5 5 5 5 5 5 5 5 5 5 5 5 5 5 5 5 5 5 5 5 5 5 5 5 5 5 5 5 5 5 5 5 5 5 5 5 5 5 5 5 5 5 5 5 5 5 5 5 5 5 5 5 5 5 5 5 5 5 5 5 5 5 5 5 5 5 5 5 5 5 5 5 5 5 5 5 5 5 5 5 5 5 5 5 5 5 5 5 5 5 5 5 5 5 5 5 5 5 5 5 5 5 5 5 5 5 5 5 5 5 5 5 5 5 5 5 5 5 5 5 5 5 5 5 5 5 5 5 5 5 5 5 5 5 5 5 5 5 5 5 5 5 5 5 5 5 5 5 5 5 5 5 5 5 5 5 5 5 5 5 5 5 5 5 5 5 5 5 5 5 5 5 5 5 5 5 5 5 5 5 5 5 5 5 5 5 5 5 5 5 5 5 5 5 5 5 5 5 5 5 5 5 5 5 5 5 5 5 5 5 5 5 5 5 5 5 5 5 5 5 5 5 5 5 5 5 5 5 5 5 5 5 5 5 5 5 5 5 5 5 5 5 5 5 5 5 5 5 5 5 5 5 5 5 5 5 5 5 5 5 5 5 5 5 5 5 5 5 5 5 5 5 5 5 5 5 5 5 5 5 5 5 5 5 5 5 5 5 5 5 5 5 5 5 5 5 5 5 5 5 5 5 5 5 5 5 5 5 5 5 5 5 5 5 5 5 5 5 5 5 5 5 5 5 5 5 5 5 5 5 5 5 5 5 5 5 5 5 5 5 5 5 5 5 5 5 5 5 5 5 5 5 5 5 5 5 5 5 5 5 5 5 5 5 5 5 5 5 5 5 5 5 5 5 5 5 5 5 5 5 5 5 5 5 5 5 5 5 5 5 5 5 5 5 5 5 5 5 5 5 5 5 5 5 5 5 5 5 5 5 5 5 5 5 5 5 5 5 5 5 5 5 5 5 5 5 5 5 5 5 5 5 5 5 5 5 5 5 5 5 5 5 5 5 5 5 5 5 5 5 5 5 5 5 5 5 5 5 5 5 5 5 5 5 5 5 5 5 5 5 5 5 5 5 5 5 5 5 5 5 5 5 5 5 5 5 5 5 5 5 5 5 5 5 5 5 5 5 5 5 5 5 5 5 5 5 5 5 5 5 5 5 5 5 5 5 5 5 5 5 5 5 5 5 5 5 5 5 5 5 5 5 5 5 5 5 5 5 5 5 5 5 5 5 5 5 5 5 5 5 5 5 5 5 5 5 5 5 5 5 5 5 5 5 5 5 5 5 5 5 5 5 5 5 5 5 5 5 5 5 5 5 5 5 5 5 5 5 5 5 5 5 5 5 5 5 5 5 5 5 5 5 5 5 5 5 5 5 5 5 5 5 5 5 5 5 5 5 5 5 5 5 5 5 5 5 5 5 5 5 5 5 5 5 5 5 5 5 5 5 5 5 5 5 5 5 5 5 5 5 5 5 5 5 5 5 5 5 5 5 5 5 5 5 5 5 5 5 5 5 5 5 5 5 5 5 5 5 5 5 5 5 5 5 5 5 5 5 5 5 5 5 5 5 5 5 5 5 5 5 5 5 5 5 5 5 5 5 5 5 5 5 5 5 5 5 5 5 5 5 5 5 5 5 5 5 5 5 5 5 5 5 5 5 5 5 5 5 5 5 5 5 5 5 5 5 5 5 5 5 5 5 5 5 5 5 5 5 5 5 5 5 5 5 5 5 5 5 5 5 5 5 5 5 5 5 5 5 5 5 5 5 5 5 5 5 5 5 5 5 5 5 5 5 5 5 5 5 5 5 5 5 5 5 5 5 5 5 5 5 5 5 5 5 5 5 5 5 5 5 5 5 5 5 5 5 5 5 5 5 5 5 5 5 5 5 5 5 5 5 5 5 5 5 5 5 5 5 5 5 5 5 5 5 5 5 5 5 5 5 5 5 5 5 5 5 5 5 5 5 5 5 5 5 5 5 5 5 5 5 5 5 5 5 5 5 5 5 5 5 5 5 5 5 5 5 5 5 5 5 5 5 5 5 5 5 5 5 5 5 5 5 5 5 5 5 5 5 5 5 5 5 5 5 5 5 5 5 5 5 5 5 5 5 5 5 5 5 5 5 5 5 5 5 5 5 5 5 5 5 5 5 5 5 5 5 5 5 5 5 5 5 5 5 5 5 5 5 5 5 5 5 5 5 5 5 5 5 5 5 5 5 5 5 5 5 5 5 5 5 5 5 5 5 5 5 5 5 5 5 5 5 5 5 5 5 5 5 5 5 5 5 5 5 5 5 5 5 5 5 5 5 5 5 5 5 5 5 5 5 5 5 5 5 5 5 5 5 5 5 5 5 5 5 5 5 5 5 5 5 5 5 5 5 5 5 5 5 5 5 5 5 5 5 5 5 5 5 5 5 5 5 5 5 5 5 5 5 5 5 5 5 5 5 5 5 5 5 5 5 5 5 5 5 5 5 5 5 5 5 5 5 5 5 5 5 5 5 5 5 5 5 5 5 5 5 5 5 5 5 5 5 5 5 5 5 5 5 5 5 5 5 5 5 5 5 5 5 5 5 5 5 5 5 5 5 5 5 5 5 5 5 5 5 5 5 5 5 5 5 5 5 5 5 5 5 5 5 5 5 5 5 5 5 5 5 5 5 5 5 5 5 5 5 5 5 5 5 5 5 5 5 5 5 5 5 5 5 5 5 5 5 5 5 5 5 5 5 5 5 5 5 5 5 5 5 5 5 5 5 5 5 5 5 5 5 5 5 5 5 5 5 5 5 5 5 5 5 5 5 5 5 5 5 5 5 5 5 5 5 5 5 5 5 5 5 5 5 5 5 5 5 5 5 5 5 5 5 5 5 5 5 5 5 5 5 5 5 5 5 5 5 5 5 5 5 5 5 5 5 5 5 5 5 5 5 5 5 5 5 5 5 5 5 5 5 5 5 5 5 5 5 5 5 5 5 5 5 5 5 5 5 5 5 5 5 5 5 5 5 5 5 5 5 5 5 5 5 5 5 5 5 5 5 5 5 5 5 5 5 5 5 5 5 5 5 5 5 5 5 5 5 5 5 5 5 5 5 5 5 5 5 5 5 5 5 5 5 5 5 5 5 5 5 5 5 5 5 5 5 5 5 5 5 5 5 5 5 5 5 5 5 5 5 5 5 5 5 5 5 5 5 5 5 5 5 5 5 5 5 5 5 5 5 5 5 5 5 5 5 5 5 5 5 5 5 5 5 5 5 5 5 5 5 5 5 5 5 5 5 5 5 5 5 5 5 5 5 5 5 5 5 5 5 5 5 5 5 5 5 5 5 5 5 5 5 5 5 5 5 5 5 5 5 5 5 5 5 5 5 5 5 5 5 5 5 5 5 5 5 5 5 5 5 5 5 5 5 5 5 5 5 5 5 5 5 5 5 5 5 5 5 5 5 5 5 5 5 5 5 5 5 5 5 5 5 5 5 5 5 5 5 5 5 5 5 5 5 5 5 5 5 5 5 5 5 5 5 5 5 5 5 5 5 5 5 5 5 5 5 5 5 5 5 5 5 5 5 5 5 5 5 5 5 5 5 5 5 5 5 5 5 5 5 5 5 5 5 5 5 5 5 5 5 5 5 5 5 5 5 5 5 5 5 5 5 5 5 5 5 5 5 5 5 5 5 5 5 5 5 5 5 5 5 5 5 5 5 5 5 5 5 5 5 5 5 5 5 5 5 5 5 5 5 5 5 5 5 5 5 5 5 5 5 5 5 5 5 5 5 5 5 5 5 5 5 5 5 5 5 5 5 5 5 5 5 5 5 5 5 5 5 5 5 5 5 5 5 5 5 5 5 5 5 5 5 5 5 5 5 5 5 5 5 5 5 5 5 5 5 5 5 5 5 5 5 5 5 5 5 5 5 5 5 5 5 5 5 5 5 5 5 5 5 5 5 5 5 5 5 5 5 5 5 5 5 5 5 5 5 5 5 5 5 5 5 5 5 5 5 5 5 5 5 5 5 5 5 5 5 5 5 5 5 5 5 5 5 5 5 5 5 5 5 5 5 5 5 5 5 5 5 5 5 5 5 5 5 5 5 5 5 5 5 5 5 5 5 5 5 5 5 5 5 5 5 5 5 5 5 5 5 5 5 5 5 5 5 5 5 5 5 5 5 5 5 5 5 5 5 5 5 5 5 5 5 5 5 5 5 5 5 5 5 5 5 5 5 5 5 5 5 5 5 5 5 5 5 5 5 5 5 5 5 5 5 5 5 5 5 5 5 5 5 5 5 5 5 5 5 5 5 5 5 5 5 5 5 5 5 5 5 5 5 5 5 5 5 5 5 5 5 5 5 5 5 5 5 5 5 5 5 5 5 5 5 5 5 5 5 5 5 5 5 5 5 5 5 5 5 5 5 5 5 5 5 5 5 5 5 5 5 5 5 5 5 5 5 5 5 5 5 5 5 5 5 5 5 5 5 5 5 5 5 5 5 5 5 5 5 5 5 5 5 5 5 5 5 5 5 5 5 5 5 5 5 5 5 5 5 5 5 5 5 5 5 5 5 5 5 5 5 5 5 5 5 5 5 5 5 5 5 5 5 5 5 5 5 5 5 5 5 5 5 5 5 5 5 5 5 5 5 5 5 5 5 5 5 5 5 5 5 5 5 5 5 5 5 5 5 5 5 5 5 5 5 5 5 5 5 5 5 5 5 5 5 5 5 5 5 5 5 5 5 5 5 5 5 5 5 5 5 5 5 5 5 5 5 5 5 5 5 5 5 5 5 5 5 5 5 5 5 5 5 5 5 5 5 5 5 5 5 5 5 5 5 5 5 5 5 5 5 5 5 5 5 5 5 5 5 5 5 5 5 5 5 5 5 5 5 5 5 5 5 5 5 5 5 5 5 5 5 5 5 5 5 5 5 5 5 5 5 5 5 5 5 5 5 5 5 5 5 5 5 5 5 5 5 5 5 5 5 5 5 5 5 5 5 5 5 5 5 5 5 5 5 5 5 5 5 5 5 5 5 5 5 5 5 5 5 5 5 5 5 5 5 5 5 5 5 5 5 5 5 5 5 5 5 5 5 5 5 5 5 5 5 5 5 5 5 5 5 5 5 5 5 5 5 5 5 5 5 5 5 5 5 5 5 5 5 5 5 5 5 5 5 5 5 5 5 5 5 5 5 5 5 5 5 5 5 5 5 5 5 5 5 5 5 5 5 5 5 5 5 5 5 5 5 5 5 5 5 5 5 5 5 5 5 5 5 5 5 5 5 5 5 5 5 5 5 5 5 5 5 5 5 5 5 5 5 5 5 5 5 5 5 5 5 5 5 5 5 5 5 5 5 5 5 5 5 5 5 5 5 5 5 5 5 5 5 5 5 5 5 5 5 5 5 5 5 5 5 5 5 5 5 5 5 5 5 5 5 5 5 5 5 5 5 5 5 5 5 5 5 5 5 5 5 5 5 5 5 5 5 5 5 5 5 5 5 5 5 5 5 5 5 5 5 5 5 5 5 5 5 5 5 5 5 5 5 5 5 5 5 5 5 5 5 5 5 5 5 5 5 5 5 5 5 5 5 5 5 5 5 5 5 5 5 5 5 5 5 5 5 5 5 5 5 5 5 5 5 5 5 5 5 5 5 5 5 5 5 5 5 5 5 5 5 5 5 5 5 5 5 5 5 5 5 5 5 5 5 5 5 5 5 5 5 5 5 5 5 5 5 5 5 5 5 5 5 5 5 5 5 5 5 5 5 5 5 5 5 5 5 5 5 5 5 5 5 5 5 5 5 5 5 5 5 5 5 5 5 5 5 5 5 5 5 5 5 5 5 5 5 5 5 5 5 5 5 5 5 5 5 5 5 5 5 5 5 5 5 5 5 5 5 5 5 5 5 5 5 5 5 5 5 5 5 5 5 5 5 5 5 5 5 5 5 5 5 5 5 5 5 5 5 5 5 5 5 5 5 5 5 5 5 5 5 5 5 5 5 5 5 5 5 5 5 5 5 5 5 5 5 5 5 5 5 5 5 5 5 5 5 5 5 5 5 5 5 5 5 5 5 5 5 5 5 5 5 5 5 5 5 5 5 5 5 5 5 5 5 5 5 5 5 5 5 5 5 5 5 5 5 5 5 5 5 5 </DataArray>
</Cells>
<PointData  Scalars="ShearStress"> 
<DataArray  type="Float64"  Name="ShearStress"  format="ascii">1.1313708536810341e-01  -1.4787533046133175e-04  5.1692956406831172e-05  1.1885940814270167e-01  1.4516415835680821e-01  1.1313708004556880e-01  1.1313708253610232e-01  1.1313707513499005e-01  1.1313706221829846e-01  1.1313704443826264e-01  1.1313702326380982e-01  1.1313699820238010e-01  1.1313697046660662e-01  1.1313693753043767e-01  1.1313689365712598e-01  1.1313683831562908e-01  1.1313677426458843e-01  1.1313669565021629e-01  1.1313660127634720e-01  1.1313648443294225e-01  1.1313633996724663e-01  1.1313616374965334e-01  1.1313594566560055e-01  1.1313567791385569e-01  1.1313535385238541e-01  1.1313494666819231e-01  1.1313444772966191e-01  1.1313383884943227e-01  1.1313308247221987e-01  1.1313215618560581e-01  1.1313100910575791e-01  1.1312961036398816e-01  1.1312788809407595e-01  1.1312575632641451e-01  1.1312313912839968e-01  1.1311991849104111e-01  1.1311594223876870e-01  1.1311106945880366e-01  1.1310506072217381e-01  1.1309755357299613e-01  1.1308869104353353e-01  1.1307690216622793e-01  1.1306364138153555e-01  1.1304668999279799e-01  1.1302528675426228e-01  1.1299982247860094e-01  1.1296795150143035e-01  1.1292906244856440e-01  1.1288075192035028e-01  1.1282221559243898e-01  1.1274709085547431e-01  1.1265968368317854e-01  1.1254909607140569e-01  1.1241365784786277e-01  1.1224694250111109e-01  1.1204112013817863e-01  1.1179730145869429e-01  1.1151487797094822e-01  1.1120654742818044e-01  1.1087703926429873e-01  1.1051037395027515e-01  1.1013090367826546e-01  1.0972043660180286e-01  1.0930609020078966e-01  1.0887365650969839e-01  1.0842737603609053e-01  1.0798216671472761e-01  1.0752965871187285e-01  1.0707959505605731e-01  1.0663103073235929e-01  1.0618906832891582e-01  1.0575461243368124e-01  1.0532823203138006e-01  1.0491685289112473e-01  1.0451639115814344e-01  1.0412958312181703e-01  1.0375454854928501e-01  1.0336952732728003e-01  1.0296908001359002e-01  1.0255287545561999e-01  1.0212026127709527e-01  1.0167080038513571e-01  1.0120227765167668e-01  1.0071869732810527e-01  1.0021456165798065e-01  9.9690800187337641e-02  9.9146992837111328e-02  9.8582233858759277e-02  9.7995586908245919e-02  9.7387116231156701e-02  9.6755571674677299e-02  9.6100186630599965e-02  9.5420371929783449e-02  9.4715005128653482e-02  9.3983042066658293e-02  9.3225790187328697e-02  9.2438809310446388e-02  9.1624177099965926e-02  9.0777349881961705e-02  8.9905590689027121e-02  8.8999275636969924e-02  8.8061303384145723e-02  8.7090575524347971e-02  8.6085959666022019e-02  8.5046192354756883e-02  8.3972150611623622e-02  8.2860460524994003e-02  8.1710868741297543e-02  8.0524411353421782e-02  7.9294974564736345e-02  7.8033035281632510e-02  7.6722239287605631e-02  7.5378223599523661e-02  7.3986879343626064e-02  7.2554147622359413e-02  7.1076498281260309e-02  6.9555119306734900e-02  6.7988346189296167e-02  6.6375710339533600e-02  6.4717426649774645e-02  6.3011667442596064e-02  6.1260812368212202e-02  5.9460512610242704e-02  5.7614015404817934e-02  5.5720178016703245e-02  5.3777166740317781e-02  5.1788257299898492e-02  4.9747141663397637e-02  4.7667071764378559e-02  4.5535255265360057e-02  4.3358349459355093e-02  4.1135935798140739e-02  3.8869291542535142e-02  3.6559681889235661e-02  3.4209241317654064e-02  3.1818278439484628e-02  2.9385352198960643e-02  2.6922161406880460e-02  2.4414717347942878e-02  2.1875639344053878e-02  1.9289342846537466e-02  1.6655999122518743e-02  1.3947997512843811e-02  1.1176613352874658e-02  8.3037687873960195e-03  5.3908508073307873e-03  2.4894632807092995e-03  -7.5621781731393173e-05  2.0515180809146925e-03  2.8024096312018031e-03  1.1655010243242173e-03  4.1353104455918725e-04  1.7109283633593152e-04  2.1151070124180091e-03  4.7270465478954525e-03  7.6100546303221762e-03  1.0518796045923992e-02  1.3347685975852045e-02  1.6048987961433118e-02  1.8615062983831334e-02  2.1054810080612062e-02  2.3384097880697279e-02  2.5615866293582798e-02  2.7771539318531189e-02  2.9858906593974947e-02  3.1890398589609334e-02  3.3871522236752050e-02  3.5810574393234894e-02  3.7709304849099526e-02  3.9573222270596092e-02  4.1401003520022121e-02  4.3199027856479742e-02  4.4962843473747689e-02  4.6697877386693676e-02  4.8402664734059124e-02  5.0078982446649413e-02  5.1724397055370054e-02  5.3341878606822289e-02  5.4930003848987045e-02  5.6489540174139326e-02  5.8019936304323935e-02  5.9521427105760048e-02  6.0992898167489998e-02  6.2434776045435722e-02  6.3847281637273004e-02  6.5229762444687103e-02  6.6579680881610259e-02  6.7899698459815791e-02  6.9187179630964463e-02  7.0442706463542532e-02  7.1665939229475228e-02  7.2855252284066002e-02  7.4009900962189415e-02  7.5130038932480908e-02  7.6214284835218374e-02  7.7262352520752267e-02  7.8272790087645816e-02  7.9245648015397782e-02  8.0179888777959396e-02  8.1072654272041994e-02  8.1925644440853457e-02  8.2736332288762232e-02  8.3505339765369557e-02  8.4228736065654328e-02  8.4907832262636915e-02  8.5540350638502391e-02  8.6127010476668764e-02  8.6664596540934155e-02  8.7151957752721720e-02  8.7592899791366016e-02  8.7977356444140162e-02  8.8311198662591003e-02  8.8591833339940376e-02  8.8809756335267914e-02  8.8982449382286957e-02  8.9092585708570926e-02  8.9145083269583633e-02  8.9132924810919945e-02  8.9071615025195935e-02  8.8935506778764759e-02  8.8751852904909126e-02  8.8491724949223929e-02  8.8176002720011401e-02  8.7794535665746340e-02  8.7346484393312052e-02  8.6832890543679375e-02  8.6253128136198245e-02  8.5606887774553719e-02  8.4893486228531365e-02  8.4113378616870030e-02  8.3265071870350288e-02  8.2350066343664291e-02  8.1367327818822194e-02  8.0318124288491374e-02  7.9201690013450593e-02  7.8019265469537163e-02  7.6771167733947487e-02  7.5458221857230237e-02  7.4081355755528419e-02  7.2640231609247471e-02  7.1137901101612069e-02  6.9574244587488884e-02  6.7949870708068363e-02  6.6268038493148801e-02  6.4529120323874034e-02  6.2735139901132164e-02  6.0887517811716099e-02  5.8988737640851475e-02  5.7039906651521935e-02  5.5043185707576374e-02  5.3001583158979827e-02  5.0916805706310998e-02  4.8790282566914388e-02  4.6625508733369084e-02  4.4424997241042381e-02  4.2191246425376638e-02  3.9924560167553989e-02  3.7630325799499389e-02  3.5309935104179117e-02  3.2966117742070297e-02  3.0603136616113014e-02  2.8220127744796514e-02  2.5823165121929791e-02  2.3413302832227728e-02  2.0993657987201965e-02  1.8566513140291119e-02  1.6135512386372914e-02  1.3701318509385371e-02  1.1268094547623782e-02  8.8381040398068274e-03  6.4158964631606712e-03  3.9914832460274871e-03  1.5201721370309963e-03  3.0688009102366077e-04  3.3398246196876180e-03  5.5066478600542760e-03  7.8946817595014554e-03  1.0209495483741747e-02  1.2510323217779337e-02  1.4785195720425876e-02  1.7034434080082504e-02  1.9255719989874520e-02  2.1447356610313040e-02  2.3608528254975284e-02  2.5737027574145168e-02  2.7832211723466671e-02  2.9895077078905270e-02  3.1920772154360150e-02  3.3910431512093997e-02  3.5863010731264716e-02  3.7778095451736785e-02  3.9653709888892580e-02  4.1490965720391862e-02  4.3288448380553575e-02  4.5045968739310591e-02  4.6763557497207363e-02  4.8440637461007519e-02  5.0077131486058371e-02  5.1673153189516458e-02  5.3228473533137852e-02  5.4743324360043207e-02  5.6217680141762101e-02  5.7651890835876095e-02  5.9045946739925539e-02  6.0400660607602526e-02  6.1717031420646808e-02  6.2993068445091283e-02  6.4231555065539292e-02  6.5433241608615245e-02  6.6596200330649447e-02  6.7723351060854017e-02  6.8813932221541266e-02  6.9869457123915318e-02  7.0890045288422285e-02  7.1876640397987857e-02  7.2829835341278543e-02  7.3750208289992611e-02  7.4639597508299405e-02  7.5497122794972532e-02  7.6324288161011319e-02  7.7123093739048687e-02  7.7891341182963592e-02  7.8632908383352143e-02  7.9347148141449622e-02  8.0034716832872929e-02  8.0696768054577400e-02  8.1337571568590603e-02  8.1993784687536403e-02  8.2677267246520816e-02  8.3379946551099801e-02  8.4104048942952703e-02  8.4848276116815738e-02  8.5600822184047756e-02  8.6369345546944101e-02  8.7145545114704542e-02  8.7914982308436904e-02  8.8692680122603978e-02  8.9459171816034425e-02  9.0212032922241073e-02  9.0954273088468998e-02  9.1671127797424617e-02  9.2373398636969514e-02  9.3053245061249790e-02  9.3715716499229162e-02  9.4359447693748294e-02  9.5005188675996347e-02  9.5623385616282974e-02  9.6243020205720897e-02  9.6821713366829348e-02  9.7390504289713312e-02  9.7952129896809140e-02  9.8507756395561863e-02  9.9058274156939255e-02  9.9605583653613342e-02  1.0015521196603488e-01  1.0069955933533949e-01  1.0123804092439942e-01  1.0177129765059878e-01  1.0229555181155131e-01  1.0281101455573628e-01  1.0331612519630270e-01  1.0380680610985213e-01  1.0428308658608947e-01  1.0474331369980586e-01  1.0518747978054702e-01  1.0561361555151921e-01  1.0602238660487152e-01  1.0641343062539371e-01  1.0678525782784822e-01  1.0713930578195448e-01  1.0747754968888908e-01  1.0779658926223266e-01  1.0810026296145298e-01  1.0838369127688144e-01  1.0867035977671238e-01  1.0890439601248419e-01  1.0915514089727260e-01  1.0938763225133212e-01  1.0959175724203656e-01  1.0980707833708683e-01  1.0998977255115598e-01  1.1017069904348439e-01  1.1033992174793057e-01  1.1050055837283444e-01  1.1064992619640096e-01  1.1079152315285140e-01  1.1092507179002471e-01  1.1105117513657058e-01  1.1117089550579062e-01  1.1128703272761645e-01  1.1140185849210564e-01  1.1152285500313157e-01  1.1164428460330385e-01  1.1180747549917323e-01  1.1253745526552414e-01  1.0847318360737347e-01  1.2623770533188072e-01  1.1902948533712256e-01  1.3663912391844668e-01  1.0794794894656171e-01  1.1036553549431610e-01  1.0543049080123924e-01  6.8790055845164455e-02  5.0023305788759291e-02  4.6228419881125055e-02  3.1270059948125886e-02  1.9993499918566075e-02  -4.9941231817703373e-04  1.8979190084398120e-02  3.5017825763552154e-02  4.7698281172443104e-02  4.6546928649306880e-02  7.0285901063187148e-02  1.0780112477852477e-01  1.0804861339277162e-01  1.3032013298299794e-01  1.0970630611070022e-01  1.2594604570082038e-01  1.2426711244003516e-01  1.0477810747945500e-01  1.1359737055112538e-01  1.1123078778376948e-01  1.1138925909920645e-01  1.1110912770493990e-01  1.1098286234564644e-01  1.1083100510642112e-01  1.1069490997667478e-01  1.1055179285562700e-01  1.1039818320642034e-01  1.1024000505002736e-01  1.1007363191367749e-01  1.0990118625812910e-01  1.0971767270669375e-01  1.0952306471790024e-01  1.0931883692555745e-01  1.0910286888085383e-01  1.0887475283898000e-01  1.0863368169269311e-01  1.0837835338258348e-01  1.0810828443134876e-01  1.0782219775269616e-01  1.0751884391466318e-01  1.0719720822285095e-01  1.0685528049039897e-01  1.0649229688882605e-01  1.0610519409083650e-01  1.0569239605715515e-01  1.0525100664805498e-01  1.0477877337452320e-01  1.0427309133851745e-01  1.0373020946596841e-01  1.0314672455771057e-01  1.0251713739955187e-01  1.0183773333222013e-01  1.0110418670260227e-01  1.0030932524598772e-01  9.9447622396025864e-02  9.8496603193249627e-02  9.7504333856971548e-02  9.6389296202431515e-02  9.5186936550643420e-02  9.3885515791533231e-02  9.2471626661520326e-02  9.0939335022968623e-02  8.9296093241146277e-02  8.7528097461903098e-02  8.5604039620269898e-02  8.3588312325370881e-02  8.1434077402459518e-02  7.9218136065237948e-02  7.7075060680168186e-02  7.5026785638779306e-02  7.3077609709277583e-02  7.1233586339067817e-02  6.9498262196710792e-02  6.7882193867506893e-02  6.6372747648350286e-02  6.4975291473582969e-02  6.3683789740170416e-02  6.2492464820447124e-02  6.1395949001510075e-02  6.0387595100404430e-02  5.9466054648982920e-02  5.8620453713834945e-02  5.7846126494472995e-02  5.7138164465857136e-02  5.6490240015362146e-02  5.5897253482020480e-02  5.5357204457647212e-02  5.4851511546551560e-02  5.4352196564174844e-02  5.3858982872164451e-02  5.3371744984069353e-02  5.2891011303569713e-02  5.2416441499482290e-02  5.1949111868404008e-02  5.1489418543998515e-02  5.1037772565786822e-02  5.0594169888934365e-02  5.0159221884044668e-02  4.9733144455411930e-02  4.9316413446235413e-02  4.8909295447912636e-02  4.8512490000606576e-02  4.8125800980260987e-02  4.7749661340169725e-02  4.7384905635535005e-02  4.7031724507252952e-02  4.6690312814605409e-02  4.6361219076338694e-02  4.6044751221970118e-02  4.5741167475816420e-02  4.5451410917573973e-02  4.5175362293292345e-02  4.4912861645155892e-02  4.4664868817751877e-02  4.4431857922659995e-02  4.4214890241527471e-02  4.4012589588653783e-02  4.3826511201255143e-02  4.3657508334501695e-02  4.3504451431710459e-02  4.3369025461019298e-02  4.3251005670223261e-02  4.3150582944609620e-02  4.3068874130924292e-02  4.3005731588791021e-02  4.2961727127519438e-02  4.2937366365875217e-02  4.2933039821257665e-02  4.2948206005484858e-02  4.2984132934705155e-02  4.3041269276788835e-02  4.3119977497780827e-02  4.3220366950476534e-02  4.3343057645544261e-02  4.3488198196437511e-02  4.3656907407496615e-02  4.3848423193184119e-02  4.4063677495988864e-02  4.4303476342091433e-02  4.4567943221924380e-02  4.4857332425805078e-02  4.5172263352407031e-02  4.5513008933702602e-02  4.5880105515720374e-02  4.6273841907442936e-02  4.6694775639849431e-02  4.7143056158539684e-02  4.7619838805031775e-02  4.8124955848615508e-02  4.8658102472154165e-02  4.9220640257426819e-02  4.9813067608097360e-02  5.0435553111055680e-02  5.1088834644587737e-02  5.1772565398762467e-02  5.2487156154817388e-02  5.3234329258083773e-02  5.4013248047809700e-02  5.4825085818179325e-02  5.5669381151712459e-02  5.6546381352844774e-02  5.7458474443347708e-02  5.8404188260255917e-02  5.9383468496861665e-02  6.0397948350338376e-02  6.1447753593309104e-02  6.2533170671571423e-02  6.3654134898787851e-02  6.4811295213591080e-02  6.6005144218076142e-02  6.7235449226466862e-02  6.8502838991613746e-02  6.9807829775212618e-02  7.1150110425505897e-02  7.2530350480283418e-02  7.3948311564836361e-02  7.5404719597139375e-02  7.6899531339791480e-02  7.8432930362484485e-02  8.0005184801295703e-02  8.1616248682967185e-02  8.3266291626726857e-02  8.4955587635984320e-02  8.6684080147301820e-02  8.8451788743224305e-02  9.0258734695838186e-02  9.2105234841119557e-02  9.3990959928170414e-02  9.5916325103496500e-02  9.7881480669829324e-02  9.9885930816885071e-02  1.0192935131251415e-01  1.0401244975939834e-01  1.0613462041232824e-01  1.0829646139759556e-01  1.1049687814257211e-01  1.1273745741978052e-01  1.1501633146097598e-01  1.1733502354094406e-01  1.1969223461826038e-01  1.2208820994386584e-01  1.2452356843706409e-01  1.2699742029960720e-01  1.2951046311293032e-01  1.3206292677419523e-01  1.3465365055833742e-01  1.3728304291964580e-01  1.3995262093817182e-01  1.4266078732244242e-01  1.4540857799452669e-01  1.4819598509975998e-01  1.5102280120394471e-01  1.5389003921420261e-01  1.5679840888818300e-01  1.5974706121968987e-01  1.6273739037678461e-01  1.6576990755218710e-01  1.6884444708197227e-01  1.7196282639972249e-01  1.7512594211261867e-01  1.7833434910395485e-01  1.8158780712351483e-01  1.8488879978183306e-01  1.8823926533764795e-01  1.9163952382305013e-01  1.9509054088586403e-01  1.9859632079595343e-01  2.0215662679775470e-01  2.0577524949724063e-01  2.0945418848039646e-01  2.1319361028583067e-01  2.1699722450309364e-01  2.2087066454851209e-01  2.2481337751403890e-01  2.2883121608167864e-01  2.3292762317701723e-01  2.3710267434337476e-01  2.4136913963568915e-01  2.4572339788822156e-01  2.5017128426892238e-01  2.5471949047879550e-01  2.5937662861940952e-01  2.6414611471929889e-01  2.6903546277022389e-01  2.7404839473983894e-01  2.7919702840978139e-01  2.8448397135475778e-01  2.8991999756217157e-01  2.9551292031146703e-01  3.0127108917522433e-01  3.0720396099277875e-01  3.1332050191725053e-01  3.1963027338165806e-01  3.2614361138245096e-01  3.3286961575859941e-01  3.3981766698865368e-01  3.4699824403678103e-01  3.5441974293055223e-01  3.6209007157248618e-01  3.7001846065152266e-01  3.7821086157974598e-01  3.8667248186384789e-01  3.9540473714487251e-01  4.0440937377782865e-01  4.1368807965191334e-01  4.2323397630304593e-01  4.3303802098889582e-01  4.4308901716605054e-01  4.5337819473144680e-01  4.6386916514585497e-01  4.7454633853791517e-01  4.8537324388576525e-01  4.9630766736626464e-01  5.0730429598096050e-01  5.1831228596850143e-01  5.2927172582862314e-01  5.4011266950345327e-01  5.5076728793641150e-01  5.6113954290457269e-01  5.7115988810088891e-01  5.8076774655383867e-01  5.8982270380605262e-01  5.9825526762646186e-01  6.0598280267136984e-01  6.1289377517203725e-01  6.1893019001740346e-01  6.2400336973416437e-01  6.2803130802445961e-01  6.3098441938074123e-01  6.3278312224203415e-01  6.3340116969805293e-01  6.3281686417251415e-01  6.3103104495564988e-01  6.2804008713844894e-01  6.2385498186295785e-01  6.1852506095227167e-01  6.1209124013212735e-01  6.0460589315720326e-01  5.9615002882864998e-01  5.8679229688334666e-01  5.7662027115619496e-01  5.6572220661060368e-01  5.5419641858338653e-01  5.4213089732166775e-01  5.2962260896964575e-01  5.1676204984039720e-01  5.0364260616388101e-01  4.9035327342157287e-01  4.7697033364400304e-01  4.6356698682157399e-01  4.5021454212686191e-01  4.3697725747832439e-01  4.2390893193941220e-01  4.1105964298680975e-01  3.9846869020240006e-01  3.8617457349120737e-01  3.7420175532205252e-01  3.6258453168408805e-01  3.5131870274531773e-01  3.4044536716326007e-01  3.2996175815560302e-01  3.1986845166404637e-01  3.1017122702091993e-01  3.0087302085713807e-01  2.9195954037304889e-01  2.8343868636881686e-01  2.7529423506319173e-01  2.6751783942530588e-01  2.6010099575767659e-01  2.5303143500433128e-01  2.4629834201293635e-01  2.3988851695440766e-01  2.3378979064166713e-01  2.2798976497623227e-01  2.2247482446087238e-01  2.1723361950223188e-01  2.1225343058142981e-01  2.0752128746096180e-01  2.0302570872676340e-01  1.9875579034126498e-01  1.9469998226905336e-01  1.9084628751381955e-01  1.8718687098579714e-01  1.8371067335151386e-01  1.8040861175582004e-01  1.7727058448085170e-01  1.7428881646996081e-01  1.7145520544676196e-01  1.6876198999609915e-01  1.6620168783734598e-01  1.6376739684853991e-01  1.6145244411338305e-01  1.5925060245966860e-01  1.5715589787198092e-01  1.5516281555348319e-01  1.5326633895944611e-01  1.5145611796066313e-01  1.4974387469222833e-01  1.4810428316708310e-01  1.4654485162005620e-01  1.4505969998837473e-01  1.4364410832830465e-01  1.4229594901441475e-01  1.4100572227045122e-01  1.3978561008596405e-01  1.3861471277230861e-01  1.3749963643187282e-01  1.3643600335424164e-01  1.3542118608039869e-01  1.3445295503186969e-01  1.3352849117542276e-01  1.3264644196819525e-01  1.3180372299398657e-01  1.3099919209352515e-01  1.3023113123966376e-01  1.2949717673669053e-01  1.2879642362776178e-01  1.2812451112658804e-01  1.2748723594714678e-01  1.2687472555405149e-01  1.2628796643451365e-01  1.2573144555859136e-01  1.2519615065115461e-01  1.2468499023395950e-01  1.2419623729971965e-01  1.2372879969369113e-01  1.2328171512416829e-01  1.2285290296616799e-01  1.2241937029958755e-01  1.2197025926840732e-01  1.2151258924092753e-01  1.2104165442577473e-01  1.2056247228624094e-01  1.2007460917878891e-01  1.1958592229689179e-01  1.1909761576960394e-01  1.1860734105391692e-01  1.1812283993327749e-01  1.1764807298449828e-01  1.1718535360800662e-01  1.1673784407690369e-01  1.1630925867012266e-01  1.1590243432535011e-01  1.1552243764042290e-01  1.1516806129316141e-01  1.1484254093463597e-01  1.1455559677829553e-01  1.1429135112413051e-01  1.1407277096174018e-01  1.1389648756614294e-01  1.1375312916629900e-01  1.1363668749801392e-01  1.1354253361970983e-01  1.1346587722286523e-01  1.1340384988506229e-01  1.1335340473434033e-01  1.1331305456145642e-01  1.1327942971132922e-01  1.1325278419328791e-01  1.1323094280664366e-01  1.1321324263394572e-01  1.1319888523310040e-01  1.1318725161687525e-01  1.1317777774989955e-01  1.1317011839414788e-01  1.1316388594471581e-01  1.1315882140405309e-01  1.1315472727175932e-01  1.1315141027371835e-01  1.1314870612629831e-01  1.1314651432682384e-01  1.1314473529978808e-01  1.1314329409846759e-01  1.1314211984813966e-01  1.1314116866426019e-01  1.1314039609841019e-01  1.1313976887945769e-01  1.1313926132313504e-01  1.1313884675466369e-01  1.1313851375775685e-01  1.1313823677423517e-01  1.1313802429770663e-01  1.1313783904455631e-01  1.1313769269739542e-01  1.1313757296659332e-01  1.1313747616573884e-01  1.1313739712406549e-01  1.1313733210622791e-01  1.1313727792014869e-01  1.1313723580661411e-01  1.1313719813551017e-01  1.1313716790439235e-01  1.1313714306497881e-01  1.1313712268032537e-01  1.1313710646669070e-01  1.1313709330587672e-01  1.1313708505510964e-01  1.1291081957621082e-01  1.1261662949923749e-01  1.1223430879723925e-01  1.1173701919980736e-01  1.1109100272655605e-01  1.1025059535713519e-01  1.0915998963932415e-01  8.7323710370571725e-02  6.5534281417579929e-02  4.3402150357828913e-02  2.2940980042220026e-02  -6.3112789649740722e-04  2.2712521965515552e-02  4.3442904185541628e-02  6.5529563133822508e-02  8.7325946862566992e-02  1.0915936354881939e-01  1.1025043549562971e-01  1.1109085074317554e-01  1.1173713068325121e-01  1.1223425177444618e-01  1.1261665511843737e-01  1.1291081127260057e-01  3.9441217010024971e-04  2.3765943789693435e-04  3.1445051918076029e-03  7.5836757288054186e-03  1.3133632486208588e-02  1.9358846795657397e-02  2.5841611853630698e-02  3.2173009946056493e-02  3.8085706286577536e-02  4.3354352569304568e-02  4.7891621769761465e-02  5.1703734573059532e-02  5.4899602512106023e-02  5.7617146849429424e-02  6.0030406672433527e-02  6.2252762963156759e-02  6.4297183159083976e-02  6.6082537829721830e-02  6.7325221962020454e-02  6.7675018490782279e-02  6.6570575038587668e-02  6.3437164263187767e-02  5.7915133045363824e-02  4.7964451146897714e-02  3.7550301591687478e-02  1.2614160283442635e-02  3.8130795751801427e-03  3.4991821885657561e-02  7.0783394597880245e-02  1.1339547410584606e-01  1.6286152035365453e-01  2.1890924852173876e-01  2.8100904567910173e-01  3.4831465131132122e-01  4.1988201145552251e-01  4.9433183409303555e-01  5.7023935929182568e-01  6.4646339966043598e-01  7.2125305527453176e-01  7.9346746905119070e-01  8.6183130357762783e-01  9.2515780960099669e-01  9.8261828569284360e-01  1.0333834524138394e+00  1.0768900200362859e+00  1.1126359103583843e+00  1.1401883221205182e+00  1.1594247098943959e+00  1.1703629361319559e+00  1.1726643650802075e+00  1.1665076979328024e+00  1.1521083035261261e+00  1.1294549025112330e+00  1.0989429333097238e+00  1.0608202355933209e+00  1.0156249741765442e+00  9.6369221109168024e-01  9.0583333314076964e-01  8.4288983588585376e-01  7.7574518929212199e-01  7.0528870691829815e-01  6.3262018101822404e-01  5.5919171486792263e-01  4.8614405288966789e-01  4.1481723725515962e-01  3.4651143687973374e-01  2.8248905181225026e-01  2.2385047999639171e-01  1.7146953536382009e-01  1.2592775036009032e-01  8.7681351631045137e-02  5.6739066314037127e-02  3.2879860214563641e-02  1.5908556753148638e-02  3.9211296194149045e-03  8.5507240011372103e-04  3.0731204159687889e-03  1.2899737638671046e-03  -1.4058438103974391e-04  1.3290104995114260e-06  2.5279871771197160e-04  5.4105690114725755e-04  8.7987245388955731e-04  1.2276128770085301e-03  1.3486837738878352e-03  1.1908943736570370e-04  1.8768715148167876e-04  2.4099458666429607e-04  2.3429788315074756e-04  4.1093041369923683e-05  7.8796426265485782e-05  7.4594915677627998e-04  3.4890111863638889e-03  2.8775408109072381e-03  1.6145174213565417e-03  1.3293061027977538e-03  2.2861876921042626e-03  4.3004600688404376e-03  7.0960548762222918e-03  5.8307054269964350e-03  5.0804064905400764e-03  4.1798871874878362e-03  3.1295579569590422e-03  2.2608435636251255e-03  3.0290112053747123e-03  5.4415132459685964e-03  8.3931376131963081e-02  8.4795948484474387e-02  8.5919935811997680e-02  8.7379292430906946e-02  8.9277984524541054e-02  9.1729280706266542e-02  9.4941336802664991e-02  8.2278052240997324e-02  8.3138424631426136e-02  8.4256737553269387e-02  8.5709281166792550e-02  8.7598479265736537e-02  9.0038403374221254e-02  9.3233599105673831e-02  7.6051893125402587e-02  7.6893252929458630e-02  7.7986712438496669e-02  7.9407134027663973e-02  8.1254092850555987e-02  8.3641720483565968e-02  8.6763733017483136e-02  7.9087769402965677e-02  7.9938959077906865e-02  8.1045423612758793e-02  8.2482906010399079e-02  8.4349258715364084e-02  8.6765079755256075e-02  8.9925515437444273e-02  8.5623793583601879e-02  8.6492369964179694e-02  8.7621651176058205e-02  8.9088030930310008e-02  9.0994552910799734e-02  9.3457852804866140e-02  9.6679184400229420e-02  8.7355195058344923e-02  8.8227575241089568e-02  8.9361678265824945e-02  9.0834802053763347e-02  9.2748784340110704e-02  9.5224505159835438e-02  9.8458021629825157e-02  8.9125602989327771e-02  9.0001580483738991e-02  9.1140290937944984e-02  9.2619323894140862e-02  9.4542506895841372e-02  9.7027360752716382e-02  1.0027375968866689e-01  8.0663567296834757e-02  8.1519460701667615e-02  8.2631879798001115e-02  8.4077355160752196e-02  8.5955106656518121e-02  8.8383565720848087e-02  9.1560631187996303e-02  9.0935125361149088e-02  9.1814420763204091e-02  9.2957522292553343e-02  9.4442019000119407e-02  9.6371752400930266e-02  9.8865557554664599e-02  1.0212541984848209e-01  9.2783988566110739e-02  9.3666299909355044e-02  9.4813391144875955e-02  9.6303173338974660e-02  9.8239157895745263e-02  1.0074213713413863e-01  1.0400981827357378e-01  7.7550601011106543e-02  7.8396954923395532e-02  7.9497168085132783e-02  8.0925973159683834e-02  8.2783256624085713e-02  8.5185032478853215e-02  8.8325984578575684e-02  9.4671959272861650e-02  9.5556991171913144e-02  9.6707599252338142e-02  9.8202614355998114e-02  1.0014524128913840e-01  1.0265581398731352e-01  1.0593970789247317e-01  9.6598071803617430e-02  9.7487398442555884e-02  9.8640078355030525e-02  1.0013767167970095e-01  1.0208970438598952e-01  1.0459664908480505e-01  1.0790703602345528e-01  9.8565574080655818e-02  9.9455425024848040e-02  1.0061257098468206e-01  1.0211376558145564e-01  1.0406956762656283e-01  1.0658911371057034e-01  1.0989493591541537e-01  1.0057141636613275e-01  1.0146369422862363e-01  1.0262271520261614e-01  1.0412790801666466e-01  1.0608722477073920e-01  1.0861197723023461e-01  1.1192180443314817e-01  1.0261783555806107e-01  1.0350967044723089e-01  1.0467262874834674e-01  1.0618047411748879e-01  1.0814070531885510e-01  1.1067707018023885e-01  1.1398369462134227e-01  1.0470112395329309e-01  1.0559592199933736e-01  1.0675903858668810e-01  1.0827064492192648e-01  1.1023375195581207e-01  1.1276924170831011e-01  1.1608644417039765e-01  1.0682295130758238e-01  1.0772041770261019e-01  1.0888424740033979e-01  1.1039581386966255e-01  1.1236642507844377e-01  1.1489384349232924e-01  1.1821320400456810e-01  1.0898570145701524e-01  1.0988227589367745e-01  1.1104789225987501e-01  1.1256029226241657e-01  1.1453146986520829e-01  1.1705706137998383e-01  1.2043655234008534e-01  7.6498422145914648e-03  7.7145247592203467e-03  7.8179052090976628e-03  7.9906422626489330e-03  8.2704853694139345e-03  8.7057360744772303e-03  9.3415259775585565e-03  2.2461825518060217e-03  2.4100634472572421e-03  2.6996625764499631e-03  3.0340996240366038e-03  3.5750305754511523e-03  4.2491903179275063e-03  5.1256102775472092e-03  4.8119706689755603e-03  4.9263763547003989e-03  5.1082907060285565e-03  5.4053414005497914e-03  5.8113433806843348e-03  6.3953994370353918e-03  7.2124207913584716e-03  2.4984684801717500e-04  5.0195635794041788e-04  8.2130969987627043e-04  1.2584812665807025e-03  1.6920911081581603e-03  2.2597009350641207e-03  2.9697838116243195e-03  3.1854288682557690e-04  1.7936764874731142e-04  7.2550699579885980e-05  5.9260272237535458e-05  2.1113796038349221e-04  5.1267674280907369e-04  9.2747416690739108e-04  1.0523563227272981e-02  1.0541350887035617e-02  1.0582428253544557e-02  1.0666988724478224e-02  1.0823428369457022e-02  1.1098219200928105e-02  1.1527792642630907e-02  1.3324977590688240e-02  1.3302716531755193e-02  1.3299811403882486e-02  1.3303403934265707e-02  1.3353832859667866e-02  1.3494404500799194e-02  1.3712532948851048e-02  1.6003814013574608e-02  1.5950207290759764e-02  1.5896855615636325e-02  1.5852130494980816e-02  1.5810055830271806e-02  1.5826183339027296e-02  1.5902920018456369e-02  1.8551188615152182e-02  1.8472663497786767e-02  1.8380738751833818e-02  1.8280519639718700e-02  1.8174650585189269e-02  1.8090850003105334e-02  1.7979030907456724e-02  2.0972403733968293e-02  2.0877774496543326e-02  2.0748570224181501e-02  2.0612086342360222e-02  2.0441159483595442e-02  2.0295973349577019e-02  2.0059033156782497e-02  2.3286496587673417e-02  2.3165029387917892e-02  2.3018931439949451e-02  2.2831988292950481e-02  2.2621237066306536e-02  2.2371597067507163e-02  2.2041246265198614e-02  2.5505980481457680e-02  2.5365309045012611e-02  2.5189485333795371e-02  2.4970181014993442e-02  2.4697025723805856e-02  2.4387519599252193e-02  2.3983024176139768e-02  2.7647368540787091e-02  2.7488982413077154e-02  2.7288128400588189e-02  2.7036314255250597e-02  2.6717785477333424e-02  2.6335163541416889e-02  2.5847508016818684e-02  2.9720808716079863e-02  2.9544195551069203e-02  2.9317841509204377e-02  2.9037441254975382e-02  2.8677518492646166e-02  2.8239678984248916e-02  2.7675181490420309e-02  3.1738509887254657e-02  3.1544272946302222e-02  3.1293258597107979e-02  3.0976172615931667e-02  3.0579727721936987e-02  3.0073967890736006e-02  2.9422150303712053e-02  3.3705920405873065e-02  3.3492211608159052e-02  3.3222772778055305e-02  3.2868481038336075e-02  3.2418372682484313e-02  3.1868082409299552e-02  3.1143812135661506e-02  3.5631221257519947e-02  3.5398480870330165e-02  3.5101667044352587e-02  3.4722428755320431e-02  3.4227131929548717e-02  3.3606131567217756e-02  3.2817751239307837e-02  3.7515657901839014e-02  3.7265406654203949e-02  3.6941010286836995e-02  3.6531029213959010e-02  3.5999233564691722e-02  3.5329441479660786e-02  3.4440227051065767e-02  3.9364686005896668e-02  3.9095428192459335e-02  3.8747129145854473e-02  3.8301517031612102e-02  3.7731517611909585e-02  3.6997218609432204e-02  3.6027807351419375e-02  4.1177773522346403e-02  4.0892570410514299e-02  4.0516992438094833e-02  4.0035393772596413e-02  3.9413577419213426e-02  3.8634944166235481e-02  3.7602090950279624e-02  4.2960270081678402e-02  4.2652756283755144e-02  4.2260166319919509e-02  4.1743925061821563e-02  4.1077461189420211e-02  4.0229426702900951e-02  3.9131325403398046e-02  4.4710660121332645e-02  4.4382020826452442e-02  4.3960774555761709e-02  4.3415341586192882e-02  4.2706547290450203e-02  4.1797886588976665e-02  4.0625034819292263e-02  4.6430679596825439e-02  4.6083100532509816e-02  4.5633591612373736e-02  4.5053395677934385e-02  4.4302742344326684e-02  4.3333017388429186e-02  4.2087452084718903e-02  4.8119282134377751e-02  4.7756410003853410e-02  4.7277986969559274e-02  4.6667332535498700e-02  4.5875399366294728e-02  4.4852230501493652e-02  4.3520208326603138e-02  4.9779505044952078e-02  4.9394343658253903e-02  4.8893808018022948e-02  4.8244087643014369e-02  4.7410893176055853e-02  4.6326780327731153e-02  4.4923731810622675e-02  5.1410860033323826e-02  5.1003039896189817e-02  5.0480403049405369e-02  4.9793758903574084e-02  4.8908109759057246e-02  4.7765486742561265e-02  4.6290430598009732e-02  5.3013159329857937e-02  5.2585107203186536e-02  5.2033164817827104e-02  5.1318360289200962e-02  5.0386684347297712e-02  4.9182369871390734e-02  4.7631910579841487e-02  5.4585543736808718e-02  5.4138213589364048e-02  5.3557410895177487e-02  5.2805787327223470e-02  5.1833154502833434e-02  5.0570110041016247e-02  4.8941164451631859e-02  5.6129081734618037e-02  5.5661361115389781e-02  5.5055151076016308e-02  5.4267812877328278e-02  5.3248104147590562e-02  5.1924230567200434e-02  5.0221284423336329e-02  5.7643797645380780e-02  5.7155679287891170e-02  5.6520964561830672e-02  5.5704014795661311e-02  5.4641579348679171e-02  5.3261174784569966e-02  5.1471785708093742e-02  5.9129281507668732e-02  5.8620114907607906e-02  5.7962903475289318e-02  5.7105840755159509e-02  5.5996962691709749e-02  5.4565736141289518e-02  5.2697337184467133e-02  6.0585211702134309e-02  6.0054671147041501e-02  5.9369687195831071e-02  5.8479227024690543e-02  5.7316233283147860e-02  5.5825613887900867e-02  5.3873018442439233e-02  6.2011521582913974e-02  6.1460337871999102e-02  6.0745422045768889e-02  5.9819883360141490e-02  5.8616151387798798e-02  5.7053076216905495e-02  5.5043522958094858e-02  6.3406782534947942e-02  6.2839525301159119e-02  6.2094370732439612e-02  6.1135891776657333e-02  5.9890468464714283e-02  5.8270425395217477e-02  5.6171201486506554e-02  6.4772681613944810e-02  6.4181969674793046e-02  6.3414351270492206e-02  6.2416215984038778e-02  6.1126269209720530e-02  5.9450001276026322e-02  5.7259982359211488e-02  6.6107678147494880e-02  6.5494244594366896e-02  6.4698494017582486e-02  6.3664882245591345e-02  6.2322578777615947e-02  6.0580485019396578e-02  5.8339108229600284e-02  6.7411746644904000e-02  6.6777815568290086e-02  6.5954866424332653e-02  6.4886840205706009e-02  6.3501064072360114e-02  6.1696284361023576e-02  5.9365358355518261e-02  6.8682910639427677e-02  6.8028291015302861e-02  6.7177373386019076e-02  6.6072665463253646e-02  6.4641399628397780e-02  6.2776563236945929e-02  6.0374181307073990e-02  6.9922771662414521e-02  6.9245672386054988e-02  6.8372663875366432e-02  6.7230055826516533e-02  6.5750121575808146e-02  6.3831492264877901e-02  6.1348494455228345e-02  7.1129313570516009e-02  7.0435145244795092e-02  6.9529164333995655e-02  6.8355778762384564e-02  6.6824998363867572e-02  6.4855765605548371e-02  6.2285640084672203e-02  7.2301872032998732e-02  7.1585507662814796e-02  7.0654229963517223e-02  6.9442161932101329e-02  6.7868725998156118e-02  6.5830901455073657e-02  6.3187583945697956e-02  7.3441252353509762e-02  7.2702122067959923e-02  7.1742962684489736e-02  7.0497828835183504e-02  6.8879901633823820e-02  6.6775591206910970e-02  6.4056044048712180e-02  7.4545468479482277e-02  7.3786198086588817e-02  7.2798906627793550e-02  7.1517442513909457e-02  6.9855379262676473e-02  6.7691673747044656e-02  6.4892189557221119e-02  7.5613699252838784e-02  7.4832699671638234e-02  7.3823686992202056e-02  7.2503571649704252e-02  7.0793995601404550e-02  6.8571355034828793e-02  6.5695895920669864e-02  7.6646106464445196e-02  7.5843899010860721e-02  7.4805156637363063e-02  7.3455560896942482e-02  7.1697720071099369e-02  6.9416203236192769e-02  6.6461357325977549e-02  7.7640802899502356e-02  7.6818359451079829e-02  7.5750234423711510e-02  7.4364391547969325e-02  7.2565299231475880e-02  7.0222693312315912e-02  6.7192977083224026e-02  7.8596868945304363e-02  7.7758424401295351e-02  7.6661271086187449e-02  7.5239491071490777e-02  7.3393510782738175e-02  7.1001696474936704e-02  6.7886526370645822e-02  7.9514600880038783e-02  7.8652911111165819e-02  7.7533730158663952e-02  7.6075610752140491e-02  7.4184732964574465e-02  7.1730302219288361e-02  6.8552435040825296e-02  8.0393327775669057e-02  7.9509074977005420e-02  7.8366341584512514e-02  7.6872995102541614e-02  7.4936429563732629e-02  7.2421754529747057e-02  6.9155152239855230e-02  8.1231029171385083e-02  8.0326386757490709e-02  7.9153377384209328e-02  7.7635871717080834e-02  7.5655571699098992e-02  7.3083244993535912e-02  6.9752168889156543e-02  8.2025473440277843e-02  8.1106266106063196e-02  7.9902138639347170e-02  7.8346120478556380e-02  7.6326828217909301e-02  7.3704962322736448e-02  7.0299340596376797e-02  8.2778520116933693e-02  8.1836519423736057e-02  8.0613294500983659e-02  7.9018728801689322e-02  7.6950336528849694e-02  7.4271204302750790e-02  7.0789640739536877e-02  8.3488046760688342e-02  8.2524192146243971e-02  8.1278253395886110e-02  7.9651441317560343e-02  7.7540809651915371e-02  7.4797214508642421e-02  7.1252665608790497e-02  8.4152697098662521e-02  8.3169819641226522e-02  8.1895906259079373e-02  8.0240352323100977e-02  7.8085620233374634e-02  7.5288998586201847e-02  7.1658553829215973e-02  8.4770508794714025e-02  8.3768996338915061e-02  8.2467248589981196e-02  8.0783334162462681e-02  7.8590151068694866e-02  7.5742781851325644e-02  7.2047418088127993e-02  8.5341509361898257e-02  8.4325706383606577e-02  8.2996873232039289e-02  8.1277146125149163e-02  7.9045921641557507e-02  7.6152450634173141e-02  7.2374457999735853e-02  8.5864686135432550e-02  8.4826867283695095e-02  8.3480468279226186e-02  8.1725576280533965e-02  7.9446964569186693e-02  7.6497989865130595e-02  7.2659904383518534e-02  8.6339544246261529e-02  8.5282425267535517e-02  8.3909813295294136e-02  8.2128636378300618e-02  7.9812956793502088e-02  7.6803959280960579e-02  7.2902945029497748e-02  8.6761725957251928e-02  8.5692070450909180e-02  8.4293323588945174e-02  8.2480687771489564e-02  8.0125749915243988e-02  7.7078748806666597e-02  7.3093872701076132e-02  8.7138738132144150e-02  8.6043341328685186e-02  8.4628401294354949e-02  8.2784533444512143e-02  8.0390397756863338e-02  7.7287035841465720e-02  7.3256746565384931e-02  8.7459292598986410e-02  8.6348181619202366e-02  8.4905999329647319e-02  8.3036458451720738e-02  8.0606532999476607e-02  7.7453038430937468e-02  7.3357031537661724e-02  8.7722277091871109e-02  8.6598427419998569e-02  8.5135169129220117e-02  8.3236619157154829e-02  8.0771318059300046e-02  7.7568567984954512e-02  7.3415099456703214e-02  8.7934264295335865e-02  8.6791895521206891e-02  8.5309556597088443e-02  8.3383685827229118e-02  8.0882252576274363e-02  7.7645186855333573e-02  7.3416054200766620e-02  8.8091874003716458e-02  8.6931926139124857e-02  8.5432406981358358e-02  8.3478273934864913e-02  8.0941221707108671e-02  7.7652484229790764e-02  7.3385403735470367e-02  8.8188755042920591e-02  8.7017240128712370e-02  8.5497769147719074e-02  8.3519524473710804e-02  8.0948702932032754e-02  7.7619037094601759e-02  7.3281150118359478e-02  8.8232291974009017e-02  8.7041389872164102e-02  8.5501395576269248e-02  8.3502165232080455e-02  8.0899374061607368e-02  7.7529309114650807e-02  7.3146820694601877e-02  8.8212427032975591e-02  8.7013194864802260e-02  8.5451124416042384e-02  8.3426355213327974e-02  8.0796580613671148e-02  7.7383359832010751e-02  7.2957343863377974e-02  8.8132215769594568e-02  8.6920017272476016e-02  8.5343673943589937e-02  8.3295968891118538e-02  8.0636783626370140e-02  7.7189146256399402e-02  7.2698586190172915e-02  8.7996713129025322e-02  8.6768715809156002e-02  8.5175486710851900e-02  8.3106330242526838e-02  8.0421318694864144e-02  7.6935323584868862e-02  7.2408486311193301e-02  8.7793953179282777e-02  8.6557119013874181e-02  8.4948461587245630e-02  8.2858644118544975e-02  8.0149133122878108e-02  7.6643316914824136e-02  7.2037614633390090e-02  8.7534338495572767e-02  8.6282637177142532e-02  8.4660025296897881e-02  8.2550563257616963e-02  7.9814778215752363e-02  7.6267499627250948e-02  7.1643662769307601e-02  8.7205993150866357e-02  8.5945507937379872e-02  8.4307775169777749e-02  8.2185946628456880e-02  7.9420541023050170e-02  7.5855088007358060e-02  7.1189659950235212e-02  8.6816333761696313e-02  8.5548947576119180e-02  8.3895545286389275e-02  8.1753680726844913e-02  7.8974811789478988e-02  7.5379575703743054e-02  7.0660982944837900e-02  8.6361578683205070e-02  8.5081407139934326e-02  8.3422735420269248e-02  8.1263513851252550e-02  7.8459701428924597e-02  7.4832286787075014e-02  7.0104592091677312e-02  8.5842326053246779e-02  8.4554597422019845e-02  8.2881719724465813e-02  8.0711569736002006e-02  7.7891791756756992e-02  7.4243449316723997e-02  6.9480576096053751e-02  8.5256549479407390e-02  8.3961616802229300e-02  8.2281637864787288e-02  8.0096023436505223e-02  7.7260130469174196e-02  7.3592670289411202e-02  6.8802695823674584e-02  8.4605350921390404e-02  8.3303432865521915e-02  8.1614610937030235e-02  7.9420591316084574e-02  7.6568777549262945e-02  7.2884131146653833e-02  6.8065230918305339e-02  8.3887684665117104e-02  8.2580144586214807e-02  8.0884037624437230e-02  7.8680344529797414e-02  7.5815225194939981e-02  7.2122132652332777e-02  6.7280792329074690e-02  8.3103754775875380e-02  8.1792142685587405e-02  8.0086710499773547e-02  7.7878500595457367e-02  7.5004688327534777e-02  7.1284798241682060e-02  6.6454819101322560e-02  8.2252356222633244e-02  8.0936909694010087e-02  7.9229481785307282e-02  7.7009131773794925e-02  7.4131651996448403e-02  7.0403639642117044e-02  6.5564517268274100e-02  8.1335200040878644e-02  8.0016414115635953e-02  7.8304765218431743e-02  7.6082175548881678e-02  7.3196822028933156e-02  6.9458741905573926e-02  6.4616931392735749e-02  8.0351048382732326e-02  7.9030494612677069e-02  7.7316172170335262e-02  7.5090214995152671e-02  7.2201409150932400e-02  6.8462658577676444e-02  6.3606432752665379e-02  7.9300992580727189e-02  7.7979925291428942e-02  7.6262354908160981e-02  7.4037611448719468e-02  7.1146335741752845e-02  6.7402126617286312e-02  6.2547090084508913e-02  7.8184437232774961e-02  7.6863568821780151e-02  7.5147419332618523e-02  7.2920311592921366e-02  7.0031411762643145e-02  6.6289283800003512e-02  6.1438733247438065e-02  7.7002838507155363e-02  7.5682503801342185e-02  7.3968964585522379e-02  7.1742581790921536e-02  6.8855014435119599e-02  6.5120056863442147e-02  6.0278392157592786e-02  7.5756381774957540e-02  7.4438201067081905e-02  7.2725755654864110e-02  7.0504959461140215e-02  6.7624079063113920e-02  6.3889995632890093e-02  5.9045867417547318e-02  7.4445796650434728e-02  7.3131004882895076e-02  7.1422282703121898e-02  6.9206402299682265e-02  6.6331748952128358e-02  6.2623769410999536e-02  5.7720548369462645e-02  7.3071578893897982e-02  7.1761289994664995e-02  7.0056869594739973e-02  6.7850468915677947e-02  6.4977281238082885e-02  6.1304512400385466e-02  5.6395133672242845e-02  7.1635308137759701e-02  7.0328116524460055e-02  6.8632105094196941e-02  6.6434270220942379e-02  6.3576741321859337e-02  5.9883744467699604e-02  5.5067782661143393e-02  7.0134310906418279e-02  6.8837643632440729e-02  6.7147072848727146e-02  6.4959244235401559e-02  6.2117887200920589e-02  5.8466459473636372e-02  5.3639771661309635e-02  6.8578256618290950e-02  6.7286130962340693e-02  6.5605415651802168e-02  6.3430892446630943e-02  6.0603257456160436e-02  5.6955347006579067e-02  5.2178296000281628e-02  6.6960565347268630e-02  6.5676398817228213e-02  6.4008557905092994e-02  6.1846288458238578e-02  5.9038021414024741e-02  5.5429366298954924e-02  5.0666012086374050e-02  6.5285724673308898e-02  6.4010367730220133e-02  6.2353631482775847e-02  6.0206859628012213e-02  5.7418287035385991e-02  5.3837002064575382e-02  4.9117450676768794e-02  6.3554479907069625e-02  6.2289726416389253e-02  6.0644515778762273e-02  5.8515702910778990e-02  5.5748193104772331e-02  5.2199388506509167e-02  4.7523022500964324e-02  6.1768824517601711e-02  6.0515377185506161e-02  5.8884494293699519e-02  5.6770730473268638e-02  5.4035300530257270e-02  5.0511847373786133e-02  4.5898849016185184e-02  5.9930324102699828e-02  5.8689189872299680e-02  5.7072383452734014e-02  5.4985239401001355e-02  5.2272354358432860e-02  4.8788474647749977e-02  4.4199814155529066e-02  5.8041335715257172e-02  5.6813252544300308e-02  5.5214814702489894e-02  5.3148107374662273e-02  5.0467099417694589e-02  4.7004349833414755e-02  4.2494779915947210e-02  5.6103208644792700e-02  5.4888061179720678e-02  5.3310969035772530e-02  5.1267253213997110e-02  4.8611810923735718e-02  4.5211618176029575e-02  4.0745300629590829e-02  5.4118056114184188e-02  5.2917453962210412e-02  5.1357590958541921e-02  4.9339931919812549e-02  4.6723626585686621e-02  4.3338000934494213e-02  3.8999805673211332e-02  5.2088369929154679e-02  5.0904161822357213e-02  4.9362500001837777e-02  4.7369510682050024e-02  4.4797565448059719e-02  4.1450435070626936e-02  3.7198183406832126e-02  5.0015697173698116e-02  4.8848324398774103e-02  4.7327561045188045e-02  4.5363184768580408e-02  4.2825914606176831e-02  3.9544165022685797e-02  3.5275834676366635e-02  4.7902401909371665e-02  4.6752303995646075e-02  4.5253610121986830e-02  4.3320211921581954e-02  4.0816780446602197e-02  3.7601192802683731e-02  3.3411893788239687e-02  4.5751531099609340e-02  4.4619906572333647e-02  4.3144066443424473e-02  4.1242608690453909e-02  3.8779679340232402e-02  3.5607929098639100e-02  3.1495364280728334e-02  4.3563467599738968e-02  4.2450517935683288e-02  4.1001428447442895e-02  3.9130466838780485e-02  3.6714521497716250e-02  3.3590379149572414e-02  2.9581138421115514e-02  4.1343343259451569e-02  4.0250650623452094e-02  3.8825198075410065e-02  3.6988633020536774e-02  3.4617744003667607e-02  3.1557754748152041e-02  2.7630489231026716e-02  3.9095036788201788e-02  3.8020885695495950e-02  3.6624431643970112e-02  3.4821448665192573e-02  3.2492793522815248e-02  2.9496443259663128e-02  2.5628242989298129e-02  3.6816771595022814e-02  3.5762840555664095e-02  3.4394048185985598e-02  3.2626892459725644e-02  3.0348368649203157e-02  2.7417846939944871e-02  2.3641252154127188e-02  3.4512459580387816e-02  3.3480747383777584e-02  3.2135278586800702e-02  3.0408467860871390e-02  2.8169327881959024e-02  2.5373726337752114e-02  2.1469462315003702e-02  3.2185377361775798e-02  3.1176362675237962e-02  2.9859286101689021e-02  2.8172847905633968e-02  2.5980345078157351e-02  2.3216440319743650e-02  1.9438443540934058e-02  2.9838702348610469e-02  2.8852139804997515e-02  2.7563827997491255e-02  2.5917636311269601e-02  2.3778044962001033e-02  2.1142791566932252e-02  1.7373270987253105e-02  2.7473483009612248e-02  2.6510182642795022e-02  2.5250843825266923e-02  2.3647737161771765e-02  2.1547783471542559e-02  1.9032640310006347e-02  1.5160767391480073e-02  2.5093874324155007e-02  2.4154353551285031e-02  2.2924519735372382e-02  2.1369666620712355e-02  1.9305245721958263e-02  1.6963594324427973e-02  1.2881841970052751e-02  2.2701993968161766e-02  2.1786938629440679e-02  2.0585267510177911e-02  1.9078364727144186e-02  1.7059752941509940e-02  1.4882669062215357e-02  1.0526957290859167e-02  2.0300018710596560e-02  1.9411072962897812e-02  1.8235104189757260e-02  1.6795485676131799e-02  1.4740098578752523e-02  1.3079625741359440e-02  8.1377732933107464e-03  1.7890905623508965e-02  1.7027610978240525e-02  1.5886114186292596e-02  1.4499691969154689e-02  1.2540935098650693e-02  1.0485019377769847e-02  6.4252196022385648e-03  1.5478568751264661e-02  1.4639826331893591e-02  1.3533773632948415e-02  1.2181967812367914e-02  1.0334802510746395e-02  8.7891220974004539e-03  4.4391567458562601e-03  1.3063189406033517e-02  1.2251142148067969e-02  1.1176690126252716e-02  9.8936626219169460e-03  8.0571963176351707e-03  6.6474186811226812e-03  3.6993755234637602e-03  1.0649304149947155e-02  9.8636708215814502e-03  8.8289512970772793e-03  7.6083697619061252e-03  5.9606304867396405e-03  4.5746264334571808e-03  3.4360657871721810e-03  8.2381296295099896e-03  7.4868463290007686e-03  6.4954015817631364e-03  5.3292926538292401e-03  3.9423795431106062e-03  3.1130301295044203e-03  4.0455421902924598e-03  1.0659993206354469e-01  1.0635843582042415e-01  1.0604474165370321e-01  1.0563967279646391e-01  1.0510864081226171e-01  1.0443070645623245e-01  1.0347925487924239e-01  1.0265568502772296e-01  1.0245480098939541e-01  1.0219154806727243e-01  1.0185032158453473e-01  1.0139809709382781e-01  1.0083457769890521e-01  1.0001508049484227e-01  9.8386911395504498e-02  9.8231240364353212e-02  9.8029017955927014e-02  9.7769460417267792e-02  9.7416682996657830e-02  9.7002850448829614e-02  9.6326026982145777e-02  5.9138120091886251e-02  5.9253178132642526e-02  5.9410326063160795e-02  5.9612673693169957e-02  5.9880792961541578e-02  6.0247144914879619e-02  6.0714606692847194e-02  2.8149306486025448e-02  2.8562320971831524e-02  2.9102857881764987e-02  2.9812465859003635e-02  3.0746454913387816e-02  3.1976385993827391e-02  3.3584777392826073e-02  1.1115319332343691e-01  1.1077781573551150e-01  1.1050717084718248e-01  1.0996774748031300e-01  1.0931880748118546e-01  1.0851423045952162e-01  1.0750213064214470e-01  9.8934333457862803e-02  9.8773810575473311e-02  9.8562797104344291e-02  9.8289930001939987e-02  9.7926733065292690e-02  9.7493997948624123e-02  9.6793250067429906e-02  1.0622954642399546e-01  1.0599218304065773e-01  1.0568298043228018e-01  1.0528133969454447e-01  1.0475474217755036e-01  1.0409732109169942e-01  1.0315818002082339e-01  9.6714290806781886e-02  9.6576041029663093e-02  9.6395076451927117e-02  9.6166593712532666e-02  9.5849589410477692e-02  9.5475533671322305e-02  9.4854599688103530e-02  1.0728716374131239e-01  1.0704023388683175e-01  1.0671835280035648e-01  1.0630084230749988e-01  1.0575833735322689e-01  1.0505582810546836e-01  1.0409161063316230e-01  6.0360896705351011e-03  6.6870832866334409e-03  7.5461187313461131e-03  8.6798945222401527e-03  1.0169695194480010e-02  1.2113851196906507e-02  1.4683590048710529e-02  9.7836654703936460e-02  9.7688132099091121e-02  9.7491263094806338e-02  9.7240351603871733e-02  9.6902244410848867e-02  9.6504821217883646e-02  9.5852246042614928e-02  1.0695187178668095e-01  1.0670797223196928e-01  1.0638896270120640e-01  1.0597815698756084e-01  1.0543524822880433e-01  1.0476767586161416e-01  1.0379006885505536e-01  6.5482000423484080e-02  6.5545444528420344e-02  6.5633672740747065e-02  6.5746186111994578e-02  6.5895308952585399e-02  6.6102938200030215e-02  6.6371298890254393e-02  9.7279893320349933e-02  9.7136260190582968e-02  9.6950115453438596e-02  9.6708913267023411e-02  9.6383225591118546e-02  9.6009095791837654e-02  9.5362383388389316e-02  1.0760404731256051e-01  1.0735385405703962e-01  1.0702864554353547e-01  1.0660611275301304e-01  1.0605350854791414e-01  1.0535629999365873e-01  1.0437647127536315e-01  1.1002845852884133e-01  1.0975256825140958e-01  1.0939428398810332e-01  1.0893017943017783e-01  1.0832172327142434e-01  1.0754378361697854e-01  1.0649647374956332e-01  1.0584232144709527e-01  1.0560817796179525e-01  1.0530433745249572e-01  1.0490863253767092e-01  1.0439524719771472e-01  1.0372999842538845e-01  1.0281977211979280e-01  1.0986230082122179e-01  1.0958858184359438e-01  1.0923121188456235e-01  1.0876883215393858e-01  1.0816403722848363e-01  1.0738781291307524e-01  1.0634623529999675e-01  9.2962764293236966e-02  9.2854545391913346e-02  9.2710078724444797e-02  9.2522358366554994e-02  9.2279843230313116e-02  9.1978889526955210e-02  9.1501038476149418e-02  1.0866995854269547e-01  1.0840356236277739e-01  1.0805708834645129e-01  1.0760828397526649e-01  1.0701929726473004e-01  1.0627185181816201e-01  1.0524190093851796e-01  1.0847036961717946e-01  1.0821878077492370e-01  1.0787662965086862e-01  1.0744699251833686e-01  1.0687374230049197e-01  1.0616623500210033e-01  1.0508328475619443e-01  1.7434803980023214e-02  1.7956097631379661e-02  1.8649798163261191e-02  1.9551169110417259e-02  2.0731055075313479e-02  2.2305802288019285e-02  2.4348128413007226e-02  5.6326756265502646e-02  5.6468246420372702e-02  5.6655262170588895e-02  5.6903809837345734e-02  5.7223888974518064e-02  5.7661367411569076e-02  5.8228110978455129e-02  1.0818696820747223e-01  1.0793024213494440e-01  1.0760145482170107e-01  1.0716889620133552e-01  1.0660344554483661e-01  1.0588651300861697e-01  1.0490143242370459e-01  9.5527837537863508e-02  9.5399774827289091e-02  9.5231685605104727e-02  9.5022878003281630e-02  9.4734066487860702e-02  9.4401669081591505e-02  9.3821656539774409e-02  1.0950826258950574e-01  1.0923649095036737e-01  1.0888198162125100e-01  1.0842369095166883e-01  1.0782338218813724e-01  1.0705928168757825e-01  1.0600857121597508e-01  1.0411407897131046e-01  1.0389754735434238e-01  1.0361481413589016e-01  1.0324749502305101e-01  1.0277359966303559e-01  1.0215366364331094e-01  1.0130473750088737e-01  3.6117720554909916e-02  3.6449888447282176e-02  3.6888004554866974e-02  3.7457699930989151e-02  3.8206127533617185e-02  3.9211506111887978e-02  4.0504159462350441e-02  9.6139045571343770e-02  9.6006437745819379e-02  9.5832086573373165e-02  9.5608347941198615e-02  9.5305777789864335e-02  9.4979430919398325e-02  9.4340597504247864e-02  1.0790602741069068e-01  1.0765304881119715e-01  1.0732400581179982e-01  1.0689838698002338e-01  1.0633758864947357e-01  1.0563348989183478e-01  1.0463957101664137e-01  9.3631014301432058e-02  9.3513711445974215e-02  9.3365017997093888e-02  9.3171157011400774e-02  9.2915834219936044e-02  9.2614282441782339e-02  9.2077581708599962e-02  2.6072688705348335e-02  2.6501504181355190e-02  2.7076876543814164e-02  2.7821059946487554e-02  2.8801416898601221e-02  3.0097276078383795e-02  3.1790878492300112e-02  9.4907375693402338e-02  9.4781601960024844e-02  9.4624707647656806e-02  9.4417093447521472e-02  9.4134314275003614e-02  9.3816031879514719e-02  9.3206813579051362e-02  1.0870905319827705e-01  1.0844559562016005e-01  1.0811263498737402e-01  1.0767038239801703e-01  1.0709284166354750e-01  1.0637732479754884e-01  1.0536760560654806e-01  1.0162233348857483e-01  1.0143176650243808e-01  1.0118342511024296e-01  1.0086097373367485e-01  1.0043386504119746e-01  9.9911921445483748e-02  9.9118082447916867e-02  3.8018468001422806e-02  3.8331157647017347e-02  3.8747076417087398e-02  3.9286909266934920e-02  3.9988803028059877e-02  4.0931405081083658e-02  4.2161032850512120e-02  1.0895208640975815e-01  1.0869049783003845e-01  1.0834820332431279e-01  1.0790996809747437e-01  1.0732821248315186e-01  1.0660392909864856e-01  1.0556912518458512e-01  9.4269616542365584e-02  9.4153337544162330e-02  9.3996148345516492e-02  9.3803653885223298e-02  9.3519457978708850e-02  9.3254993427051777e-02  9.2638086559712590e-02  1.9638591753510664e-02  2.0136977264879553e-02  2.0799316201993049e-02  2.1661580217923304e-02  2.2785458587155943e-02  2.4297957168884440e-02  2.6244728403138830e-02  7.3750832384346265e-02  7.3751063564583538e-02  7.3755572112136292e-02  7.3758878682204945e-02  7.3768466911959818e-02  7.3788072446975550e-02  7.3819374182408443e-02  7.2187799480456728e-04  4.3676390496055371e-04  9.0912124816483063e-04  2.0409229048776517e-03  3.9423268506260769e-03  6.0792984065213447e-03  8.9213354967480046e-03  6.6638497205922367e-02  6.6693011485099249e-02  6.6766189325278627e-02  6.6864678969065644e-02  6.6993302801242369e-02  6.7181503106901685e-02  6.7406142498963623e-02  1.0911168115862069e-01  1.0884227445272289e-01  1.0849184978973400e-01  1.0803806355533083e-01  1.0744523125877085e-01  1.0668420512751832e-01  1.0564724083934293e-01  1.0214415854340174e-01  1.0194718863723108e-01  1.0169107190336839e-01  1.0136166933250623e-01  1.0091823380449599e-01  1.0039560116408533e-01  9.9568975681208580e-02  9.1595353535615903e-02  9.1490753555467666e-02  9.1356924731798558e-02  9.1181378892534692e-02  9.0950931644029509e-02  9.0678295377759399e-02  9.0219064982970013e-02  1.0978265810608791e-01  1.0951470737574839e-01  1.0916507992323862e-01  1.0871108727151305e-01  1.0811554667202568e-01  1.0737004967785192e-01  1.0633313284819329e-01  9.0137521632491002e-02  9.0040832433015652e-02  8.9915361063025750e-02  8.9753239721327427e-02  8.9537008392070738e-02  8.9292686819918282e-02  8.8871722382350193e-02  1.0996258906710196e-01  1.0969237422151681e-01  1.0934126390027936e-01  1.0888623307253363e-01  1.0828901331895453e-01  1.0752105441687858e-01  1.0649868019501822e-01  9.0874796124999588e-02  9.0775117668751223e-02  9.0641847780621537e-02  9.0475978590327757e-02  9.0251638635085937e-02  8.9975709369227483e-02  8.9561035410504142e-02  6.4288139880108688e-02  6.4363345422430232e-02  6.4462431676114415e-02  6.4591568476620495e-02  6.4761824134610638e-02  6.5007651135222680e-02  6.5299604115760274e-02  1.0960130317307699e-01  1.0933365989011984e-01  1.0898731716950276e-01  1.0853731295880513e-01  1.0794836395851824e-01  1.0719847009320274e-01  1.0613346215440547e-01  5.3357897078171353e-02  5.3525752413535452e-02  5.3750602967382273e-02  5.4042295927494204e-02  5.4424168995431989e-02  5.4937686590395642e-02  5.5600559025329982e-02  1.0001956946287176e-01  9.9848283458528614e-02  9.9619208685518032e-02  9.9329111752497076e-02  9.8938809044820747e-02  9.8456961663113005e-02  9.7743290820947196e-02  8.7855035061003645e-02  8.7767584519395869e-02  8.7656635407939582e-02  8.7511632173587248e-02  8.7322869229664743e-02  8.7106857109474647e-02  8.6745828094298247e-02  3.0194380246703550e-02  3.0586376231625568e-02  3.1099007284484313e-02  3.1772111293828481e-02  3.2656826933244815e-02  3.3827360302197552e-02  3.5353021663058100e-02  1.1033858759610107e-01  1.1006051557186139e-01  1.0969940487118551e-01  1.0923042080726637e-01  1.0861718150305014e-01  1.0784296003870035e-01  1.0675358789946839e-01  1.1013137316879591e-01  1.0985987348504384e-01  1.0950679609801940e-01  1.0904844625390166e-01  1.0845100982447287e-01  1.0768362918712047e-01  1.0664976116700710e-01  9.9478181480493241e-02  9.9308676482679409e-02  9.9090627905185941e-02  9.8809557619476310e-02  9.8429449302584918e-02  9.7995400649273701e-02  9.7258032070656544e-02  8.8621706387217308e-02  8.8533856719065399e-02  8.8417546156159113e-02  8.8268996299401797e-02  8.8072035030093157e-02  8.7837289420368309e-02  8.7466795547991930e-02  1.1029042280789129e-01  1.1001782489419583e-01  1.0966294618203586e-01  1.0920303384377636e-01  1.0860045765886711e-01  1.0782951326242492e-01  1.0679304367351759e-01  8.9387251745210811e-02  8.9293693547313854e-02  8.9172341642271793e-02  8.9015637097285050e-02  8.8813189612545959e-02  8.8554634702817853e-02  8.8182251297981504e-02  1.0501371103019702e-01  1.0478748513239705e-01  1.0449302904001553e-01  1.0411303132730397e-01  1.0361164533786028e-01  1.0297284272362935e-01  1.0208721787272877e-01  3.7246583906951122e-03  4.3765748142957387e-03  5.2855074775243968e-03  6.4735962677826310e-03  8.0354161969347707e-03  1.0076805519754470e-02  1.2727959771568766e-02  1.0938809450715525e-01  1.0912364281397778e-01  1.0877613200361967e-01  1.0833012181697195e-01  1.0773969478650244e-01  1.0700283944927452e-01  1.0597918049736565e-01  8.3331815867812006e-02  8.3270360228906187e-02  8.3190823711108405e-02  8.3088130014348949e-02  8.2957930867310528e-02  8.2793785056116856e-02  8.2573272426592903e-02  1.1071246105082418e-01  1.1043646503372229e-01  1.1007733071036653e-01  1.0961048035769944e-01  1.0900355034996272e-01  1.0821818322498128e-01  1.0717918989569319e-01  8.7078974111546123e-02  8.6998358044892102e-02  8.6891534752726568e-02  8.6756042684620546e-02  8.6577346654933690e-02  8.6353063819938139e-02  8.6031006590402151e-02  1.1057998164160736e-01  1.1030500613745831e-01  1.0994694709147818e-01  1.0948251197381588e-01  1.0887716755214338e-01  1.0809660153169529e-01  1.0705914881298211e-01  8.6309328392256954e-02  8.6231232997504931e-02  8.6131059027381704e-02  8.6002840663897365e-02  8.5827660725953214e-02  8.5629426978737877e-02  8.5318185107309721e-02  2.1813023263511342e-02  2.2288932003095775e-02  2.2921192270890851e-02  2.3743332633248612e-02  2.4816650564009606e-02  2.6246472592799091e-02  2.8113666879069944e-02  1.0931480379892015e-01  1.0904434704049942e-01  1.0869228510516182e-01  1.0823588544028302e-01  1.0763586726380789e-01  1.0687817711843893e-01  1.0583701996225256e-01  1.0790725672481848e-01  1.0764626688419124e-01  1.0730565354098905e-01  1.0686548182359489e-01  1.0628793455390363e-01  1.0555715536495799e-01  1.0453532181764447e-01  1.1025891152096777e-03  2.0328911303951732e-03  3.0497484961753288e-03  4.3334251317599711e-03  5.9181224043535355e-03  8.0508397018247101e-03  1.0807903054628318e-02  8.3598700218660733e-03  8.9832751547984126e-03  9.8086392965190117e-03  1.0887597535526060e-02  1.2310517910696058e-02  1.4176219603054596e-02  1.6617687743124849e-02  1.1043923420244325e-01  1.1016541877640409e-01  1.0980885222687332e-01  1.0934641282485716e-01  1.0874247977146409e-01  1.0796799425294608e-01  1.0692980209580959e-01  8.4054180896418113e-02  8.3986145856980249e-02  8.3903604719538893e-02  8.3794558300380698e-02  8.3651725293991966e-02  8.3485838223710793e-02  8.3239809720990612e-02  1.1095666753959954e-01  1.1067867546105778e-01  1.1031677896355685e-01  1.0984762182705329e-01  1.0923433919131074e-01  1.0844613976500538e-01  1.0739997045967967e-01  8.5546970924126026e-02  8.5473428092416717e-02  8.5377637086778840e-02  8.5253054794971306e-02  8.5091830928202480e-02  8.4908955122564703e-02  8.4596235624562741e-02  1.0109664660456630e-01  1.0091075464606165e-01  1.0066893159224555e-01  1.0035721339745637e-01  9.9940594943287053e-02  9.9436983550122732e-02  9.8665892229633276e-02  1.1083786541972371e-01  1.1056071851755171e-01  1.1020031217459129e-01  1.0973185875460505e-01  1.0912169157219649e-01  1.0833443548175728e-01  1.0729098600709981e-01  8.4791554418214274e-02  8.4723374010596819e-02  8.4631561832041180e-02  8.4516732000964753e-02  8.4368045922649113e-02  8.4179232378448904e-02  8.3904056539084615e-02  1.1107336929593475e-01  1.1079343585716502e-01  1.1042972828506183e-01  1.0995843266882112e-01  1.0934382945860061e-01  1.0854754797921454e-01  1.0750299564748901e-01  1.1018463813360269e-01  1.0990855483874758e-01  1.0954856886790870e-01  1.0908285431865135e-01  1.0846979487308288e-01  1.0769455551031352e-01  1.0663404411905955e-01  1.0918561132777073e-01  1.0892207646271859e-01  1.0857849549870738e-01  1.0813649480266042e-01  1.0754945235738189e-01  1.0681685836297176e-01  1.0575457079453005e-01  7.4635027192491321e-02  7.4629352851080910e-02  7.4623127071633003e-02  7.4618375960716368e-02  7.4610623083587541e-02  7.4620525069327800e-02  7.4608718324069109e-02  5.0228693518907797e-02  5.0424763583797237e-02  5.0687258307742400e-02  5.1025914458956045e-02  5.1471662957286834e-02  5.2069866217860035e-02  5.2841001407801118e-02  1.0364369435768875e-01  1.0343051335969272e-01  1.0315475409904025e-01  1.0279739805971114e-01  1.0232081538106916e-01  1.0175200772987113e-01  1.0087928135228258e-01  1.1144735596103973e-01  1.1119580674280435e-01  1.1086616222628826e-01  1.1032599056003158e-01  1.0977136178954600e-01  1.0890415044884869e-01  1.0788611706226937e-01  8.2630054990668431e-02  8.2574852110704672e-02  8.2499478837210566e-02  8.2406493381406654e-02  8.2282089565460265e-02  8.2134456088491070e-02  8.1923011937201445e-02  1.1131061322969235e-01  1.1100469895750728e-01  1.1064878357909434e-01  1.1017192946030994e-01  1.0954377171527317e-01  1.0876346208579069e-01  1.0769399239634692e-01  5.4862325112124008e-02  5.5016214739763460e-02  5.5223996324494533e-02  5.5490824143321522e-02  5.5839542169380682e-02  5.6325469316385622e-02  5.6926985727756257e-02  1.5203550956016870e-02  1.5748412371757132e-02  1.6474717732181329e-02  1.7415582967325399e-02  1.8659345545349298e-02  2.0297801760014219e-02  2.2436521829351807e-02  1.0817588264483918e-01  1.0791299984372983e-01  1.0757018733910480e-01  1.0712739595463203e-01  1.0654553376474062e-01  1.0580835499403382e-01  1.0478637285130735e-01  8.1954014711535239e-02  8.1899895965588304e-02  8.1830641767892162e-02  8.1743166665355554e-02  8.1630332971302358e-02  8.1491263226321220e-02  8.1299145593418401e-02  1.0056093898723482e-01  1.0038172890175563e-01  1.0014686311906318e-01  9.9844282406505641e-02  9.9444869356555887e-02  9.8956918288213305e-02  9.8207805076351240e-02  1.1118338754523016e-01  1.1090847638010373e-01  1.1054285694336657e-01  1.1007042558411488e-01  1.0945679485509660e-01  1.0865851402267961e-01  1.0760594839146952e-01  8.0002647622743811e-02  7.9961380921008088e-02  7.9907771852053167e-02  7.9840336291685965e-02  7.9754994981445865e-02  7.9649377963596169e-02  7.9513524219365014e-02  1.1281054706948797e-01  1.1250252176487557e-01  1.1216088396979935e-01  1.1154577787237191e-01  1.1037841773814289e-01  1.0903363667497670e-01  1.0795532827456349e-01  8.1300329336257179e-02  8.1249232328000701e-02  8.1187344192430885e-02  8.1105691927641485e-02  8.0999888205559908e-02  8.0871408880043572e-02  8.0703239330386825e-02  1.1081927137903605e-01  1.1082804808468241e-01  1.1023413627500835e-01  1.0994608210014005e-01  1.0944232881744428e-01  1.0872985777538990e-01  1.0753881445562398e-01  6.3059834374644103e-02  6.3141058004071063e-02  6.3255184432071884e-02  6.3402395646635218e-02  6.3595969987980380e-02  6.3862626948622658e-02  6.4204451957506584e-02  1.1144143578927530e-01  1.1109820150896063e-01  1.1066703554526955e-01  1.1025067687646413e-01  1.0963966615083222e-01  1.0900855708111500e-01  1.0776654993539911e-01  8.0661203105207330e-02  8.0615684308692412e-02  8.0558176173242180e-02  8.0482376194450200e-02  8.0387049757848411e-02  8.0274421887371328e-02  8.0117242294885399e-02  1.0457296858296197e-01  1.0435094052338652e-01  1.0406309593945226e-01  1.0368958532628443e-01  1.0319472885868233e-01  1.0259109840231996e-01  1.0169364658226300e-01  1.0844160153836804e-01  1.0801382717391543e-01  1.0803115191879459e-01  1.0830777262199134e-01  1.0993285660363046e-01  1.0646827135926953e-01  1.1579652375417844e-01  1.1048129042892842e-01  1.1020283351483480e-01  1.0984127926231291e-01  1.0937093801598591e-01  1.0875425687893804e-01  1.0797367734740762e-01  1.0688060244705189e-01  2.3956873997873707e-02  2.4410491650264071e-02  2.5013984252811299e-02  2.5796949606519466e-02  2.6819589061237464e-02  2.8188647631879553e-02  2.9962779404999834e-02  7.5489411343165322e-02  7.5476503753951055e-02  7.5463840563071677e-02  7.5447138232543051e-02  7.5427152641794754e-02  7.5413400372255773e-02  7.5383123205337257e-02  1.1061725546792520e-01  1.1033746256733863e-01  1.0997283760571946e-01  1.0950143691076349e-01  1.0888557408283007e-01  1.0809829067321798e-01  1.0702685576684745e-01  1.1088498744043494e-01  1.1061579335104667e-01  1.1023386557739763e-01  1.0977601143380702e-01  1.0915579614846876e-01  1.0835788529748831e-01  1.0725747823325778e-01  7.9318195105159486e-02  7.9280859699549996e-02  7.9233419483175166e-02  7.9174455633550661e-02  7.9096403609175289e-02  7.9008610764803894e-02  7.8886316460180059e-02  1.0543507134291602e-01  1.0520573409954899e-01  1.0490697621546299e-01  1.0451760688637875e-01  1.0400749179100986e-01  1.0337656949059293e-01  1.0246841804386601e-01  3.4179931499940752e-02  3.4530847003617679e-02  3.4992682391423599e-02  3.5599394438611730e-02  3.6390865323376841e-02  3.7442009090506913e-02  3.8811001828651999e-02  7.7871228759346739e-02  7.7842106809044215e-02  7.7808224686088959e-02  7.7763274692453740e-02  7.7708212816662320e-02  7.7646389574157551e-02  7.7560050471609202e-02  4.1704237076100319e-02  4.1980734237172024e-02  4.2349386510387596e-02  4.2826889510837442e-02  4.3449373092001385e-02  4.4295517890417128e-02  4.5366004787430018e-02  7.8607238746673760e-02  7.8575713903774907e-02  7.8534814647104031e-02  7.8482491150278402e-02  7.8415042806781673e-02  7.8337737739435143e-02  7.8235669843969693e-02  7.6310651473848440e-02  7.6294425825722753e-02  7.6273852840861661e-02  7.6247792775610765e-02  7.6213496636500774e-02  7.6188827728875183e-02  7.6137100255774956e-02  4.6938549378268357e-02  4.7165175842890553e-02  4.7468376460980857e-02  4.7859769226508801e-02  4.8372478971497358e-02  4.9059348333872106e-02  4.9971935244067692e-02  4.8603506069597666e-02  4.8814581383678758e-02  4.9097257772537241e-02  4.9462366884274370e-02  4.9941744469284857e-02  5.0578105352578763e-02  5.1428831874031328e-02  7.7105001044375801e-02  7.7082354472765541e-02  7.7053821316861074e-02  7.7020195546777900e-02  7.6974469999073286e-02  7.6926604870847820e-02  7.6861270182641037e-02  1.0889694773267251e-01  1.0862902764833716e-01  1.0828065073964339e-01  1.0782865419115076e-01  1.0723706454453860e-01  1.0648531878821732e-01  1.0544923363812608e-01  1.0762249274472807e-01  1.0736334433514057e-01  1.0702570210745763e-01  1.0658866807310990e-01  1.0601349248856340e-01  1.0529118920943593e-01  1.0426880588797813e-01  1.0664987282122514e-02  1.1259174387297104e-02  1.2052464803361555e-02  1.3084422971124839e-02  1.4437905446802979e-02  1.6222501607684812e-02  1.8578455238688094e-02  4.3488457216549391e-02  4.3747871431652881e-02  4.4093917470545078e-02  4.4542332218051012e-02  4.5126492462166469e-02  4.5909511473370489e-02  4.6945808068181494e-02  1.0315674378509170e-01  1.0294960797349098e-01  1.0267903852781664e-01  1.0233046206601508e-01  1.0186943743635195e-01  1.0130146670231190e-01  1.0044437202736765e-01  3.9880467315789758e-02  4.0174536086282783e-02  4.0566792008251917e-02  4.1074014496901436e-02  4.1738679339482103e-02  4.2624819918655105e-02  4.3772880883226679e-02  4.5233273680170910e-02  4.5476054796049249e-02  4.5800416313977479e-02  4.6219763859163633e-02  4.6769434627817054e-02  4.7504780054718851e-02  4.8456116522797292e-02  7.2835321155684071e-02  7.2842360298708581e-02  7.2854979002834760e-02  7.2871221592242297e-02  7.2894085168195261e-02  7.2935199040698229e-02  7.2986130595343632e-02  3.2205115120003423e-02  3.2576049302748801e-02  3.3067058277896584e-02  3.3703028326437186e-02  3.4540080285960839e-02  3.5650976225681731e-02  3.7098550633875453e-02  7.0906420530471859e-02  7.0928425690205812e-02  7.0957616737234760e-02  7.0998293484602515e-02  7.1055292677075735e-02  7.1138604963707802e-02  7.1240488742798411e-02  1.0843007507636201e-01  1.0816519942051761e-01  1.0782077263042926e-01  1.0737470090997250e-01  1.0678929071114462e-01  1.0604671466412532e-01  1.0502051734123807e-01  1.0969109955219149e-01  1.0941797711061270e-01  1.0906264190698155e-01  1.0860143519601542e-01  1.0799937061966053e-01  1.0722874693064985e-01  1.0617695717211877e-01  5.1813225696804278e-02  5.1995028368448340e-02  5.2237472468420282e-02  5.2556351005583674e-02  5.2964769862974513e-02  5.3522991575900153e-02  5.4234801724989970e-02  7.1887408762551050e-02  7.1901801301004278e-02  7.1923374035388052e-02  7.1949841166867312e-02  7.1988654091599560e-02  7.2056877481802242e-02  7.2124415900090152e-02  1.0707468632809297e-01  1.0893273045281700e-01  1.0882795817470454e-01  1.0770825733930303e-01  1.0788142750615091e-01  1.1217091789176928e-01  1.1614041434687056e-01  6.8842436479102695e-02  6.8880222261493568e-02  6.8930307996381737e-02  6.8998218573643119e-02  6.9088836251461005e-02  6.9220232737967763e-02  6.9380843436940676e-02  1.1076396492180066e-01  1.1047992144477865e-01  1.1011892059393814e-01  1.0964311312745460e-01  1.0902477601598430e-01  1.0822886969573862e-01  1.0715050268908428e-01  9.2289202699089176e-02  9.2183121272232715e-02  9.2041832924273176e-02  9.1864695517887937e-02  9.1619810245675240e-02  9.1345397293819519e-02  9.0877642269356185e-02  6.9891755253447735e-02  6.9921384062738734e-02  6.9960931366667811e-02  7.0015138708037911e-02  7.0086808132546682e-02  7.0194704621412043e-02  7.0326054058495110e-02  1.1257353278116211e-01  1.1189156388681322e-01  1.1168961275247251e-01  1.1140553255612873e-01  1.0972617328408393e-01  1.0882522133993604e-01  1.0719370334022296e-01  1.2946378917256281e-02  1.3515512357509035e-02  1.4274654045371732e-02  1.5260129873771632e-02  1.6564230725617204e-02  1.8270718104825372e-02  2.0500808924977808e-02  6.1788977894923623e-02  6.1883064817512823e-02  6.2011408746803102e-02  6.2176348733416119e-02  6.2390711298181217e-02  6.2698493155378315e-02  6.3072835593381532e-02  6.0481693031759654e-02  6.0588883774011927e-02  6.0729647961115317e-02  6.0913979203068451e-02  6.1154677012545434e-02  6.1486482569046992e-02  6.1909505854283009e-02  5.7750666647220485e-02  5.7880602999347303e-02  5.8050086635218698e-02  5.8274976584697387e-02  5.8571519241450452e-02  5.8972069156820843e-02  5.9486813994252173e-02  6.7758425456473370e-02  6.7804715764996998e-02  6.7865634481991718e-02  6.7948216801752143e-02  6.8056605520708149e-02  6.8211929558512532e-02  6.8411334543422200e-02  1.1289699056671686e-01  1.1260298178988656e-01  1.1222083709477156e-01  1.1172387305702081e-01  1.1107827321611669e-01  1.1023783062128080e-01  1.0914815406918237e-01  9.9579836088203769e-02  9.9434977087544757e-02  9.9248449520896662e-02  9.9006701678618053e-02  9.8691763620966017e-02  9.8282837798158953e-02  9.7749933246062792e-02  1.1252694876977236e-01  1.1223643477160679e-01  1.1185846150622002e-01  1.1137047923218571e-01  1.1073641782200096e-01  1.0990222666367501e-01  1.0884422199037438e-01  1.1290170974651843e-01  1.1260762554864687e-01  1.1222535774521054e-01  1.1172841986944476e-01  1.1108276462961049e-01  1.1024143331833466e-01  1.0915412400431511e-01  4.9147264869676584e-02  4.9456525567863521e-02  4.9858029314589228e-02  5.0380477355618410e-02  5.1059247248706051e-02  5.1943047155911158e-02  5.3087246335394966e-02  1.1288986013351988e-01  1.1259595077982237e-01  1.1221388780482573e-01  1.1171712314299993e-01  1.1107148664939602e-01  1.1023205647147793e-01  1.0914018331217359e-01  1.1265700707834324e-01  1.1236557800127442e-01  1.1198703192659065e-01  1.1149505991307548e-01  1.1085696440132747e-01  1.1002035431590843e-01  1.0895333573891661e-01  1.1130362543892053e-01  1.1102679879561472e-01  1.1067138591600062e-01  1.1020348130097904e-01  1.0960308885923342e-01  1.0880704084701572e-01  1.0782859497370734e-01  1.1289380501086292e-01  1.1259983841594916e-01  1.1221771802694219e-01  1.1172089030141445e-01  1.1107521825632076e-01  1.1023526221016139e-01  1.0914454887336837e-01  1.1030769382862939e-01  1.1004389471114089e-01  1.0970224131473698e-01  1.0925360849677998e-01  1.0867844468458886e-01  1.0791407083789271e-01  1.0697582060164373e-01  1.1274293422813954e-01  1.1245117457450227e-01  1.1207125322134334e-01  1.1157721915163143e-01  1.1093632586043793e-01  1.1009750321033464e-01  1.0902684829694054e-01  1.1291073745529057e-01  1.1261654045501901e-01  1.1223426208936581e-01  1.1173684158152750e-01  1.1109131996456340e-01  1.1024976427438947e-01  1.0916608139172000e-01  1.1270454907459398e-01  1.1241298052162958e-01  1.1203371356308996e-01  1.1153994631112873e-01  1.1090097702611537e-01  1.1006214755352642e-01  1.0899446531602723e-01  1.1290339125682344e-01  1.1260932661217678e-01  1.1222711472605476e-01  1.1172981588195491e-01  1.1108473603768296e-01  1.1024255510553556e-01  1.0915668295798660e-01  1.1291080874541021e-01  1.1261665117471600e-01  1.1223424684975190e-01  1.1173712435092475e-01  1.1109094686537553e-01  1.1025084487203074e-01  1.0915767107384168e-01  1.1288505901673919e-01  1.1259114617186412e-01  1.1220917890059220e-01  1.1171260543143217e-01  1.1106692417357565e-01  1.1022790490756042e-01  1.0913567174757575e-01  1.1290759135868400e-01  1.1261347562707126e-01  1.1223113618210219e-01  1.1173392783014757e-01  1.1108858366840267e-01  1.1024520742771117e-01  1.0916416056496106e-01  1.0009820681775586e-01  9.9949513459070757e-02  9.9755597209423147e-02  9.9503502893252688e-02  9.9176378768607201e-02  9.8751280005750244e-02  9.8197297370032174e-02  1.1277490475900076e-01  1.1248198575212333e-01  1.1210165017925987e-01  1.1160740512819180e-01  1.1096572048006738e-01  1.1012737179298281e-01  1.0905519723894695e-01  1.1286278678312253e-01  1.1256908819159228e-01  1.1218763711555536e-01  1.1169126404900828e-01  1.1104670407400662e-01  1.1020653104093110e-01  1.0912175322009310e-01  1.1279986999353803e-01  1.1250730303025945e-01  1.1212672061031066e-01  1.1163128991076046e-01  1.1098863643986134e-01  1.1014786881707694e-01  1.0907661522621058e-01  1.1287905130786687e-01  1.1258532176270900e-01  1.1220338184522899e-01  1.1170697245805980e-01  1.1106125346882809e-01  1.1022318991148343e-01  1.0912898892116754e-01  1.1282129936894610e-01  1.1252775511724213e-01  1.1214696053147191e-01  1.1165172052740789e-01  1.1100803255752394e-01  1.1017176513540144e-01  1.0908288971152930e-01  1.1287162087917589e-01  1.1257799336984391e-01  1.1219604734790758e-01  1.1169973149422534e-01  1.1105450997390341e-01  1.1021523977413931e-01  1.0913066776659076e-01  1.1289956537949572e-01  1.1260557180877893e-01  1.1222335628268611e-01  1.1172631667276658e-01  1.1108077534401017e-01  1.1023984948280194e-01  1.0915132260163685e-01  5.3078628393531557e-02  5.3325825838149918e-02  5.3645117647795497e-02  5.4059044287276495e-02  5.4603745894308095e-02  5.5305713449598039e-02  5.6220318278179318e-02  1.1283768283982004e-01  1.1254481054221516e-01  1.1216343146247706e-01  1.1166722063643993e-01  1.1102430095762328e-01  1.1018278488159748e-01  1.0910216481898886e-01  5.2149243552735314e-02  5.2409322668163422e-02  5.2747699974479166e-02  5.3187559841007807e-02  5.3756880456541457e-02  5.4503321187341948e-02  5.5467168642905719e-02  1.1285146609993411e-01  1.1255769318776720e-01  1.1217639914687991e-01  1.1168030228544946e-01  1.1103616394059231e-01  1.1019499485754461e-01  1.0912045054932021e-01  5.0810306968111653e-02  5.1091439204654886e-02  5.1456621458547520e-02  5.1931580363285955e-02  5.2549326177463225e-02  5.3353271507288115e-02  5.4393694102408949e-02  1.0517181707782843e-01  1.0496647565413243e-01  1.0469999679364311e-01  1.0435268873508635e-01  1.0390297276167931e-01  1.0331669200725102e-01  1.0256066293509560e-01  5.3554433907326435e-02  5.3794245072855587e-02  5.4105439091251796e-02  5.4507280255682959e-02  5.5036045186777016e-02  5.5719674670406907e-02  5.6608461949947793e-02  1.0992852496374307e-01  1.0967115730747383e-01  1.0933253644705553e-01  1.0889541001462978e-01  1.0832731296679123e-01  1.0758129346018973e-01  1.0663940633775328e-01  5.2610688000294885e-02  5.2863770458083874e-02  5.3192969451924629e-02  5.3619673344603130e-02  5.4177520436918009e-02  5.4901752264610838e-02  5.5839831398838267e-02  1.1182520832109691e-01  1.1154395139102648e-01  1.1117596976883463e-01  1.1070279546448261e-01  1.1008674447793333e-01  1.0927338704991232e-01  1.0825934031192537e-01  1.1290968169268223e-01  1.1261554082377544e-01  1.1223314447278462e-01  1.1173608727718896e-01  1.1108967643546584e-01  1.1025025258037791e-01  1.0915568778248869e-01  1.3022530202109128e-03  1.2182528528904338e-03  1.2240447609996544e-03  1.2973560010512794e-03  1.3021658999147622e-03  9.0062937428253976e-04  3.2317611986136134e-04  2.4228421923653391e-03  2.0664009147827625e-03  1.7510721835744176e-03  1.0625416659964144e-03  4.1983345747848488e-04  1.4266325006934702e-04  7.5813180534441539e-04  1.1290989759948823e-01  1.1261575220689576e-01  1.1223335909078004e-01  1.1173627911822641e-01  1.1108992123851524e-01  1.1025035283937905e-01  1.0915593186507762e-01  1.5701321199378048e-03  1.3660510291786259e-03  6.6729709739378397e-04  7.0142041835882199e-04  1.2235011186382671e-03  2.3181167143561088e-03  3.8331425362405575e-03  1.0154314367172197e-01  1.0137853118378375e-01  1.0116383939082593e-01  1.0088533898465525e-01  1.0052388806070932e-01  1.0005180718780254e-01  9.9441095160927209e-02  1.0559244220768513e-01  1.0538325881468666e-01  1.0511006354730160e-01  1.0475577249643608e-01  1.0429626572752801e-01  1.0369493164026206e-01  1.0292194149355459e-01  1.1158183344786149e-01  1.1130425056242846e-01  1.1094080134970113e-01  1.1047010354345471e-01  1.0985982073820907e-01  1.0905945882282377e-01  1.0804588316746165e-01  1.5308129791261505e-04  4.8856814191192372e-04  1.3839981549030845e-03  2.1577125956505120e-03  3.3413927281645754e-03  4.7240015181900996e-03  6.4198964037638492e-03  2.8160667039438779e-03  3.2986267232349223e-03  3.8791983874867661e-03  4.7246158249124827e-03  5.8129704816272526e-03  7.2332241717382876e-03  9.1132644851575680e-03  5.6852178539802964e-03  6.1063223161139388e-03  6.6814037394458186e-03  7.4612490460080044e-03  8.5059015418039591e-03  9.9158089395070988e-03  1.1766192198414831e-02  4.6637198794126221e-02  4.6996046275756917e-02  4.7462132526659574e-02  4.8068240328398404e-02  4.8853743570146921e-02  4.9878378912397117e-02  5.1206326597932540e-02  1.0059888248643296e-01  1.0044352436678594e-01  1.0024308377657173e-01  9.9981747705711138e-02  9.9643038340381407e-02  9.9202258657220252e-02  9.8628615971389721e-02  8.6124036859004417e-03  9.0151207026570764e-03  9.5599158129367340e-03  1.0302256092814674e-02  1.1301529842575148e-02  1.2655389251008163e-02  1.4451935600617615e-02  1.1468303723104497e-02  1.1867419556920463e-02  1.2399004438686230e-02  1.3115914345543864e-02  1.4078105567112332e-02  1.5390149833992639e-02  1.7130213907769271e-02  1.1290819469997178e-01  1.1261407820250120e-01  1.1223169136984805e-01  1.1173465309318077e-01  1.1108862119969791e-01  1.1024657744911441e-01  1.0916540070674816e-01  1.0690642809637133e-01  1.0668165782373390e-01  1.0638967371027094e-01  1.0600971131399634e-01  1.0551504420835829e-01  1.0487476087021302e-01  1.0404514616031650e-01  4.9548769341095804e-02  4.9850944299533011e-02  5.0243298428701649e-02  5.0754620415173472e-02  5.1416725742705650e-02  5.2279601881103886e-02  5.3399178983821162e-02  1.0646171833104892e-01  1.0624242676865762e-01  1.0595411219243303e-01  1.0558497910457418e-01  1.0510432101473738e-01  1.0447187315275143e-01  1.0366908053157176e-01  1.0108045968094997e-01  1.0092026755866489e-01  1.0071234896799335e-01  1.0044215357424728e-01  1.0009231601394623e-01  9.9634591635056183e-02  9.9042191921701300e-02  1.4250702628820446e-02  1.4642536468316793e-02  1.5165902573994637e-02  1.5868691965967623e-02  1.6806793669560643e-02  1.8086689000892647e-02  1.9757305401587294e-02  1.1291021673383737e-01  1.1261606425400818e-01  1.1223366983633452e-01  1.1173655636613236e-01  1.1109032359738905e-01  1.1025028460787077e-01  1.0915758526108812e-01  1.6948381704669360e-02  1.7339491857603535e-02  1.7861184199824496e-02  1.8553588822664821e-02  1.9475365287728762e-02  2.0726937911868380e-02  2.2348435442495807e-02  1.9585709839966877e-02  1.9976641548005880e-02  2.0489768078222389e-02  2.1176506733351020e-02  2.2085221569664387e-02  2.3312131662570276e-02  2.4904181531142874e-02  1.1291033078575112e-01  1.1261618056411372e-01  1.1223379425585485e-01  1.1173668145454645e-01  1.1109042262951931e-01  1.1025019906767031e-01  1.0915852633915595e-01  2.2169916455102485e-02  2.2555483964724125e-02  2.3068643434760363e-02  2.3745849200809931e-02  2.4642287533938295e-02  2.5844883061610688e-02  2.7409258689624731e-02  4.6326197850404142e-02  4.6692091702188659e-02  4.7167419435829847e-02  4.7786158354065161e-02  4.8584995792560003e-02  4.9629258731462567e-02  5.0986812573660160e-02  4.9960112434256361e-02  5.0255224431098630e-02  5.0638552823310250e-02  5.1138191561976756e-02  5.1782101696352431e-02  5.2626878216581394e-02  5.3721107918971514e-02  2.4709502484190453e-02  2.5093339777376589e-02  2.5597538464195130e-02  2.6267110746904482e-02  2.7149612860799290e-02  2.8330368634925347e-02  2.9875563353275368e-02  1.0602387550085765e-01  1.0580791373446705e-01  1.0552884247761292e-01  1.0516736143037744e-01  1.0469425961181635e-01  1.0408037537899542e-01  1.0329025270923894e-01  2.7208809043755243e-02  2.7588657670352193e-02  2.8086966133589623e-02  2.8744803435555220e-02  2.9612184691073750e-02  3.0769706842085919e-02  3.2272301827122700e-02  2.9672476494201384e-02  3.0044813053054408e-02  3.0534192148349185e-02  3.1179873596203039e-02  3.2029713285989705e-02  3.3161098140129283e-02  3.4641053232880796e-02  3.2095674766314641e-02  3.2461526259527744e-02  3.2940824819888324e-02  3.3572342662355190e-02  3.4402481941561348e-02  3.5509611185127694e-02  3.6943455963916266e-02  1.1290869055723558e-01  1.1261456747931055e-01  1.1223216753300932e-01  1.1173518279703498e-01  1.1108868940862691e-01  1.1024936119492824e-01  1.0915849411409335e-01  1.1291007139696924e-01  1.1261592613886963e-01  1.1223353437758285e-01  1.1173642805463528e-01  1.1109013838351899e-01  1.1025026823242497e-01  1.0915694397099027e-01  5.0380782449413998e-02  5.0668851813008155e-02  5.1043277985437598e-02  5.1530204672817645e-02  5.2160691589782301e-02  5.2986097205448834e-02  5.4052986241857337e-02  3.4479786048791344e-02  3.4836651928788605e-02  3.5306135766674858e-02  3.5921587183810527e-02  3.6733131909450802e-02  3.7808931571218243e-02  3.9199353872050216e-02  3.6825947344386954e-02  3.7169600272412576e-02  3.7627480260265647e-02  3.8227969803777191e-02  3.9017206232205684e-02  4.0052597935023297e-02  4.1421909237577735e-02  4.6960821719661740e-02  4.7312565842570257e-02  4.7769231686976339e-02  4.8363896320013859e-02  4.9134682739643547e-02  5.0137294499360024e-02  5.1439655688916529e-02  1.0953018860564261e-01  1.0926959674546556e-01  1.0894430380193464e-01  1.0850783303261165e-01  1.0795500775817714e-01  1.0722035180242151e-01  1.0629965821789307e-01  3.9127713419414560e-02  3.9463228874924088e-02  3.9906047853654793e-02  4.0489457182123781e-02  4.1252485245211870e-02  4.2264099345479082e-02  4.3574901188961047e-02  4.1386627141695491e-02  4.1711162152858021e-02  4.2140013498378447e-02  4.2704746284153029e-02  4.3442851947920615e-02  4.4422852339546091e-02  4.5687742115932177e-02  1.1290593281034972e-01  1.1261180393879185e-01  1.1222959225098136e-01  1.1173221385027905e-01  1.1108694450975713e-01  1.1024572101747653e-01  1.0916148644927592e-01  1.0198978150306050e-01  1.0181874058369854e-01  1.0159838811755673e-01  1.0131171825207759e-01  1.0093923419744770e-01  1.0045508254147757e-01  9.9825291430438820e-02  4.3599892086769655e-02  4.3913190540954009e-02  4.4328343598765439e-02  4.4873335715065105e-02  4.5585557319513713e-02  4.6530165865502814e-02  4.7750994588134352e-02  4.5768264216692049e-02  4.6072973276664105e-02  4.6466572641499934e-02  4.6994125782744228e-02  4.7680719543154733e-02  4.8589165667481019e-02  4.9761640104314032e-02  4.7890401485872591e-02  4.8180368221638598e-02  4.8564413773663974e-02  4.9066312320290358e-02  4.9727870376622012e-02  5.0597398316709861e-02  5.1726585282880086e-02  1.1291066307680676e-01  1.1261651149454294e-01  1.1223412261105488e-01  1.1173681150105629e-01  1.1109157021640748e-01  1.1024803110906867e-01  1.0916431389589332e-01  4.9965151062205948e-02  5.0245026728518168e-02  5.0611404478505928e-02  5.1094446968210368e-02  5.1725600797485338e-02  5.2557294590553492e-02  5.3642645148793737e-02  1.0735335155096863e-01  1.0712337029004185e-01  1.0682462407068880e-01  1.0643620846656350e-01  1.0593299987699860e-01  1.0527102706945668e-01  1.0442848804180620e-01  4.6028314183175004e-02  4.6401376328198497e-02  4.6885670977734641e-02  4.7516711195986147e-02  4.8333801724942435e-02  4.9396144765880237e-02  5.0778485637050313e-02  1.1291070124086972e-01  1.1261653203756240e-01  1.1223421930160299e-01  1.1173687323608728e-01  1.1109118945971742e-01  1.1024829468472523e-01  1.0916530924538614e-01  1.1243637535009862e-01  1.1214845433398794e-01  1.1177429734445399e-01  1.1128586574048184e-01  1.1065050850239817e-01  1.0982339536658710e-01  1.0876962075531668e-01  5.1991659593896032e-02  5.2261902340985066e-02  5.2609252974266968e-02  5.3070856868365109e-02  5.3674858287027075e-02  5.4468692249479575e-02  5.5505183819163195e-02  5.3973731681477420e-02  5.4226456723212760e-02  5.4561071247663011e-02  5.4998597442562434e-02  5.5575256560267162e-02  5.6331125326741505e-02  5.7319579663351605e-02  5.5906368298552563e-02  5.6145838777397879e-02  5.6464288526835965e-02  5.6882122222892822e-02  5.7428916419590977e-02  5.8146189602255170e-02  5.9080135199976437e-02  5.7790657871563872e-02  5.8017653638745850e-02  5.8318829895797029e-02  5.8714502270745469e-02  5.9232714036367165e-02  5.9903930527694597e-02  6.0799689933717031e-02  5.9627307167871929e-02  5.9841280747794157e-02  6.0125913826288464e-02  6.0499485204842267e-02  6.0987450532212405e-02  6.1626034857096015e-02  6.2461096803596780e-02  6.1417440038537705e-02  6.1618386285091906e-02  6.1886182000335709e-02  6.2237489250182659e-02  6.2697776443376152e-02  6.3296952894160013e-02  6.4078562012184134e-02  1.0241861371317081e-01  1.0224271803914192e-01  1.0201603074722762e-01  1.0172192883626609e-01  1.0133911732741008e-01  1.0084111978180862e-01  1.0019375781685612e-01  1.0824453798089319e-01  1.0800492985937324e-01  1.0769070205721169e-01  1.0728808886182407e-01  1.0676257234988555e-01  1.0607284528290477e-01  1.0519692079367340e-01  1.1291043069523694e-01  1.1261626794814586e-01  1.1223388270609573e-01  1.1173670716747020e-01  1.1109065210923116e-01  1.1024959027206856e-01  1.0915949902955251e-01  4.8003979185814463e-02  4.8334284542354201e-02  4.8763570122921325e-02  4.9321425372782411e-02  5.0046841834915402e-02  5.0989871563555007e-02  5.2214198585087121e-02  6.3158927273241280e-02  6.3347179286321095e-02  6.3597446627784299e-02  6.3927041353068689e-02  6.4356722588217466e-02  6.4915009603954146e-02  6.5664739216321058e-02  6.4853749617662673e-02  6.5028945997321050e-02  6.5263923957318545e-02  6.5571356305055853e-02  6.5971793147005076e-02  6.6499673730294029e-02  6.7187292183137279e-02  6.6502575691662014e-02  6.6668319102857199e-02  6.6879689577254348e-02  6.7167886713405719e-02  6.7540642449407273e-02  6.8029081728229468e-02  6.8665457193862814e-02  1.0322822558975472e-01  1.0304361752118006e-01  1.0280523829185835e-01  1.0249603661899255e-01  1.0209340247455810e-01  1.0156990459839457e-01  1.0088988763249662e-01  6.8105741926465416e-02  6.8255548068436533e-02  6.8456435314612693e-02  6.8717791392157085e-02  6.9063824124213885e-02  6.9514551669925984e-02  7.0104357266048106e-02  6.9659976902263318e-02  6.9799831264385881e-02  6.9984243166665544e-02  7.0226543883892309e-02  7.0542746551468222e-02  7.0956991858775839e-02  7.1497302247442523e-02  1.1232932019594404e-01  1.1203986743073606e-01  1.1166783809450331e-01  1.1118083572702886e-01  1.1055290193069700e-01  1.0972525809068313e-01  1.0867782900649749e-01  1.0780102807907209e-01  1.0756410474330562e-01  1.0726109967599182e-01  1.0686327376487263e-01  1.0634949553643874e-01  1.0567356554668003e-01  1.0481578806970171e-01  7.1174803055136363e-02  7.1297828118595946e-02  7.1467687571229413e-02  7.1688479456787343e-02  7.1977799161102834e-02  7.2350595993897926e-02  7.2846242683513501e-02  7.2639841860461532e-02  7.2755366372067629e-02  7.2907225007370791e-02  7.3107231684769014e-02  7.3368078575450510e-02  7.3706653905083727e-02  7.4153083728659405e-02  4.7644508599626212e-02  4.7981976568841705e-02  4.8420555730548945e-02  4.8990712059720457e-02  4.9729333790616642e-02  5.0693871907339684e-02  5.1942708880635777e-02  1.1291076151823415e-01  1.1261658166588782e-01  1.1223425503648381e-01  1.1173677818869962e-01  1.1109165268534596e-01  1.1024790920997968e-01  1.0916756611935202e-01  1.1291062308993852e-01  1.1261645367844696e-01  1.1223413409210946e-01  1.1173674141118337e-01  1.1109109505335556e-01  1.1025018619740617e-01  1.0916324531892940e-01  7.4066515261986210e-02  7.4165475070822134e-02  7.4303421803168984e-02  7.4483094255092974e-02  7.4716486538771179e-02  7.5023266052613877e-02  7.5423017362695938e-02  7.5447074127344929e-02  7.5538240893908259e-02  7.5657136478108136e-02  7.5816464374224665e-02  7.6023274858721873e-02  7.6294677917031928e-02  7.6651495469866437e-02  1.1219210541519384e-01  1.1190853849423131e-01  1.1153656353956480e-01  1.1105341274495689e-01  1.1042816741833433e-01  1.0960297520573721e-01  1.0856644305493002e-01  7.6786512893158437e-02  7.6866289596916548e-02  7.6971438758503541e-02  7.7108567108905748e-02  7.7289476876313129e-02  7.7527132963206402e-02  7.7836767652060698e-02  1.0911043963966277e-01  1.0886418624905304e-01  1.0853572762335141e-01  1.0811654565437477e-01  1.0756928721597338e-01  1.0684877295646475e-01  1.0594197853947561e-01  7.8082873627651928e-02  7.8153181258039287e-02  7.8239858984257851e-02  7.8359230693371654e-02  7.8515600520445220e-02  7.8719066494437093e-02  7.8986330486397069e-02  1.0283133775163412e-01  1.0265106915842603e-01  1.0241840995325245e-01  1.0211656976146405e-01  1.0172363605034818e-01  1.0121249410539095e-01  1.0054873724805746e-01  7.9341883562987478e-02  7.9398437867687188e-02  7.9472201593267414e-02  7.9570441327010091e-02  7.9702627742141569e-02  7.9872819342794138e-02  8.0097778064534747e-02  8.0558097048516908e-02  8.0605138528575732e-02  8.0665436338303087e-02  8.0745214417856995e-02  8.0851182430816876e-02  8.0989440587004594e-02  8.1172388587566605e-02  4.8374199893873225e-02  4.8696888071588972e-02  4.9117803973849031e-02  4.9663705281698049e-02  5.0373961372273075e-02  5.1295774849955872e-02  5.2491510880034863e-02  8.1738525394921033e-02  8.1771300158576060e-02  8.1818643822379675e-02  8.1879866633289972e-02  8.1962910523676907e-02  8.2065951164669013e-02  8.2208621571905782e-02  1.1290684740335630e-01  1.1261272376226190e-01  1.1223045958255115e-01  1.1173306754471524e-01  1.1108821198937409e-01  1.1024367289097013e-01  1.0916355649336912e-01  1.1291050968130995e-01  1.1261634034252184e-01  1.1223399122578753e-01  1.1173672356689238e-01  1.1109088251935546e-01  1.1025033885252249e-01  1.0916068643237900e-01  8.2879167548397817e-02  8.2900483394136554e-02  8.2933667191094490e-02  8.2978402198861226e-02  8.3036738220160028e-02  8.3108929160422174e-02  8.3213258576576507e-02  1.1066645894512521e-01  1.1040303280952202e-01  1.1005066996090965e-01  1.0959897322186607e-01  1.0901550620363551e-01  1.0824150060111136e-01  1.0726912753069558e-01  1.1291079173434219e-01  1.1261661159646849e-01  1.1223430310486431e-01  1.1173682367899176e-01  1.1109153127763768e-01  1.1024705146200436e-01  1.0916801150164311e-01  8.3980463024874719e-02  8.3994304076138310e-02  8.4013585120115947e-02  8.4040575352736221e-02  8.4075113407138136e-02  8.4121165190113811e-02  8.4183991994244173e-02  8.5049464653338000e-02  8.5049678916775492e-02  8.5057326334350078e-02  8.5066901781655810e-02  8.5078743014255068e-02  8.5095419637962091e-02  8.5120647800754456e-02  8.6081466774497684e-02  8.6073295975998387e-02  8.6066378550965703e-02  8.6058994279853557e-02  8.6049464886336233e-02  8.6038537639416629e-02  8.6021490522997859e-02  8.7078376057769233e-02  8.7060493165143110e-02  8.7041020322323123e-02  8.7017511527793995e-02  8.6987213910789229e-02  8.6943743354970335e-02  8.6892791905231026e-02  1.1290481579895149e-01  1.1261067734276194e-01  1.1222845276477947e-01  1.1173128118359289e-01  1.1108567233571817e-01  1.1024308891264308e-01  1.0915947406501524e-01  4.7296780073075556e-02  4.7641347614286580e-02  4.8088901526781885e-02  4.8671869915156471e-02  4.9423860853385668e-02  5.0408367355799684e-02  5.1685190987645686e-02  1.0476217716071023e-01  1.0456072588227779e-01  1.0430072574203519e-01  1.0396044427760448e-01  1.0352124982798867e-01  1.0294864819911781e-01  1.0220942782924301e-01  8.8041780773425990e-02  8.8016165653961573e-02  8.7983272874814000e-02  8.7943624820853786e-02  8.7891381056429005e-02  8.7822147137124162e-02  8.7736453497300554e-02  8.8973289215988849e-02  8.8936998759810357e-02  8.8894255495012536e-02  8.8837572854142566e-02  8.8765412044046754e-02  8.8672989012099371e-02  8.8549199358071998e-02  1.0868316002217752e-01  1.0843865807441543e-01  1.0812020805936368e-01  1.0770444840407303e-01  1.0717021352080706e-01  1.0646467315872256e-01  1.0557358275424329e-01  1.1291057491144341e-01  1.1261639763735767e-01  1.1223405962915836e-01  1.1173680344286736e-01  1.1109095399438140e-01  1.1024876226985042e-01  1.0916206509596080e-01  8.9871807930994085e-02  8.9826378621917183e-02  8.9771110499748813e-02  8.9700597147588060e-02  8.9609728429285510e-02  8.9487027016523960e-02  8.9332711088539796e-02  9.0739508356711795e-02  9.0687189736297580e-02  9.0619912565271465e-02  9.0534077378889785e-02  9.0423475330216802e-02  9.0274765528964018e-02  9.0094171483278057e-02  1.0361009008282526e-01  1.0342201948756863e-01  1.0317764538200809e-01  1.0286100297266099e-01  1.0244937320978122e-01  1.0191360800421807e-01  1.0121710814155842e-01  1.1290909253799963e-01  1.1261496292143422e-01  1.1223256177102826e-01  1.1173556064986608e-01  1.1108904975985960e-01  1.1024977010033339e-01  1.0915366453176037e-01  9.1576522108586758e-02  9.1517652506436453e-02  9.1437495828372420e-02  9.1337633167574817e-02  9.1208773320348602e-02  9.1037505928957402e-02  9.0825807071304887e-02  9.2386410103475466e-02  9.2315973892581213e-02  9.2227404770159657e-02  9.2112372844893348e-02  9.1965693001358081e-02  9.1771319035380938e-02  9.1531005655969236e-02  4.8754582018285170e-02  4.9071708626413114e-02  4.9482770920828395e-02  5.0016811701449990e-02  5.0711208044708661e-02  5.1611622990912223e-02  5.2785160285335087e-02  9.3164957804409004e-02  9.3088151137669883e-02  9.2989710373636209e-02  9.2862449092642158e-02  9.2697140355581353e-02  9.2481624668093371e-02  9.2201923280919876e-02  5.1248530328357828e-02  5.1522696060368453e-02  5.1878593096635436e-02  5.2342636279191140e-02  5.2943308405704700e-02  5.3726901018881973e-02  5.4743324365399346e-02  9.3918702411312074e-02  9.3831659645162227e-02  9.3723941319602752e-02  9.3583253342021208e-02  9.3401292481813350e-02  9.3159444846895034e-02  9.2855439639380546e-02  1.0436439575348190e-01  1.0416777799855688e-01  1.0391369726386039e-01  1.0358168662070004e-01  1.0315248856305895e-01  1.0259055705057607e-01  1.0186721618060136e-01  9.4644542001770776e-02  9.4551162718890649e-02  9.4432611292297658e-02  9.4279533376430621e-02  9.4080525592822858e-02  9.3818265885838484e-02  9.3484624358417867e-02  5.1694875524448680e-02  5.1961950785989995e-02  5.2308894115422687e-02  5.2761361578091089e-02  5.3344209515280384e-02  5.4109803170236330e-02  5.5101203307573933e-02  1.1291079992854172e-01  1.1261664707557886e-01  1.1223424747006117e-01  1.1173703286984230e-01  1.1109080794575835e-01  1.1025026951753074e-01  1.0916469086031892e-01  9.5344165284654323e-02  9.5243545105189370e-02  9.5115411132347047e-02  9.4950189547329020e-02  9.4734586719925504e-02  9.4453832395598625e-02  9.4091888574697843e-02  9.6018513145644163e-02  9.5912078566643938e-02  9.5773989490286496e-02  9.5596488625943637e-02  9.5365436642994933e-02  9.5063957896993956e-02  9.4676721895486551e-02  9.6668965249400218e-02  9.6554645175484483e-02  9.6409184224423586e-02  9.6219100169325097e-02  9.5973326787525598e-02  9.5652331345792221e-02  9.5239165990257516e-02  1.1290941624877289e-01  1.1261528069385431e-01  1.1223288144988613e-01  1.1173585614897606e-01  1.1108934761690507e-01  1.1025037686170973e-01  1.0915639683663797e-01  1.0398209007303537e-01  1.0378901950295108e-01  1.0354028628665339e-01  1.0321619263527358e-01  1.0279590083432041e-01  1.0224637921192437e-01  1.0153678166451284e-01  1.1099966857537594e-01  1.1072408861653672e-01  1.1037490675218531e-01  1.0991200375132137e-01  1.0931884032238211e-01  1.0852915385737984e-01  1.0756507124652576e-01  9.7295411641534171e-02  9.7174261313355687e-02  9.7019548045502266e-02  9.6819146217202862e-02  9.6559333064342223e-02  9.6217293351279085e-02  9.5779817014734384e-02  1.1202878855403407e-01  1.1174435800317126e-01  1.1137714293722284e-01  1.1089398809064602e-01  1.1027548740039513e-01  1.0945491545692460e-01  1.0843126282239476e-01  9.7898955653185557e-02  9.7771646595432610e-02  9.7608579578940494e-02  9.7397481968106922e-02  9.7122756181802522e-02  9.6761990995116981e-02  9.6301714913625325e-02  9.8480730338888350e-02  9.8347095999989059e-02  9.8175901975713561e-02  9.7954334230005380e-02  9.7665386225951376e-02  9.7290327124055442e-02  9.6803265241223041e-02  9.9039532722270174e-02  9.8901117982848188e-02  9.8722149948263949e-02  9.8490428467313124e-02  9.8188330544250219e-02  9.7795881287269446e-02  9.7285136657432367e-02  1.1291077926054030e-01  1.1261661068414162e-01  1.1223426501278690e-01  1.1173698409898701e-01  1.1109171775463936e-01  1.1024813418641555e-01  1.0916737104452193e-01  1.1259767480831333e-01  1.1230772093183491e-01  1.1193079300819225e-01  1.1143840885418480e-01  1.1080180764322881e-01  1.0996966240696154e-01  1.0890449498093395e-01  1.0732081278150912e-01  1.0706321743402272e-01  1.0672840418790135e-01  1.0629404738463620e-01  1.0572439511107870e-01  1.0500889784733948e-01  1.0398763648563100e-01  1.3814356229918351e-01  1.3753119809447961e-01  1.3673416965046400e-01  1.3569793682778167e-01  1.3434922032241942e-01  1.3260652271950005e-01  1.3031616892822376e-01  1.3703996725223683e-01  1.3644211030370013e-01  1.3566435610108241e-01  1.3465367083077021e-01  1.3333693217227408e-01  1.3163752386170993e-01  1.2939968997794404e-01  1.3598707792191692e-01  1.3540332869513524e-01  1.3464373981552408e-01  1.3365684071631995e-01  1.3237096371272158e-01  1.3071045255747449e-01  1.2852990330539285e-01  1.3498264700108123e-01  1.3441223882542702e-01  1.3367001057645048e-01  1.3270567231947197e-01  1.3144923752371507e-01  1.2982716977424130e-01  1.2769209860925684e-01  1.3402397190878101e-01  1.3346622739217687e-01  1.3274045901362452e-01  1.3179744321188516e-01  1.3056900625094728e-01  1.2898000096507334e-01  1.2690658810701300e-01  1.3310889391563449e-01  1.3256321921479688e-01  1.3185323828028969e-01  1.3093053428670087e-01  1.2972950654701013e-01  1.2817490769601927e-01  1.2613418682658489e-01  1.3223564203968086e-01  1.3170134808315789e-01  1.3100622510027929e-01  1.3010279339807254e-01  1.2892611914249738e-01  1.2740725523794830e-01  1.2540479015259101e-01  1.3140115639185374e-01  1.3087775240027319e-01  1.3019673209683127e-01  1.2931183491816586e-01  1.2815872480496551e-01  1.2666775260247937e-01  1.2472041535851372e-01  1.3060476057392789e-01  1.3009175304289294e-01  1.2942427290038189e-01  1.2855691266701835e-01  1.2742775391234459e-01  1.2596537765729873e-01  1.2405194189144431e-01  1.2984415155486773e-01  1.2934093986190290e-01  1.2868624165355777e-01  1.2783523976937050e-01  1.2672762282962605e-01  1.2529285345064098e-01  1.2342118625713142e-01  1.2911739942243389e-01  1.2862363796176035e-01  1.2798123978427864e-01  1.2714613004538106e-01  1.2605939164319171e-01  1.2465093054311364e-01  1.2281051537007558e-01  1.2842344542491999e-01  1.2793824156377390e-01  1.2730754272581774e-01  1.2648748916163854e-01  1.2542024147200054e-01  1.2403808757278786e-01  1.2223002149586723e-01  1.2776047467327029e-01  1.2728356334442176e-01  1.2666371994366790e-01  1.2585814245116622e-01  1.2480941615717706e-01  1.2345140032106566e-01  1.2167457417036312e-01  1.2712511247753264e-01  1.2665782417271920e-01  1.2604840997222666e-01  1.2525657748336932e-01  1.2422568007806249e-01  1.2289069888414578e-01  1.2114370321484837e-01  1.2652034537233930e-01  1.2605955173979694e-01  1.2546050563125452e-01  1.2468126124013226e-01  1.2366787286646114e-01  1.2235493437060167e-01  1.2063643795518895e-01  1.2594174833891147e-01  1.2548656613009415e-01  1.2489824767229635e-01  1.2413220962218414e-01  1.2313130779155962e-01  1.2184195098527573e-01  1.2015136769482221e-01  1.2538678486280364e-01  1.2494144687097639e-01  1.2435942403172438e-01  1.2360653484679526e-01  1.2262382983077459e-01  1.2134938933624230e-01  1.1968735488231040e-01  1.2485803860835229e-01  1.2441857274509908e-01  1.2384666572077195e-01  1.2310307983841634e-01  1.2213610102942822e-01  1.2088261853962685e-01  1.1924275579917304e-01  1.2435180312368088e-01  1.2391854103923250e-01  1.2335504296851257e-01  1.2262247513515903e-01  1.2166883556810615e-01  1.2043351770777712e-01  1.1881835592496520e-01  1.2386773479392955e-01  1.2344055033735694e-01  1.2288491240924009e-01  1.2216253821228362e-01  1.2122283200555466e-01  1.2000466494022896e-01  1.1841177068302448e-01  1.2340474916274172e-01  1.2298336699970294e-01  1.2243522370254518e-01  1.2172315417940222e-01  1.2079329565275267e-01  1.1959396792995752e-01  1.1802230792032878e-01  1.2296194292875802e-01  1.2254606890923896e-01  1.2200495019300252e-01  1.2130218948040282e-01  1.2038726060446826e-01  1.1919956215939710e-01  1.1765127172785388e-01  1.2253703190756039e-01  1.2212677172903530e-01  1.2159265853798336e-01  1.2089857231564062e-01  1.1999306619288409e-01  1.1882372918983734e-01  1.1729511903665023e-01  1.2210779934320193e-01  1.2170119015362330e-01  1.2117528348688310e-01  1.2049050334782202e-01  1.1959845628694990e-01  1.1844160121101806e-01  1.1692923367663098e-01  1.2166482909889866e-01  1.2126468604127386e-01  1.2074383742315546e-01  1.2006870402380460e-01  1.1918983930646004e-01  1.1804866149397127e-01  1.1655761042579028e-01  1.2120813127172904e-01  1.2081493055725924e-01  1.2030202887406073e-01  1.1963590285648082e-01  1.1876687435194287e-01  1.1764219380252841e-01  1.1617197761310813e-01  1.2074151375302676e-01  1.2035452478678187e-01  1.1984939113532497e-01  1.1919303311908333e-01  1.1833855834869610e-01  1.1722826768186632e-01  1.1577888929615249e-01  1.2026831220008373e-01  1.1988472842685009e-01  1.1938634348003078e-01  1.1874139261901810e-01  1.1789994089345009e-01  1.1680977722853864e-01  1.1537991572296910e-01  1.1978716572223841e-01  1.1941022994876194e-01  1.1892060818499743e-01  1.1828254363686008e-01  1.1745498164887484e-01  1.1638220017407043e-01  1.1497148590523568e-01  1.1930166746316735e-01  1.1893150550392192e-01  1.1844923712532272e-01  1.1782267204828599e-01  1.1700639219155344e-01  1.1595223778020936e-01  1.1455927521480737e-01  1.1881328291725347e-01  1.1844934658353323e-01  1.1797640852832375e-01  1.1735992379671785e-01  1.1655676185620445e-01  1.1551789496593680e-01  1.1415591447610064e-01  1.1833293139687111e-01  1.1797118035438557e-01  1.1750548641640614e-01  1.1689800919343732e-01  1.1611011854837981e-01  1.1508886525239836e-01  1.1373915278169326e-01  1.1785196175787305e-01  1.1749728577255625e-01  1.1703943225542676e-01  1.1644335446172378e-01  1.1566423064240793e-01  1.1466022882394546e-01  1.1334373317851971e-01  1.1738093249022684e-01  1.1703443808807930e-01  1.1658070898334616e-01  1.1599539603604647e-01  1.1523099376127423e-01  1.1424211456925927e-01  1.1293386790858036e-01  1.1692197882752325e-01  1.1658091923250763e-01  1.1613620800699824e-01  1.1555821655201441e-01  1.1480578485679893e-01  1.1383480425152875e-01  1.1254818149261855e-01  1.1647925036431857e-01  1.1614050960164277e-01  1.1570615546026308e-01  1.1513633080610218e-01  1.1439584035294806e-01  1.1344039712255242e-01  1.1216489055241372e-01  1.1605471423418362e-01  1.1572490797941200e-01  1.1529088330668388e-01  1.1473362091893034e-01  1.1399833177474501e-01  1.1306728667949965e-01  1.1180042072358956e-01  1.1565016583614851e-01  1.1532409831564226e-01  1.1489929769217738e-01  1.1434801194337547e-01  1.1363070252894399e-01  1.1270036435592508e-01  1.1146364688961453e-01  1.1527493148873527e-01  1.1495298263069202e-01  1.1453427288448598e-01  1.1399010712749180e-01  1.1327959078899258e-01  1.1237390179681082e-01  1.1112685320386630e-01  1.1492336548419511e-01  1.1460486191330177e-01  1.1419139511209468e-01  1.1365524699203493e-01  1.1295343315061397e-01  1.1205214038422215e-01  1.1083377540435345e-01  1.1460302976238243e-01  1.1429105547993527e-01  1.1388101091719723e-01  1.1335114676976431e-01  1.1265805314973844e-01  1.1177610283411031e-01  1.1055067970973571e-01  1.1431321388836964e-01  1.1400151181603374e-01  1.1359864175974425e-01  1.1307429923928147e-01  1.1238689787334852e-01  1.1151628291045498e-01  1.1031376785299293e-01  1.1405589485740092e-01  1.1374631536028545e-01  1.1334876464625618e-01  1.1282904324190290e-01  1.1214852367568871e-01  1.1128277540886254e-01  1.1010369679633820e-01  1.1383826260451388e-01  1.1353519823535937e-01  1.1313516094561379e-01  1.1262225603461411e-01  1.1194847173141995e-01  1.1108664864817204e-01  1.0992755936995541e-01  1.1366298970313152e-01  1.1336039054439162e-01  1.1296645809892072e-01  1.1245497395785171e-01  1.1178683952891121e-01  1.1092871856810371e-01  1.0978085970114640e-01  1.1352146773829111e-01  1.1322009360551070e-01  1.1282815742298802e-01  1.1231963828916811e-01  1.1165548810744624e-01  1.1080155646738123e-01  1.0966129567761049e-01  1.1340596807567052e-01  1.1310617403845886e-01  1.1271593841164168e-01  1.1220951736048117e-01  1.1154856203165216e-01  1.1069805275108716e-01  1.0956480324137924e-01  1.1331283453038490e-01  1.1301340439930407e-01  1.1262563045423926e-01  1.1212066856586514e-01  1.1146222623669702e-01  1.1061397246679747e-01  1.0948890567890518e-01  1.1323665394951569e-01  1.1293928251729203e-01  1.1255078040107877e-01  1.1204814227983345e-01  1.1139199507858366e-01  1.1054478493221401e-01  1.0942798519989198e-01  1.1317519796085543e-01  1.1287806862899126e-01  1.1249158847214184e-01  1.1198950911552691e-01  1.1133546827617412e-01  1.1048925232437486e-01  1.0937708165684290e-01  1.1312509279747691e-01  1.1282849179594680e-01  1.1244266746476254e-01  1.1194150570136790e-01  1.1128893492445749e-01  1.1044397305539105e-01  1.0933563046008635e-01  1.1308528293717958e-01  1.1278876663494268e-01  1.1240422335116894e-01  1.1190355782593993e-01  1.1125224159077060e-01  1.1040748462002210e-01  1.0930734417920906e-01  1.1305196738678129e-01  1.1275656557986163e-01  1.1237122114991667e-01  1.1187197672717668e-01  1.1122172432799111e-01  1.1037631998691226e-01  1.0928149601938927e-01  1.1302534029745043e-01  1.1272990924697690e-01  1.1234606735623283e-01  1.1184599054282082e-01  1.1119769301569504e-01  1.1035185645068782e-01  1.0926049220350945e-01  1.1300391094442180e-01  1.1270843533114663e-01  1.1232488830040975e-01  1.1182603016190308e-01  1.1117717713647932e-01  1.1033268782089510e-01  1.0924199250145693e-01  1.1298630797820815e-01  1.1269144879277715e-01  1.1230759788943621e-01  1.1180895835171041e-01  1.1116150374243022e-01  1.1031599142344806e-01  1.0922842963728990e-01  1.1297204956629513e-01  1.1267708498621265e-01  1.1229401020260417e-01  1.1179534092770334e-01  1.1114804848202972e-01  1.1030521129282739e-01  1.0921434089471962e-01  1.1296053496651426e-01  1.1266589350246688e-01  1.1228259174141382e-01  1.1178445880601454e-01  1.1113709884377547e-01  1.1029432265112114e-01  1.0920204865530343e-01  1.1295114193127767e-01  1.1265644941701242e-01  1.1227357924436862e-01  1.1177552215540032e-01  1.1112850718835358e-01  1.1028618069206302e-01  1.0919592985470293e-01  1.1294356242000204e-01  1.1264908057855415e-01  1.1226608525135555e-01  1.1176827743590949e-01  1.1112144871808875e-01  1.1027920242761247e-01  1.0918791936298881e-01  1.1293735268520984e-01  1.1264289541937557e-01  1.1226011975770525e-01  1.1176237306974676e-01  1.1111565792964534e-01  1.1027427717961689e-01  1.0918096478549126e-01  1.1293237000553023e-01  1.1263791258913343e-01  1.1225525947647119e-01  1.1175764301862108e-01  1.1111082903275356e-01  1.1027022242240690e-01  1.0917577127622299e-01  1.1292830411499748e-01  1.1263397922482131e-01  1.1225124674655798e-01  1.1175383279478844e-01  1.1110697967870074e-01  1.1026667111551798e-01  1.0917287484121473e-01  1.1292499671254383e-01  1.1263068148440415e-01  1.1224805876444013e-01  1.1175066038107691e-01  1.1110409367746887e-01  1.1026332473438225e-01  1.0917034598255961e-01  1.1292233031253472e-01  1.1262803966382627e-01  1.1224546151899213e-01  1.1174809629470095e-01  1.1110148543963383e-01  1.1026151288503998e-01  1.0916592360420932e-01  1.1292016077140227e-01  1.1262588094848432e-01  1.1224335036740261e-01  1.1174608346063387e-01  1.1109935007667014e-01  1.1025945117468353e-01  1.0916779062199730e-01  1.1291839221153047e-01  1.1262416974980184e-01  1.1224160938190209e-01  1.1174437428517199e-01  1.1109802620864313e-01  1.1025609327025217e-01  1.0917258170206190e-01  1.1291696352290984e-01  1.1262271601416649e-01  1.1224025362636864e-01  1.1174289788735900e-01  1.1109722280977445e-01  1.1025358525702557e-01  1.0917252465465500e-01  1.1291580719434255e-01  1.1262158466322222e-01  1.1223917353259848e-01  1.1174147578463113e-01  1.1109646889191493e-01  1.1025254617209748e-01  1.0917141921186706e-01  1.1291486235120678e-01  1.1262064062852414e-01  1.1223822703814419e-01  1.1174093944788695e-01  1.1109530647339985e-01  1.1025173065009312e-01  1.0917068197786804e-01  1.1291410322881582e-01  1.1261987365316065e-01  1.1223749962397961e-01  1.1174003052767062e-01  1.1109471518411228e-01  1.1025109392386563e-01  1.0916945409685844e-01  1.1291347762378062e-01  1.1261928638090200e-01  1.1223690381409583e-01  1.1173942531107328e-01  1.1109407998691702e-01  1.1025075715468458e-01  1.0916817769294195e-01  1.1291297586980523e-01  1.1261875284191451e-01  1.1223643763451094e-01  1.1173896894536328e-01  1.1109353913180027e-01  1.1025056170180519e-01  1.0916681965048651e-01  1.1291256662512697e-01  1.1261838331287263e-01  1.1223600424810981e-01  1.1173860451792676e-01  1.1109307823779167e-01  1.1025047514130129e-01  1.0916555954042018e-01  1.1291222971883580e-01  1.1261803692396304e-01  1.1223568534420629e-01  1.1173830916416731e-01  1.1109268430036916e-01  1.1025047184785927e-01  1.0916421269710049e-01  1.1291196800927318e-01  1.1261776504485559e-01  1.1223542218226576e-01  1.1173808051213503e-01  1.1109233573965478e-01  1.1025057981986329e-01  1.0916277796125938e-01  1.1291173972444873e-01  1.1261757096331745e-01  1.1223518448374398e-01  1.1173790396299151e-01  1.1109202348532596e-01  1.1025073580738401e-01  1.0916150809467487e-01  1.1291156124268369e-01  1.1261738340459401e-01  1.1223500781059073e-01  1.1173776475566354e-01  1.1109175808233565e-01  1.1025087985327424e-01  1.0916041414334664e-01  1.1291141727791042e-01  1.1261724369420653e-01  1.1223485578573934e-01  1.1173765379048256e-01  1.1109153705106749e-01  1.1025102528765462e-01  1.0915939705662651e-01  1.1291129769136103e-01  1.1261712837513946e-01  1.1223473487467743e-01  1.1173756769494081e-01  1.1109134124184299e-01  1.1025118667628291e-01  1.0915850990573990e-01  1.1291119974499944e-01  1.1261703862938827e-01  1.1223463033080801e-01  1.1173749548048235e-01  1.1109119901673671e-01  1.1025124001182562e-01  1.0915799659475313e-01  1.1291111960177866e-01  1.1261696150336005e-01  1.1223454951813219e-01  1.1173744239517454e-01  1.1109102966494218e-01  1.1025156819128333e-01  1.0915642842993911e-01  1.1291105477159263e-01  1.1261689925139377e-01  1.1223447329756123e-01  1.1173741031947189e-01  1.1109094463018861e-01  1.1025126681437533e-01  1.0915897215655682e-01  1.1291100083214196e-01  1.1261684602789837e-01  1.1223443245823507e-01  1.1173733996383374e-01  1.1109095699533361e-01  1.1025100823608551e-01  1.0915756691309222e-01  1.1291095810334158e-01  1.1261680217978265e-01  1.1223438976925855e-01  1.1173727617311487e-01  1.1109099289672339e-01  1.1025104863814784e-01  1.0915861319548240e-01  1.1291092245641902e-01  1.1261676451783864e-01  1.1223434722952040e-01  1.1173726744981237e-01  1.1109083904116540e-01  1.1025091926717230e-01  1.0915891161586158e-01  1.1291089359487326e-01  1.1261673188666917e-01  1.1223434967675944e-01  1.1173713515735484e-01  1.1109142338140976e-01  1.1024946716661538e-01  1.0916547900291118e-01  1.1291087016702740e-01  1.1261670654550514e-01  1.1223432099339595e-01  1.1173708431374117e-01  1.1109114097341834e-01  1.1024900423336355e-01  1.0916445639723438e-01  1.1291085059511728e-01  1.1261668522059552e-01  1.1223432112673612e-01  1.1173704125472499e-01  1.1109152185198751e-01  1.1024870156887401e-01  1.0916613931163373e-01  1.1291083608017269e-01  1.1261666368573665e-01  1.1223432195441163e-01  1.1173694402925842e-01  1.1109153683450028e-01  1.1024855976712904e-01  1.0916490031865718e-01  1.1291082616184789e-01  1.1261664652161234e-01  1.1223432476834624e-01  1.1173694003989768e-01  1.1109148271464957e-01  1.1024907933336563e-01  1.0916270422345482e-01  1.1291081821107068e-01  1.1261664039902849e-01  1.1223430261636794e-01  1.1173698698947773e-01  1.1109119775270836e-01  1.1025015782701683e-01  1.0915862882101349e-01  1.1118716352340970e-01  1.1208417626316994e-01  1.1325053968911324e-01  1.1476501313949149e-01  1.1673561506135581e-01  1.1927781354412184e-01  1.2258720967957935e-01  1.1342862844525634e-01  1.1432430709354106e-01  1.1549186072526502e-01  1.1700631851470290e-01  1.1897295692629725e-01  1.2151737016425172e-01  1.2483463445099514e-01  1.1570653608000850e-01  1.1660330440788519e-01  1.1776898633546359e-01  1.1928368931624891e-01  1.2125118065131071e-01  1.2378783785584727e-01  1.2711615221042505e-01  1.1802368805286183e-01  1.1892142054115631e-01  1.2008555751759993e-01  1.2159792921557191e-01  1.2356826683506447e-01  1.2609483030342075e-01  1.2942654249550795e-01  1.2038110374463938e-01  1.2127623659903679e-01  1.2244046943443562e-01  1.2395192600137987e-01  1.2591762290491573e-01  1.2844765855043666e-01  1.3176656968872685e-01  1.2277624485823954e-01  1.2367014950494405e-01  1.2483266823233820e-01  1.2634193567327218e-01  1.2830367368201534e-01  1.3082991719063100e-01  1.3414334683903117e-01  1.2521047573500133e-01  1.2610270014269570e-01  1.2726300318863340e-01  1.2876977824416447e-01  1.3072799143370467e-01  1.3324795161493139e-01  1.3655331199256762e-01  1.2768372012853754e-01  1.2857250933636957e-01  1.2973147551145114e-01  1.3123437624589096e-01  1.3318608956323755e-01  1.3570708917634594e-01  1.3899836181492556e-01  1.3019389932907358e-01  1.3108183653765487e-01  1.3223600290505660e-01  1.3373528310263458e-01  1.3568270014238470e-01  1.3818841182804062e-01  1.4148294731456793e-01  1.3274317633502911e-01  1.3362988589180314e-01  1.3477976522884810e-01  1.3627321992269786e-01  1.3821927543983911e-01  1.4070666365015300e-01  1.4400144682329130e-01  1.3533315510645516e-01  1.3621476427975932e-01  1.3736206148024679e-01  1.3885170425955543e-01  1.4078772466945416e-01  1.4327195882486651e-01  1.4654678920223971e-01  1.3796053129573346e-01  1.3883750681820353e-01  1.3998112414040104e-01  1.4146455596385801e-01  1.4338917467239456e-01  1.4587384433481593e-01  1.4912459700840308e-01  1.4062549144981323e-01  1.4150155787618315e-01  1.4263759490448050e-01  1.4411408885406862e-01  1.4603499749484156e-01  1.4848859634242170e-01  1.5174492696234759e-01  1.4333203632851685e-01  1.4420084251648013e-01  1.4533390615182729e-01  1.4680366070447567e-01  1.4871106710020826e-01  1.5117125041497989e-01  1.5438644727414996e-01  1.4607460719047385e-01  1.4694173061624211e-01  1.4806632252098706e-01  1.4952719373701126e-01  1.5142759948297910e-01  1.5385446083826651e-01  1.5707909812736306e-01  1.4885910802506858e-01  1.4971965422867259e-01  1.5083917624880960e-01  1.5229272601887883e-01  1.5418131689205533e-01  1.5659983294605886e-01  1.5979086596592815e-01  1.5168247453968148e-01  1.5253720380256980e-01  1.5365008171181563e-01  1.5509462847069805e-01  1.5696922470735522e-01  1.5936975064242698e-01  1.6254576095707837e-01  1.5454545570498063e-01  1.5539333539599234e-01  1.5649928210461356e-01  1.5793338754505148e-01  1.5979302839913861e-01  1.6218842058224806e-01  1.6532867529051473e-01  1.5744748323039454e-01  1.5829205932590648e-01  1.5938744177431821e-01  1.6081040143580361e-01  1.6266137353557705e-01  1.6501505575224476e-01  1.6815545593449546e-01  1.6039266152622453e-01  1.6122769611828008e-01  1.6231690369586241e-01  1.6372949901643677e-01  1.6556131542187719e-01  1.6791779117154629e-01  1.7100795085427994e-01  1.6337590906116189e-01  1.6420688218235899e-01  1.6528454040355675e-01  1.6668351148651414e-01  1.6850403528010102e-01  1.7081447489801441e-01  1.7391328373041920e-01  1.6640399051166971e-01  1.6722585046161390e-01  1.6829537977224340e-01  1.6968375213597833e-01  1.7148681540056054e-01  1.7378437843096806e-01  1.7683701055279907e-01  1.6947317100098166e-01  1.7028677421162680e-01  1.7134654671072003e-01  1.7272173297300075e-01  1.7450428599464701e-01  1.7677778017076040e-01  1.7980206829178361e-01  1.7258536769249261e-01  1.7338973343915101e-01  1.7443954183988708e-01  1.7579948129582443e-01  1.7756242349974782e-01  1.7982325077821568e-01  1.8280096011039909e-01  1.7573989564750747e-01  1.7653744755293102e-01  1.7757367623348533e-01  1.7891792883695853e-01  1.8066374929437173e-01  1.8288555818356395e-01  1.8584193083688083e-01  1.7894061966396435e-01  1.7973048216199944e-01  1.8075450395914225e-01  1.8208194011108489e-01  1.8381414655708700e-01  1.8599167371689571e-01  1.8893872623326205e-01  1.8218977230022360e-01  1.8296720280282419e-01  1.8398087370156713e-01  1.8529539661250333e-01  1.8700141056948480e-01  1.8915716096798155e-01  1.9206412942613069e-01  1.8548275786797663e-01  1.8624948718662759e-01  1.8725036376619503e-01  1.8854709529636871e-01  1.9022534617445014e-01  1.9237188775615355e-01  1.9522754256019820e-01  1.8882307480073093e-01  1.8958270470386368e-01  1.9056713358406774e-01  1.9184312295077433e-01  1.9350790090244116e-01  1.9558296287055013e-01  1.9844844864649669e-01  1.9221705844195755e-01  1.9296346892364633e-01  1.9393578705184505e-01  1.9519689685673286e-01  1.9683439545018735e-01  1.9889311642656196e-01  2.0168568096378983e-01  1.9565999288295494e-01  1.9639324141966871e-01  1.9735171603547400e-01  1.9859229557040761e-01  2.0019554258046540e-01  2.0224561864288931e-01  2.0495699708961232e-01  1.9915336320479163e-01  1.9987909306474641e-01  2.0081781147885983e-01  2.0203647774138611e-01  2.0362098925849034e-01  2.0560202480403306e-01  2.0829122110400355e-01  2.0270755599707163e-01  2.0341744082099450e-01  2.0434338944209998e-01  2.0554393217863393e-01  2.0709671088856590e-01  2.0905456554095192e-01  2.1167797060505414e-01  2.0631564216294124e-01  2.0701131239050333e-01  2.0792097090714329e-01  2.0909706138776751e-01  2.1061539790540348e-01  2.1255200113164702e-01  2.1510258876717905e-01  2.0998250077814434e-01  2.1066828512294050e-01  2.1155682655928687e-01  2.1271013582596027e-01  2.1420318350718962e-01  2.1607749609740301e-01  2.1855593682855812e-01  2.1371225322299284e-01  2.1438035912814096e-01  2.1525324515119396e-01  2.1638254988944255e-01  2.1783914283528347e-01  2.1969057939932349e-01  2.2213181731730092e-01  2.1750271403874405e-01  2.1815999573827732e-01  2.1900963501640452e-01  2.2011237693316174e-01  2.2154170067675996e-01  2.2331569570346754e-01  2.2575688748410253e-01  2.2136721003970725e-01  2.2200433874231898e-01  2.2283835407642846e-01  2.2391590355973340e-01  2.2530356270849405e-01  2.2707638772433936e-01  2.2934096232236345e-01  2.2529362661592775e-01  2.2591782987722372e-01  2.2672692957399013e-01  2.2777395897070621e-01  2.2912702348015260e-01  2.3081942390889060e-01  2.3311862735156944e-01  2.2929892889693404e-01  2.2990561428035119e-01  2.3069382080684675e-01  2.3171058623786653e-01  2.3303137384108144e-01  2.3466414939743413e-01  2.3687253831409383e-01  2.3338038043446571e-01  2.3397186178915835e-01  2.3473470644340444e-01  2.3572195105753502e-01  2.3700794069894440e-01  2.3856900717233706e-01  2.4075043260334872e-01  2.3754765970012509e-01  2.3811313561144512e-01  2.3885717089528116e-01  2.3981500400615197e-01  2.4104496716666288e-01  2.4259308696545173e-01  2.4463229566253389e-01  2.4179335303606861e-01  2.4234415620066718e-01  2.4305727290800716e-01  2.4397811822654827e-01  2.4516839342000421e-01  2.4664022326510979e-01  2.4857128423292693e-01  2.4613160853147106e-01  2.4666178460423951e-01  2.4734967788557174e-01  2.4823473084375822e-01  2.4937874446633410e-01  2.5079732821632983e-01  2.5266819636747834e-01  2.5056225195229054e-01  2.5107017596789055e-01  2.5172919775081931e-01  2.5257646543834039e-01  2.5367376229969280e-01  2.5498917289661099e-01  2.5695447001536159e-01  2.5509365231775954e-01  2.5557867231446246e-01  2.5620803988253321e-01  2.5701274105311855e-01  2.5807155994453612e-01  2.5927350233083185e-01  2.6119797439598685e-01  2.5973139369121367e-01  2.6019148600463760e-01  2.6079079981287495e-01  2.6155130688080602e-01  2.6256299751927786e-01  2.6369401390212616e-01  2.6548499774661199e-01  2.6448270546098629e-01  2.6491961392895380e-01  2.6548189758621416e-01  2.6619761559805821e-01  2.6714734380993987e-01  2.6821153140922999e-01  2.6986640600974404e-01  2.6935572885881848e-01  2.6975830321456629e-01  2.7028795812703316e-01  2.7095754614787687e-01  2.7184222622869830e-01  2.7283147529572721e-01  2.7435949563122086e-01  2.7434107926740636e-01  2.7471971472187756e-01  2.7521114965083415e-01  2.7583141944573680e-01  2.7664937483561380e-01  2.7754614254504634e-01  2.7898654963410890e-01  2.7946504539785172e-01  2.7981195693573774e-01  2.8026296633470871e-01  2.8082988618075205e-01  2.8157973843684608e-01  2.8237705439491390e-01  2.8368894840280934e-01  2.8472692672980726e-01  2.8504073094037785e-01  2.8544858578049381e-01  2.8595825647925327e-01  2.8663396763393728e-01  2.8733140142351071e-01  2.8851348414638067e-01  2.9013573433058110e-01  2.9041405274637239e-01  2.9077571193121310e-01  2.9122458243670346e-01  2.9182029243957297e-01  2.9240863817687357e-01  2.9344940538527214e-01  2.9569941587134446e-01  2.9593969338311360e-01  2.9625172894940194e-01  2.9663542974988211e-01  2.9714568750456344e-01  2.9761923152924930e-01  2.9850047770829985e-01  3.0142628858395737e-01  3.0162572235836532e-01  3.0188447995789019e-01  3.0219825997490468e-01  3.0261602377948954e-01  3.0296823194591560e-01  3.0367700039987544e-01  3.0732539325677904e-01  3.0748084447544316e-01  3.0768217334702619e-01  3.0792088657000055e-01  3.0823880111469454e-01  3.0846005606697607e-01  3.0898746740390864e-01  3.1340550312982579e-01  3.1351358014177727e-01  3.1365300732902274e-01  3.1381081606252514e-01  3.1402184378048714e-01  3.1409883616716583e-01  3.1444637131132142e-01  3.1967602116082633e-01  3.1973293461269670e-01  3.1980560275566006e-01  3.1987577446043242e-01  3.1997261478415445e-01  3.1989167553097908e-01  3.2004252931906924e-01  3.2614683748037288e-01  3.2614832324879933e-01  3.2614880167581284e-01  3.2612399056412245e-01  3.2609701092794580e-01  3.2584920246429028e-01  3.2577221234727366e-01  3.3282669683273569e-01  3.3276817254273783e-01  3.3269048769642423e-01  3.3256316844709222e-01  3.3240130378500332e-01  3.3197383949857379e-01  3.3166330696708213e-01  3.3972485207772241e-01  3.3960127524219885e-01  3.3943881197228387e-01  3.3920043369381764e-01  3.3889323567262092e-01  3.3826753252976582e-01  3.3770859056480340e-01  3.4685121057527551e-01  3.4665694048752327e-01  3.4640239707032672e-01  3.4604321767802249e-01  3.4557832523366633e-01  3.4474141914129236e-01  3.4389149548707615e-01  3.5421361722818656e-01  3.5394259524513261e-01  3.5358811056720840e-01  3.5309811083658060e-01  3.5246115055880034e-01  3.5139674122918974e-01  3.5024962262277337e-01  3.6181995478129830e-01  3.6146549797745176e-01  3.6100233395495140e-01  3.6037019359201455e-01  3.5954731632366710e-01  3.5823061018944552e-01  3.5676801068939440e-01  3.6967861676376279e-01  3.6923336703958348e-01  3.6865199280837146e-01  3.6786502652787173e-01  3.6684019581807736e-01  3.6525425249865556e-01  3.6341978335142067e-01  3.7779498296663588e-01  3.7725092267778082e-01  3.7654107301826872e-01  3.7558606516980825e-01  3.7434086180122222e-01  3.7246529076908658e-01  3.7024244108404347e-01  3.8617443559919101e-01  3.8552295836951000e-01  3.8467320607594208e-01  3.8353595397481344e-01  3.8205039753429160e-01  3.7986316622363703e-01  3.7720999562425495e-01  3.9481617836541738e-01  3.9404810405400442e-01  3.9304661250448503e-01  3.9171159807200384e-01  3.8996727820764482e-01  3.8742376599309958e-01  3.8441967556881845e-01  4.0372459664560356e-01  4.0282960692753511e-01  4.0166272587787505e-01  4.0011141982398257e-01  3.9809295369306608e-01  3.9513977374625886e-01  3.9176725198896439e-01  4.1289576820981960e-01  4.1186322488586907e-01  4.1051891727969736e-01  4.0872852231078166e-01  4.0642206969517131e-01  4.0303540148640637e-01  3.9927331370669183e-01  4.2232951053012319e-01  4.2114762640982317e-01  4.1961060860660360e-01  4.1757378450133775e-01  4.1490157280693718e-01  4.1131442331765483e-01  4.0647017576226180e-01  4.3200671419529030e-01  4.3066287040712903e-01  4.2891140640192138e-01  4.2660588554811252e-01  4.2356850857221640e-01  4.1925282620702975e-01  4.1454073035541344e-01  4.4192608000787809e-01  4.4040980544568231e-01  4.3843446302914607e-01  4.3582716968883883e-01  4.3247098613316154e-01  4.2763034830362273e-01  4.2188425665324270e-01  4.5206871341671068e-01  4.5036324435561548e-01  4.4814665519685981e-01  4.4521206284863307e-01  4.4142765217622354e-01  4.3609337379274710e-01  4.2976767166753599e-01  4.6240555726878879e-01  4.6049706102043142e-01  4.5801814197910345e-01  4.5474609102661329e-01  4.5051302234592244e-01  4.4455908550924905e-01  4.3749906224574747e-01  4.7291628151234749e-01  4.7079209211334477e-01  4.6803222121084265e-01  4.6439496259513263e-01  4.5969584391290236e-01  4.5313340224782239e-01  4.4518569929167412e-01  4.8356529861895764e-01  4.8120975269571736e-01  4.7814977092956479e-01  4.7412194203405472e-01  4.6890945639589171e-01  4.6170480924040302e-01  4.5288887484509444e-01  4.9430983918611626e-01  4.9170834456146451e-01  4.8832981519128621e-01  4.8388808658114574e-01  4.7813771712602132e-01  4.7022748340595039e-01  4.6054044808714428e-01  5.0510708968052320e-01  5.0224536307647005e-01  4.9852682930452691e-01  4.9365402132542463e-01  4.8731683143976540e-01  4.7866405397519829e-01  4.6803671076080877e-01  5.1590150351981112e-01  5.1276450498676762e-01  5.0869117044455125e-01  5.0333047824054100e-01  4.9652812767863586e-01  4.8696264877068030e-01  4.7538102044314418e-01  5.2664024292665501e-01  5.2321280157872962e-01  5.1877203887950807e-01  5.1291959609634241e-01  5.0538708783951058e-01  4.9525715438578732e-01  4.8217468570983352e-01  5.3724967433305815e-01  5.3352211940294236e-01  5.2868802461305464e-01  5.2236241123620042e-01  5.1411557656535234e-01  5.0312165892833283e-01  4.8910257139529434e-01  5.4765649201649147e-01  5.4361040460427679e-01  5.3835338632834251e-01  5.3150760885332682e-01  5.2261960510580863e-01  5.1067813808102591e-01  4.9570341708399002e-01  5.5782358583165259e-01  5.5347025853604015e-01  5.4783892773618714e-01  5.4037518977782906e-01  5.3076827302499829e-01  5.1798604788665248e-01  5.0155553215213167e-01  5.6756511715809477e-01  5.6290849312983926e-01  5.5681867437522725e-01  5.4886069354953426e-01  5.3849342084618890e-01  5.2477059452635810e-01  5.0745619417032084e-01  5.7688964102396256e-01  5.7185330709672100e-01  5.6532354981431310e-01  5.5681969555120614e-01  5.4578890763981169e-01  5.3113799791765981e-01  5.1235684573126261e-01  5.8569337841495106e-01  5.8032420630084680e-01  5.7335270232934088e-01  5.6426842763624663e-01  5.5248304633421164e-01  5.3695829070758117e-01  5.1696224420291315e-01  5.9386273265748857e-01  5.8815306440821524e-01  5.8074302306748204e-01  5.7109697930802261e-01  5.5857901943424948e-01  5.4208499829535151e-01  5.2103128405693577e-01  6.0132885252015911e-01  5.9528215251897099e-01  5.8743549123129124e-01  5.7722555095907579e-01  5.6398898826345434e-01  5.4662958347461954e-01  5.2413294736862870e-01  6.0798786984384179e-01  6.0161221768745776e-01  5.9333801330407854e-01  5.8258600548779504e-01  5.6861060661391294e-01  5.5037337756897731e-01  5.2686201832570345e-01  6.1377647428923443e-01  6.0708137613360147e-01  5.9839300329425471e-01  5.8709478934900672e-01  5.7254337542266576e-01  5.5334537019152719e-01  5.2872987361255086e-01  6.1861136178756038e-01  6.1160869031233134e-01  6.0253097934396549e-01  5.9070000432996184e-01  5.7552187195212279e-01  5.5562126872257744e-01  5.2967867211564967e-01  6.2242033509076777e-01  6.1512668545449500e-01  6.0567916800238064e-01  5.9336243444906078e-01  5.7756925008779869e-01  5.5686274721357176e-01  5.3008746561669695e-01  6.2516493557374897e-01  6.1760330543227615e-01  6.0780896951421537e-01  5.9505653960596194e-01  5.7865343559741089e-01  5.5729505369213850e-01  5.2940709860349144e-01  6.2677452915197018e-01  6.1896911543485411e-01  6.0885599033436655e-01  5.9570612827424507e-01  5.7877559307871240e-01  5.5686367224738353e-01  5.2797334834159404e-01  6.2722531487887367e-01  6.1920401813320813e-01  6.0880774997973575e-01  5.9530854249970477e-01  5.7784871379017400e-01  5.5537137774506007e-01  5.2599917077507174e-01  6.2649868793657659e-01  6.1828396039504196e-01  6.0764370546929036e-01  5.9385248064172258e-01  5.7599150701883750e-01  5.5296454077639579e-01  5.2296575611157359e-01  6.2458160499637749e-01  6.1626220835582601e-01  6.0536496158822817e-01  5.9133792495623738e-01  5.7312052622313703e-01  5.4994237262825940e-01  5.1907908367559230e-01  6.2149806126006124e-01  6.1299314236274716e-01  6.0203545794351943e-01  5.8776602275145007e-01  5.6927824901629942e-01  5.4559373634470887e-01  5.1467620726954533e-01  6.1725552955715823e-01  6.0867704685293378e-01  5.9755335123490627e-01  5.8317372468204665e-01  5.6452613534366947e-01  5.4076353666854382e-01  5.0908990096675266e-01  6.1187880545043705e-01  6.0325522616727545e-01  5.9206444967060790e-01  5.7759719597873704e-01  5.5879495588520933e-01  5.3504131322348492e-01  5.0301183300900654e-01  6.0542777188042673e-01  5.9678451497490870e-01  5.8556816987469651e-01  5.7108717616970284e-01  5.5223417383874651e-01  5.2847551628024025e-01  4.9654816952660735e-01  5.9795628146613111e-01  5.8933004981445281e-01  5.7813190095673905e-01  5.6368090810427640e-01  5.4487917017033649e-01  5.2113839692818709e-01  4.8948752766887410e-01  5.8953631855782218e-01  5.8095926312810342e-01  5.6982577019797587e-01  5.5545506402795097e-01  5.3678079376062349e-01  5.1318164429203672e-01  4.8172460085569424e-01  5.8024118080533382e-01  5.7174397844470159e-01  5.6071572642887613e-01  5.4647943593623338e-01  5.2798372240553093e-01  5.0464389845810831e-01  4.7350249558554153e-01  5.7015300781079270e-01  5.6176572462925634e-01  5.5088025014407804e-01  5.3683098520592498e-01  5.1857657808127722e-01  4.9555065707749357e-01  4.6488670733582260e-01  5.5936162271418011e-01  5.5111149592875908e-01  5.4040348862803145e-01  5.2658465614535688e-01  5.0863380951152881e-01  4.8599823940149312e-01  4.5581831180169857e-01  5.4795943548453618e-01  5.3987090068836963e-01  5.2937244139936346e-01  5.1582486427293006e-01  4.9822431536218026e-01  4.7606406200291185e-01  4.4642438159951414e-01  5.3603592170126768e-01  5.2813078003105518e-01  5.1786977578531468e-01  5.0463135482428167e-01  4.8742417352094175e-01  4.6579423296676797e-01  4.3680523755925327e-01  5.2368330630255833e-01  5.1598074800015836e-01  5.0598138845935714e-01  4.9308358145779430e-01  4.7631262440723465e-01  4.5524558342089788e-01  4.2703229527709829e-01  5.1099139510221148e-01  5.0350762683441974e-01  4.9379113778214317e-01  4.8125912435535434e-01  4.6496602788203406e-01  4.4447334409754768e-01  4.1720558167067989e-01  4.9805074712592851e-01  4.9079866596014338e-01  4.8138274145690330e-01  4.6923514250847881e-01  4.5345667480689766e-01  4.3355434033767587e-01  4.0722423588246670e-01  4.8494832044061997e-01  4.7793776281887357e-01  4.6883631291110583e-01  4.5708945846482324e-01  4.4184199267783170e-01  4.2260889854384687e-01  3.9704296412918838e-01  4.7175744975138634e-01  4.6499599325478863e-01  4.5621813586324877e-01  4.4488806710190232e-01  4.3017232278792694e-01  4.1164757365439564e-01  3.8695746225684613e-01  4.5855085473591356e-01  4.5204410557238550e-01  4.4359584046690892e-01  4.3269330971050796e-01  4.1852576771627903e-01  4.0068107715662665e-01  3.7699734734144735e-01  4.4539740082035595e-01  4.3914823212977649e-01  4.3103309736206807e-01  4.2055946837319330e-01  4.0695370136213349e-01  3.8979301004851691e-01  3.6703255668457690e-01  4.3235839794220776e-01  4.2636708029145826e-01  4.1858673828162718e-01  4.0854217811561089e-01  3.9549703664492086e-01  3.7903311285192359e-01  3.5722093701322466e-01  4.1948930938673312e-01  4.1375436213459527e-01  4.0630658019498539e-01  3.9668976375733173e-01  3.8419791899172190e-01  3.6844057990696727e-01  3.4745565069881174e-01  4.0683412433582294e-01  4.0135307569682510e-01  3.9423477151434083e-01  3.8504265249691799e-01  3.7309488536175833e-01  3.5805325147943667e-01  3.3786943277203252e-01  3.9443851890343889e-01  3.8920653331211597e-01  3.8241011561943317e-01  3.7363806635242208e-01  3.6221219706026325e-01  3.4791364608079961e-01  3.2846879579440796e-01  3.8232813143335931e-01  3.7734028991241891e-01  3.7085826970059543e-01  3.6249414908474387e-01  3.5159492734526610e-01  3.3786378534866274e-01  3.1972282079808945e-01  3.7054304367694679e-01  3.6579345531420759e-01  3.5962137557559914e-01  3.5165410469287500e-01  3.4128605667224521e-01  3.2827909220449991e-01  3.1035055511072401e-01  3.5909941922068944e-01  3.5457781906291075e-01  3.4870107123909067e-01  3.4111701540092776e-01  3.3120953189068630e-01  3.1886145053654730e-01  3.0214435994225580e-01  3.4800583954493336e-01  3.4370673481563585e-01  3.3811652998081226e-01  3.3090533298010921e-01  3.2149823440091024e-01  3.0959280230187447e-01  2.9401398298203607e-01  3.3729798880736778e-01  3.3321357826440590e-01  3.2790361927202522e-01  3.2104331008840509e-01  3.1213225649974258e-01  3.0084781854733578e-01  2.8566903328636661e-01  3.2697146138991118e-01  3.2308937900908458e-01  3.1804440617054103e-01  3.1152127046088091e-01  3.0302802912293542e-01  2.9233135846658642e-01  2.7802873752706248e-01  3.1702876291538667e-01  3.1334266087991897e-01  3.0855143182629241e-01  3.0236032041079403e-01  2.9429369530641231e-01  2.8409218670630082e-01  2.7047664404337862e-01  3.0747675046928880e-01  3.0397789350635745e-01  2.9942887126985662e-01  2.9354955273116362e-01  2.8589101440475828e-01  2.7624436770447963e-01  2.6314862136951528e-01  2.9831395916743925e-01  2.9499192637596405e-01  2.9067241795352022e-01  2.8509017518789648e-01  2.7780460562763726e-01  2.6863205930247158e-01  2.5634291775647888e-01  2.8953152341474142e-01  2.8637859337583110e-01  2.8227785585772136e-01  2.7697882302639004e-01  2.7006765144406458e-01  2.6132006858533058e-01  2.4965343048098809e-01  2.8113395649826567e-01  2.7814124954850777e-01  2.7424891525448253e-01  2.6921552555502265e-01  2.6266025825916978e-01  2.5434876203206053e-01  2.4328949532001648e-01  2.7310582493638708e-01  2.7026403783504521e-01  2.6656858044091603e-01  2.6178690502136165e-01  2.5555968652736732e-01  2.4765543039539781e-01  2.3714922653959489e-01  2.6544038552829063e-01  2.6274184369322012e-01  2.5923268420697931e-01  2.5469132275535006e-01  2.4877675350780734e-01  2.4126476539587377e-01  2.3127559538348097e-01  2.5812755735068671e-01  2.5556422671835477e-01  2.5223057359005552e-01  2.4791555148808067e-01  2.4229510691295378e-01  2.3515124338507407e-01  2.2567018691087223e-01  2.5115656511931245e-01  2.4872090787707396e-01  2.4555313578954582e-01  2.4145189927348701e-01  2.3611078270629390e-01  2.2931042255790274e-01  2.2031235940223162e-01  2.4451614804994071e-01  2.4220077891003902e-01  2.3918936854096987e-01  2.3528937859872168e-01  2.3021176839139654e-01  2.2373859256574330e-01  2.1518402356907879e-01  2.3819370096665618e-01  2.3599169577140089e-01  2.3312773281179941e-01  2.2941753884652424e-01  2.2458815378946642e-01  2.1842163890850216e-01  2.1030192086948912e-01  2.3217736492423721e-01  2.3008207583900611e-01  2.2735691351538864e-01  2.2382540416238605e-01  2.1923015934535614e-01  2.1335369278912805e-01  2.0562539840646130e-01  2.2645462529761495e-01  2.2445977524903643e-01  2.2186526589141981e-01  2.1850210094244504e-01  2.1412651268580604e-01  2.0852687704728040e-01  2.0116488046685432e-01  2.2101263764794168e-01  2.1911232296097585e-01  2.1664073141956933e-01  2.1343618457433336e-01  2.0926705983931090e-01  2.0392682614892385e-01  1.9691467335029852e-01  2.1583993356044315e-01  2.1402851760584488e-01  2.1167250993415701e-01  2.0861720714448712e-01  2.0464229088959418e-01  1.9954966134996643e-01  1.9284074885668542e-01  2.1092417860193635e-01  2.0919635873122625e-01  2.0694899410099263e-01  2.0403442765458790e-01  2.0024027668380018e-01  1.9538904236006843e-01  1.8894909141316985e-01  2.0625248767844162e-01  2.0460333295532990e-01  2.0245799090133143e-01  1.9967632615970823e-01  1.9605091532283675e-01  1.9142444105864503e-01  1.8526351395052237e-01  2.0181395239863045e-01  2.0023881224571988e-01  1.9818933057417140e-01  1.9553268465584306e-01  1.9206763602465765e-01  1.8764695616105892e-01  1.8175928439304820e-01  1.9759743456064449e-01  1.9609185469230342e-01  1.9413260175128305e-01  1.9159284306972615e-01  1.8828034226639973e-01  1.8404940828776425e-01  1.7842498256705502e-01  1.9359211873615420e-01  1.9215195184493705e-01  1.9027781131497476e-01  1.8784813796802446e-01  1.8467880983563767e-01  1.8063435391587401e-01  1.7523284414403523e-01  1.8978554942024967e-01  1.8840685235431121e-01  1.8661244961314158e-01  1.8428600235469453e-01  1.8125048909627334e-01  1.7736693871519224e-01  1.7225408816789492e-01  1.8617071072485103e-01  1.8484990222705744e-01  1.8313097784292678e-01  1.8090145027505389e-01  1.7799791901951162e-01  1.7426162999029546e-01  1.6937886365511021e-01  1.8273666429798077e-01  1.8147018192202763e-01  1.7982229786054013e-01  1.7768325292003309e-01  1.7489951492640898e-01  1.7132450731661392e-01  1.6658141365108067e-01  1.7947379020879561e-01  1.7825848806697595e-01  1.7667731753348720e-01  1.7462505635498840e-01  1.7195030386011678e-01  1.6852441589077116e-01  1.6398426113467851e-01  1.7637299267034129e-01  1.7520589123527822e-01  1.7368717554502250e-01  1.7171670339306649e-01  1.6914731616999537e-01  1.6585339844539601e-01  1.6149244128057158e-01  1.7342612312649217e-01  1.7230450356202423e-01  1.7084477349000066e-01  1.6895069878851302e-01  1.6648126566514837e-01  1.6331373099070262e-01  1.5912189322508552e-01  1.7062545202105864e-01  1.6954662156185918e-01  1.6814258960116943e-01  1.6632053819271256e-01  1.6394516427073935e-01  1.6089662221475695e-01  1.5686467768350565e-01  1.6796323442614347e-01  1.6692469736192198e-01  1.6557311285393231e-01  1.6381891590769937e-01  1.6153213687788237e-01  1.5859590925553355e-01  1.5471406663820511e-01  1.6543218582393643e-01  1.6443164366835916e-01  1.6312951301640236e-01  1.6143933380329553e-01  1.5923605898876411e-01  1.5640587338520950e-01  1.5266574163432273e-01  1.6302546296979220e-01  1.6206074811054680e-01  1.6080524096511528e-01  1.5917544300380707e-01  1.5705094211516563e-01  1.5432078306813046e-01  1.5071445039705822e-01  1.6073651849370424e-01  1.5980560802559868e-01  1.5859409406602190e-01  1.5702126355021839e-01  1.5497109617112262e-01  1.5233539221715789e-01  1.4885498534291533e-01  1.5855922327941657e-01  1.5766020225641983e-01  1.5649020632895627e-01  1.5497117138271432e-01  1.5299116307276683e-01  1.5044481417875408e-01  1.4708317540286794e-01  1.5648772062261709e-01  1.5561885263318004e-01  1.5448803030723443e-01  1.5301973486740256e-01  1.5110595640927582e-01  1.4864394232789513e-01  1.4539529213710517e-01  1.5451630398746921e-01  1.5367590357142963e-01  1.5258227483117132e-01  1.5116212769722989e-01  1.4931077558679454e-01  1.4692802139365654e-01  1.4378581342103194e-01  1.5264131196806149e-01  1.5182689727339160e-01  1.5076785017117358e-01  1.4939252407109491e-01  1.4760224683056689e-01  1.4529513066903602e-01  1.4225215159109661e-01  1.5085133968350917e-01  1.5006691770985270e-01  1.4904056521854295e-01  1.4770970891403701e-01  1.4596327416369059e-01  1.4373714463845305e-01  1.4078992347951505e-01  1.4915165544778822e-01  1.4838701885048167e-01  1.4739493512379359e-01  1.4610504763900933e-01  1.4442112370041965e-01  1.4224526692271575e-01  1.3939584201829752e-01  1.4753492679457728e-01  1.4679314714603647e-01  1.4582768612766595e-01  1.4457422538456957e-01  1.4294297957075985e-01  1.4083787166731157e-01  1.3806531791979146e-01  1.4599130947005631e-01  1.4527158901243220e-01  1.4433496606118687e-01  1.4311779319689591e-01  1.4153187282480964e-01  1.3948821563159020e-01  1.3679650148163885e-01  1.4452174182903565e-01  1.4382215846726576e-01  1.4291187768259322e-01  1.4172952627280117e-01  1.4018863002444112e-01  1.3820130455775409e-01  1.3558946606420694e-01  1.4312104363323536e-01  1.4244091953132590e-01  1.4155565718028162e-01  1.4040578065728729e-01  1.3890787421239395e-01  1.3697362671453880e-01  1.3443811419604479e-01  1.4178649557286757e-01  1.4112456471535537e-01  1.4026345153983907e-01  1.3914376390438504e-01  1.3768646321901457e-01  1.3580337925455732e-01  1.3333439035655914e-01  1.4051549495848564e-01  1.3986628984931573e-01  1.3903085434578591e-01  1.3794075540541959e-01  1.3652112140920922e-01  1.3468730968304721e-01  1.3228336436826515e-01  1.3929913991069642e-01  1.3867313938427650e-01  1.3785267346842317e-01  1.3679317586148237e-01  1.3540976247856990e-01  1.3362207747022570e-01  1.3127891607319325e-01  4.5742798247205951e-02  4.6124006544788723e-02  4.6617270087305596e-02  4.7257804001259292e-02  4.8093990469821046e-02  4.9175714143835168e-02  5.0580724540131204e-02  4.5471587573467274e-02  4.5859598879969640e-02  4.6362196405379585e-02  4.7013408357943057e-02  4.7865941447312585e-02  4.8967272499098227e-02  5.0399528239659125e-02  4.5216009731152272e-02  4.5610098057556836e-02  4.6122858502305318e-02  4.6787506878347672e-02  4.7653809298871683e-02  4.8777495675367835e-02  5.0233789509600335e-02  4.4973927152513707e-02  4.5375434901783869e-02  4.5897477783226739e-02  4.6575366748956924e-02  4.7455798172680107e-02  4.8600809182579210e-02  5.0082632110643892e-02  4.4746569269393237e-02  4.5155209163648187e-02  4.5686194154488040e-02  4.6376769302761182e-02  4.7272477289147220e-02  4.8438240296576125e-02  4.9946174610711616e-02  4.4533593309240400e-02  4.4950806418105192e-02  4.5489947370570466e-02  4.6190917313529867e-02  4.7105051414246694e-02  4.8287215012696394e-02  4.9824674444564239e-02  4.4337822359369866e-02  4.4760260838154896e-02  4.5310508477774777e-02  4.6023011890566873e-02  4.6951839725891203e-02  4.8155318866923119e-02  4.9724411727642422e-02  4.4157964373029920e-02  4.4588138771288227e-02  4.5147204502688117e-02  4.5873458734764470e-02  4.6817128524598531e-02  4.8040706946581788e-02  4.9633312061670487e-02  4.3992681710357938e-02  4.4431195638725177e-02  4.4999476018801970e-02  4.5737638558919345e-02  4.6696953420408006e-02  4.7943323494686843e-02  4.9555229304221918e-02  4.3846683673854796e-02  4.4290347538803884e-02  4.4868702281278691e-02  4.5619082133150787e-02  4.6593415970940494e-02  4.7859585601773239e-02  4.9504633572958152e-02  4.3715557014754873e-02  4.4168501749967740e-02  4.4755267384389556e-02  4.5517846254430956e-02  4.6508389125942733e-02  4.7794185987522775e-02  4.9463149882913358e-02  4.3604030872348168e-02  4.4062113359709811e-02  4.4659326451725170e-02  4.5433846037819435e-02  4.6440119871575092e-02  4.7746610496174957e-02  4.9442855778730942e-02  4.3509538215409302e-02  4.3975675372320222e-02  4.4581223720332526e-02  4.5368118663208584e-02  4.6389850079758724e-02  4.7717269444245654e-02  4.9439268793407265e-02  4.3433096683878139e-02  4.3906527198155146e-02  4.4521572605349190e-02  4.5320535318425337e-02  4.6358727444042000e-02  4.7702717133375705e-02  4.9454278685295748e-02  4.3375534068480603e-02  4.3856091032781631e-02  4.4480574748301839e-02  4.5291396514848460e-02  4.6345645429106248e-02  4.7712052431880828e-02  4.9486591527192696e-02  4.3337290783999047e-02  4.3825059494410123e-02  4.4458816094096687e-02  4.5282432195898295e-02  4.6351585695262119e-02  4.7740132551641411e-02  4.9541745420462698e-02  4.3317122727082449e-02  4.3813388277717531e-02  4.4455804582245705e-02  4.5289903911690133e-02  4.6377117465202351e-02  4.7783100006952309e-02  4.9613759847175282e-02  4.3317774976187863e-02  4.3820815654840112e-02  4.4472750081208143e-02  4.5317635466840367e-02  4.6422236547293341e-02  4.7847586692547586e-02  4.9705558571400910e-02  4.3340169803070441e-02  4.3849106362505927e-02  4.4511585739099357e-02  4.5370103385777433e-02  4.6488139519922637e-02  4.7937385193296905e-02  4.9819418397960669e-02  4.3381955567452030e-02  4.3898705074214645e-02  4.4570313764814851e-02  4.5442468490574879e-02  4.6575060911818129e-02  4.8044941878130701e-02  4.9954151141585662e-02  4.3444533488700365e-02  4.3968559165682368e-02  4.4649404537762311e-02  4.5533693765645582e-02  4.6682727984590146e-02  4.8173352843532725e-02  5.0109226883667007e-02  4.3528828359133978e-02  4.4060147808968365e-02  4.4750469403463715e-02  4.5647292675032251e-02  4.6809839468618046e-02  4.8322518077903248e-02  5.0285395047698453e-02  4.3634829427861073e-02  4.4173455808966790e-02  4.4873018546930564e-02  4.5782947382674147e-02  4.6959520614275913e-02  4.8492371274712814e-02  5.0484387197670413e-02  4.3763065731071256e-02  4.4308998435111921e-02  4.5017943278975701e-02  4.5939967441336334e-02  4.7135431822291136e-02  4.8686943662630967e-02  5.0704932172146604e-02  4.3914082458364277e-02  4.4467317203977445e-02  4.5185703145262664e-02  4.6119339531990954e-02  4.7331990472496081e-02  4.8905460728083217e-02  5.0948917311395545e-02  4.4086716521139664e-02  4.4648599608127094e-02  4.5376637638336915e-02  4.6322231351346388e-02  4.7551361044753764e-02  4.9141089547731102e-02  5.1215631531218365e-02  4.4285418891159577e-02  4.4852033522665855e-02  4.5590739407595816e-02  4.6548508022644264e-02  4.7793829235186283e-02  4.9407240988954701e-02  5.1504672219568698e-02  4.4506484358266138e-02  4.5081561883235720e-02  4.5828695759798990e-02  4.6799024356466372e-02  4.8059992407888837e-02  4.9695048371495604e-02  5.1820413406553266e-02  4.4751638940059069e-02  4.5334068500380569e-02  4.6090822722410121e-02  4.7073820644512432e-02  4.8348569468695334e-02  5.0005797236349021e-02  5.2158617847536212e-02  4.5021761698736840e-02  4.5611525214089108e-02  4.6377565368703952e-02  4.7373811646636274e-02  4.8662468113261498e-02  5.0340031147454674e-02  5.2522208779951458e-02  4.5316748906122424e-02  4.5913914322441775e-02  4.6689394436693725e-02  4.7697673714654561e-02  4.9005897899993593e-02  5.0702477513775775e-02  5.2910516649038619e-02  4.5637355067712965e-02  4.6241845221046914e-02  4.7027002304881348e-02  4.8047397762833094e-02  4.9370022643893473e-02  5.1089800082960775e-02  5.3324456482071417e-02  4.5983710584845273e-02  4.6595504689522019e-02  4.7390224380180389e-02  4.8423001299808741e-02  4.9763441828699947e-02  5.1501360277908130e-02  5.3764545455937549e-02  4.6356506250698218e-02  4.6975641562544711e-02  4.7779926019498278e-02  4.8825105994799861e-02  5.0180151993571780e-02  5.1941449556856770e-02  5.4230553172473037e-02  4.6755852468534663e-02  4.7382342263820681e-02  4.8196112779353088e-02  4.9253808930796596e-02  5.0626038909658160e-02  5.2405603284809969e-02  5.4724020438415143e-02  4.7182424118424354e-02  4.7816221495975850e-02  4.8639667823862899e-02  4.9709213149514785e-02  5.1099177456160862e-02  5.2900048117595362e-02  5.5243941658545605e-02  4.7636623295004434e-02  4.8277674155346992e-02  4.9110606488792952e-02  5.0192906004010433e-02  5.1598223059988318e-02  5.3420652246118853e-02  5.5791809988177107e-02  4.8117384404566407e-02  4.8767419677460420e-02  4.9608931171915463e-02  5.0701779432030379e-02  5.2126240148326036e-02  5.3965126470579806e-02  5.6367072254452408e-02  4.8627790761257075e-02  4.9284280199227086e-02  5.0135719235499497e-02  5.1239560558940231e-02  5.2681286804834936e-02  5.4540802651304142e-02  5.6970020871974253e-02  4.9168469007983086e-02  4.9830626158556872e-02  5.0692990679609772e-02  5.1810623208639155e-02  5.3265428016382163e-02  5.5150755844566954e-02  5.7602894292442981e-02  4.9736682795390452e-02  5.0407056880768707e-02  5.1278306515990343e-02  5.2409781973132057e-02  5.3879592781643587e-02  5.5784268670108307e-02  5.8266270149507395e-02  5.0334503540690780e-02  5.1012131821244665e-02  5.1892741610967026e-02  5.3036428092182210e-02  5.4522753228371121e-02  5.6447839727304140e-02  5.8957446592688784e-02  5.0962849755572616e-02  5.1647774252332752e-02  5.2537661167867108e-02  5.3693675279604232e-02  5.5195955885677606e-02  5.7141986689591431e-02  5.9677847667702122e-02  7.6367923995117725e-03  7.7321155609464572e-03  7.9072194660287590e-03  8.2010194644081061e-03  8.6534735878900110e-03  9.3190020389350096e-03  1.0196346992276591e-02  2.4872164990471276e-04  1.1654077266822312e-04  1.6618433905985756e-05  2.3197993231525145e-05  2.0118439231563704e-04  4.6911711947032276e-04  9.2405581356453303e-04  3.8347264575623911e-04  6.6184393029103741e-04  1.0536946203352946e-03  1.5272152845096621e-03  2.0733089922382870e-03  2.6719911605472785e-03  3.5060637620162980e-03  3.3050924319617979e-03  3.5221672112692439e-03  3.8329810936508463e-03  4.2752987541864748e-03  4.8809316489998832e-03  5.6703271599252729e-03  6.7386070324661762e-03  1.3080549106782120e-02  1.3022699280291953e-02  1.2994930788477958e-02  1.3035128441623866e-02  1.3171313335774594e-02  1.3500177389995975e-02  1.4057896880804888e-02  1.9172941854265199e-02  1.8940280693815380e-02  1.8686626951943161e-02  1.8437383462603162e-02  1.8195842785160316e-02  1.8114552623465903e-02  1.8040385814723694e-02  2.5519418535134786e-02  2.5107672349830527e-02  2.4619014097465423e-02  2.4064055930700320e-02  2.3426164759440635e-02  2.2864605844368925e-02  2.2094797188201457e-02  3.1723995394251289e-02  3.1140331060311294e-02  3.0425182359614947e-02  2.9575828648748352e-02  2.8546229955599935e-02  2.7477870598332770e-02  2.6002257864089499e-02  3.7514693659159874e-02  3.6775871470432785e-02  3.5857022426141666e-02  3.4741373127170329e-02  3.3346785842845755e-02  3.1840603967828382e-02  2.9821512161900030e-02  4.2683305276613868e-02  4.1809200497565396e-02  4.0712014290085828e-02  3.9356511932426633e-02  3.7647152296356831e-02  3.5758909805547606e-02  3.2970834502141944e-02  4.7130957700301353e-02  4.6142031772132309e-02  4.4892277826132462e-02  4.3331474894543441e-02  4.1360038635659804e-02  3.9066064016188076e-02  3.5820197107379215e-02  5.0866733278859169e-02  4.9777135053299733e-02  4.8391647695460768e-02  4.6650050425821037e-02  4.4431308082095236e-02  4.1790341884555236e-02  3.8243569316959422e-02  5.3987388569215103e-02  5.2802569872861610e-02  5.1288957493651859e-02  4.9377302369003347e-02  4.6925751704959877e-02  4.3993902673601523e-02  3.9977428394161275e-02  5.6627107948207529e-02  5.5339367167586702e-02  5.3688830794087726e-02  5.1596517541945434e-02  4.8899029347187685e-02  4.5643906426994271e-02  4.1165186555791357e-02  5.8940924239800817e-02  5.7528487997365013e-02  5.5715383562569505e-02  5.3406447963773161e-02  5.0424287801561808e-02  4.6820524691605150e-02  4.1864975851043026e-02  6.1036124897415771e-02  5.9465467293436360e-02  5.7444803302340100e-02  5.4866890390438593e-02  5.1559198072918130e-02  4.7512852806005000e-02  4.1929228994045317e-02  6.2917210978801291e-02  6.1146101780923744e-02  5.8855459331821715e-02  5.5952491112900432e-02  5.2208296279686005e-02  4.7560661363727628e-02  4.1448072981611038e-02  6.4488794297301810e-02  6.2469617039919004e-02  5.9827886874814405e-02  5.6551641550637494e-02  5.2213894891689615e-02  4.7097355190895106e-02  4.0310277119560943e-02  6.5488332987019018e-02  6.3160746826518996e-02  6.0087520929076377e-02  5.6407709743496910e-02  5.1224724924142345e-02  4.5737912750969147e-02  3.6844183538134415e-02  6.5539624744306635e-02  6.2824026320182191e-02  5.9294025498751762e-02  5.5101930792267495e-02  4.8850671173060821e-02  4.3584123423645718e-02  3.2108503364341338e-02  6.4085402085644755e-02  6.0956222275761349e-02  5.6973339277893047e-02  5.1976229643233757e-02  4.4990833424380504e-02  3.9694905367706999e-02  2.2848842892750455e-02  6.0657794120756621e-02  5.7087201085358696e-02  5.2440045488448085e-02  4.6586633863266391e-02  3.9591879111006138e-02  3.2154483952202835e-02  1.5870230444002480e-02  5.4468058560882146e-02  5.0228314711698939e-02  4.5069517815529515e-02  3.9019884533095760e-02  3.1210762843896202e-02  2.1392603278979780e-02  1.5507998151982434e-02  4.4743700617699049e-02  4.0575360076067338e-02  3.5310435318608176e-02  2.7596584154283871e-02  1.8607339857548200e-02  1.4929458137139136e-02  2.4657268704854740e-02  3.2548839352021262e-02  2.6664002573592149e-02  1.8542035078338345e-02  1.1781516066667526e-02  1.2634771569706462e-02  2.3474517728729542e-02  4.2969514248430395e-02  8.8348444453664656e-03  4.6487572773674050e-03  5.5654118387460259e-03  1.3473418126989883e-02  2.7530898197413039e-02  4.4813000159602601e-02  6.7208503288725602e-02  7.1463305880447902e-03  1.5037423888409484e-02  2.5998824280282641e-02  3.8698100868948641e-02  5.3810186851190989e-02  7.1901881497075965e-02  9.6870426464513465e-02  4.1158649451947797e-02  4.8392441747305143e-02  5.7416513101719725e-02  6.9252551876586327e-02  8.5089695819310779e-02  1.0481499604943366e-01  1.3165117092828563e-01  7.6369001132283162e-02  8.3602739382511601e-02  9.3403061025046211e-02  1.0616844235591100e-01  1.2286341926624934e-01  1.4335860945133325e-01  1.7151981301078759e-01  1.1924004092149267e-01  1.2672288411901128e-01  1.3660816541900722e-01  1.4940090504794454e-01  1.6629240511921484e-01  1.8707793620179142e-01  2.1595078422254319e-01  1.6862981682372280e-01  1.7595630120550618e-01  1.8568630237110484e-01  1.9830807412927570e-01  2.1502860883410341e-01  2.3539429154234739e-01  2.6393528303455188e-01  2.2440983130165776e-01  2.3136807252127164e-01  2.4062168227355149e-01  2.5259840982375925e-01  2.6852101844597670e-01  2.8766222574541556e-01  3.1511750054236454e-01  2.8598839530495918e-01  2.9225789029892424e-01  3.0061679613584685e-01  3.1143292838015951e-01  3.2585013733676754e-01  3.4283539937055740e-01  3.6761399884512808e-01  3.5252752947042210e-01  3.5776618809714927e-01  3.6479630134811425e-01  3.7388282754744112e-01  3.8600356555709214e-01  3.9996294792070497e-01  4.2109324857142105e-01  4.2301171987401032e-01  4.2686332797720422e-01  4.3211364399019470e-01  4.3885459565058788e-01  4.4794192762570684e-01  4.5796200069213533e-01  4.7322011563280070e-01  4.9613730208014162e-01  4.9825445665873702e-01  5.0126072687224521e-01  5.0504023391110997e-01  5.1041844684606341e-01  5.1524689974459803e-01  5.2398887234294800e-01  5.7047138804783037e-01  5.7054253272951416e-01  5.7088393863044651e-01  5.7123264112657579e-01  5.7222215739388005e-01  5.7083724563915716e-01  5.7280191409264236e-01  6.4481777189754552e-01  6.4252840806030675e-01  6.3978560090222147e-01  6.3621437025735250e-01  6.3188844789909060e-01  6.2371168992144044e-01  6.1775669672057743e-01  7.1766770483887332e-01  7.1279876700104972e-01  7.0671410220399811e-01  6.9887916351366020e-01  6.8881267355667786e-01  6.7423310299277461e-01  6.5854944347587896e-01  7.8768687698598339e-01  7.8006014935425849e-01  7.7040493282915778e-01  7.5796798724947967e-01  7.4188104447474013e-01  7.2013913767025317e-01  6.9127187361491427e-01  8.5381778770341510e-01  8.4329444566521017e-01  8.2988327572468756e-01  8.1262355915043250e-01  7.9031088796441962e-01  7.6067047294811219e-01  7.2229521804736319e-01  9.1485142353792004e-01  9.0140053799739039e-01  8.8419457055740858e-01  8.6208479135782101e-01  8.3348220844549603e-01  7.9614060789527297e-01  7.4678295913857795e-01  9.7003945298886807e-01  9.5368228738622152e-01  9.3270191052143381e-01  9.0580309837076656e-01  8.7095684094830372e-01  8.2604519804588361e-01  7.6709974172368089e-01  1.0185920848286567e+00  9.9940363454446624e-01  9.7475520222557410e-01  9.4322555893556626e-01  9.0228517789920037e-01  8.5039389449810110e-01  7.8114346328125173e-01  1.0599825278608641e+00  1.0380988000869957e+00  1.0099784228961728e+00  9.7402585380848805e-01  9.2731777923195913e-01  8.6891486219777803e-01  7.8978415177393402e-01  1.0937573502083675e+00  1.0693733353219079e+00  1.0380183565874204e+00  9.9793327849305002e-01  9.4606689864612359e-01  8.8160765409946706e-01  7.9356503966699832e-01  1.1195425232764018e+00  1.0929078123393252e+00  1.0586214895544737e+00  1.0149151641952088e+00  9.5842427850966794e-01  8.8812255472158319e-01  7.9325988706173434e-01  1.1371852454020019e+00  1.1085405734244027e+00  1.0716570849458720e+00  1.0247419212660909e+00  9.6376664583177063e-01  8.8904967763925236e-01  7.8877272389519837e-01  1.1467763457459372e+00  1.1164385028804786e+00  1.0773906889377387e+00  1.0277191725266694e+00  9.6329983318284340e-01  8.8577690718929258e-01  7.7710263874188856e-01  1.1480054786732354e+00  1.1163258116176498e+00  1.0755319647252122e+00  1.0237158375559969e+00  9.5679797677960299e-01  8.7570741139320263e-01  7.6227529618152656e-01  1.1410273463041907e+00  1.1083220046829902e+00  1.0662033352399747e+00  1.0128223340171028e+00  9.4364009338570065e-01  8.6041852035968369e-01  7.4737208090052065e-01  1.1260891417545111e+00  1.0927427625597594e+00  1.0498260290923163e+00  9.9545567228714926e-01  9.2503528618374276e-01  8.4176333938117021e-01  7.2384004245853817e-01  1.1032112939690761e+00  1.0696088899157405e+00  1.0263549522984021e+00  9.7159364703575435e-01  9.0097191563373336e-01  8.1720621155817774e-01  6.9866058366930062e-01  1.0727562849268666e+00  1.0392639924942546e+00  9.9616509498026173e-01  9.4173748207662411e-01  8.7147079253184978e-01  7.8821366137022164e-01  6.7270466753282354e-01  1.0350000502750154e+00  1.0019929507217278e+00  9.5958213184086782e-01  9.0597871856362566e-01  8.3673452461154141e-01  7.5594531896318884e-01  6.4245412537999269e-01  9.9045045251561881e-01  9.5833814763914471e-01  9.1711434864590646e-01  8.6490694461134121e-01  7.9823403123601633e-01  7.2007752980306128e-01  6.0790555979779737e-01  9.3946155163925527e-01  9.0859825680731421e-01  8.6893610433003676e-01  8.1885729136165442e-01  7.5518659321006809e-01  6.7849083412459565e-01  5.7615260180136108e-01  8.8280288483762737e-01  8.5351012134109228e-01  8.1586050495925388e-01  7.6854542483344679e-01  7.0776997618013993e-01  6.3613362775238447e-01  5.4360986404267508e-01  8.2132594518314417e-01  7.9393853964191108e-01  7.5878807524753644e-01  7.1464586820458476e-01  6.5784019572961883e-01  5.9318427747694835e-01  5.0054874174523456e-01  7.5580987544256517e-01  7.3057967414131997e-01  6.9821800264339584e-01  6.5756351730228801e-01  6.0563337871687473e-01  5.4622965444243876e-01  4.6008342943503722e-01  6.8720687332536234e-01  6.6434581430080963e-01  6.3502586463887467e-01  5.9830755866656482e-01  5.5153096850494610e-01  4.9757006606148790e-01  4.2206928506913383e-01  6.1649241227860618e-01  5.9616648269527550e-01  5.7010991439290137e-01  5.3760615638158171e-01  4.9598647071400009e-01  4.4875783172425648e-01  3.8326699577535900e-01  5.4510490417255730e-01  5.2740967344838396e-01  5.0477630545771768e-01  4.7659064466003032e-01  4.4049085886670120e-01  4.0068291988895038e-01  3.4166548399052232e-01  4.7412006293762016e-01  4.5907298656567358e-01  4.3987997516935029e-01  4.1594290249238358e-01  3.8562639626463263e-01  3.5219714877852348e-01  3.0178308287012806e-01  4.0482421441830524e-01  3.9238681947959159e-01  3.7655975221335231e-01  3.5684599754298235e-01  3.3229025354777547e-01  3.0443870169985521e-01  2.6467126143144182e-01  3.3845247956654750e-01  3.2849901151409633e-01  3.1585857745272183e-01  3.0019680338764715e-01  2.8080639166508359e-01  2.5847492219684143e-01  2.3047750260009683e-01  2.7624791664631060e-01  2.6860358580322169e-01  2.5893772481727123e-01  2.4704924780367493e-01  2.3242032520286868e-01  2.1608410770352784e-01  1.9517006753693028e-01  2.1921753141497230e-01  2.1364209159601444e-01  2.0663282175716480e-01  1.9809148355799494e-01  1.8774842431348140e-01  1.7638723428432465e-01  1.6196956676534346e-01  1.6825084583529501e-01  1.6446046069372969e-01  1.5974298295533079e-01  1.5409748921764080e-01  1.4742574732666616e-01  1.4031247480345169e-01  1.3163624000891871e-01  1.2389017767473916e-01  1.2158394792647480e-01  1.1877253691954812e-01  1.1551586040968283e-01  1.1185064735693960e-01  1.0824858806979930e-01  1.0427163084946460e-01  8.6569387425912026e-02  8.5435308968941637e-02  8.4124002894469960e-02  8.2740596349290679e-02  8.1451172231285576e-02  8.0520201893683599e-02  7.9803790475685824e-02  5.6329612746616742e-02  5.6065553483402669e-02  5.5860149441914246e-02  5.5851021126374287e-02  5.6245917808498851e-02  5.7084618316854276e-02  5.9145090475113765e-02  3.2992541065740205e-02  3.3320080227194127e-02  3.3865663712234560e-02  3.4774377725891474e-02  3.6239981773203596e-02  3.8276593178670174e-02  4.1515401210235912e-02  1.6142548596363139e-02  1.6810145440851767e-02  1.7784825776761992e-02  1.9206942179283305e-02  2.1190346616271439e-02  2.3688158059164723e-02  2.7260509569183307e-02  4.9227583492110257e-03  5.8744010486937621e-03  7.0985999551619623e-03  8.6444936559428968e-03  1.0615672854342898e-02  1.2997959874239257e-02  1.6060816735621691e-02  2.8392967074661546e-04  5.4665769278228378e-04  1.2907586681512383e-03  2.5082605255109507e-03  4.0559205922570830e-03  5.7421177048202618e-03  7.7438301187057607e-03  2.8293199980438995e-03  2.2818978453593057e-03  1.5398406866667846e-03  8.2953138533281491e-04  4.2997910402639946e-04  7.1695265926353773e-04  1.7722217284269033e-03  1.3141306902217113e-03  1.2258050188683990e-03  1.2346550160491508e-03  1.2736609671291424e-03  1.2387496900123399e-03  9.7533865953168054e-04  1.0297077274775450e-04  1.0700090666296792e-01  1.0674552685417092e-01  1.0641335784974848e-01  1.0598380406501560e-01  1.0541677177844866e-01  1.0470957101262479e-01  1.0368918010324474e-01  1.0666083945409441e-01  1.0640771641715951e-01  1.0607803038635873e-01  1.0565243667907336e-01  1.0508998563651528e-01  1.0439121215348551e-01  1.0337272542928513e-01  1.0629934929497491e-01  1.0604833991715301e-01  1.0572189111633162e-01  1.0530094289151250e-01  1.0474127558522188e-01  1.0405203446463561e-01  1.0303780349776556e-01  1.0591421336803805e-01  1.0566618534723850e-01  1.0534220559506972e-01  1.0492365175415706e-01  1.0437273402897934e-01  1.0369023601223948e-01  1.0268009932700527e-01  1.0550325757285715e-01  1.0525780022362953e-01  1.0493793883704276e-01  1.0452456488381155e-01  1.0397811039993554e-01  1.0330521675467991e-01  1.0229598767783929e-01  1.0506404038977320e-01  1.0482166059780015e-01  1.0450422351281362e-01  1.0409852354982653e-01  1.0355008608345179e-01  1.0289763414797744e-01  1.0188685563497714e-01  1.0459398578819759e-01  1.0435491483003224e-01  1.0404164626618644e-01  1.0363907941415799e-01  1.0310878430156983e-01  1.0244884963867520e-01  1.0145010849196820e-01  1.0409186680979202e-01  1.0385444570355377e-01  1.0354698977769415e-01  1.0314898332054909e-01  1.0261962739590465e-01  1.0198056815004553e-01  1.0098692965740003e-01  1.0355157661524303e-01  1.0331846881920248e-01  1.0301372606215252e-01  1.0262338587571664e-01  1.0210057773891903e-01  1.0147163560043848e-01  1.0048513963532445e-01  1.0296995969289585e-01  1.0273962349031043e-01  1.0244095117373370e-01  1.0205751743843373e-01  1.0153916867979589e-01  1.0092619430244236e-01  9.9938789828851696e-02  1.0234362570350639e-01  1.0211840383935805e-01  1.0182335686244172e-01  1.0144290521935666e-01  1.0093955410298501e-01  1.0033882213142438e-01  9.9357043598130607e-02  1.0166753926088165e-01  1.0144602874256504e-01  1.0115760772379012e-01  1.0078738055015384e-01  1.0028844499220434e-01  9.9703940099506311e-02  9.8729984024958195e-02  1.0093602626110830e-01  1.0072013393636264e-01  1.0043790110483242e-01  1.0007628144028832e-01  9.9586690940626943e-02  9.9017314838931211e-02  9.8054747166923681e-02  1.0014595604574876e-01  9.9935556902372200e-02  9.9658365034216725e-02  9.9305412326344822e-02  9.8827143957464711e-02  9.8276617642002725e-02  9.7313162978162504e-02  9.9286690875562633e-02  9.9082744910725509e-02  9.8812540394589643e-02  9.8470254949270267e-02  9.8002362514997193e-02  9.7473096363202644e-02  9.6530176835914486e-02  9.8348332226873003e-02  9.8148436855645019e-02  9.7887493893748942e-02  9.7555379514097984e-02  9.7102378620911964e-02  9.6582981763784936e-02  9.5683957606664552e-02  9.7350136052418643e-02  9.7156574674074639e-02  9.6907875151009848e-02  9.6584290867640768e-02  9.6146707500922315e-02  9.5668962711555172e-02  9.4649497406818828e-02  9.6250443721483725e-02  9.6069321233934607e-02  9.5819481001723508e-02  9.5516948316389738e-02  9.5085997523159216e-02  9.4655129839378266e-02  9.3671692588884983e-02  9.5047620075978126e-02  9.4870991323673437e-02  9.4638908039836891e-02  9.4349913400228622e-02  9.3923869506465696e-02  9.3514794613705973e-02  9.2643222658431959e-02  9.3759430556006676e-02  9.3591897294565296e-02  9.3371050031172589e-02  9.3101782250406009e-02  9.2701515160558245e-02  9.2315139866332233e-02  9.1345803217161528e-02  9.2349162936791421e-02  9.2193878021042092e-02  9.1985245130474722e-02  9.1727903747407330e-02  9.1366058197740699e-02  9.1014177424213916e-02  9.0072091985475319e-02  9.0825623340677522e-02  9.0681165719351850e-02  9.0485341147405737e-02  9.0251951925264931e-02  8.9903139375301144e-02  8.9604146703214843e-02  8.8700023560782035e-02  8.9197425473652003e-02  8.9070511793522281e-02  8.8885273768734174e-02  8.8676501703081140e-02  8.8351886126919327e-02  8.8103272272366806e-02  8.7180200810265757e-02  8.7432434727103631e-02  8.7306988485685272e-02  8.7158105052288798e-02  8.6967893057483300e-02  8.6671417004484469e-02  8.6444055236843675e-02  8.5745934147553007e-02  8.5526426513511278e-02  8.5420663029464869e-02  8.5286267177702976e-02  8.5123056592951538e-02  8.4872970431392136e-02  8.4658853885991384e-02  8.4163358443798963e-02  8.3525329218533478e-02  8.3440888646159450e-02  8.3326983923714973e-02  8.3191544979589860e-02  8.2977755918342500e-02  8.2841972073583639e-02  8.2184963832238195e-02  8.1380434830533574e-02  8.1314662317184788e-02  8.1225755088812218e-02  8.1120806076140473e-02  8.0954964963424428e-02  8.0809049867642577e-02  8.0286546242383114e-02  7.9182435385010769e-02  7.9135793840819924e-02  7.9072520437889177e-02  7.9002527789865745e-02  7.8876369374713928e-02  7.8856359155588376e-02  7.8397071729500611e-02  7.7055878268436170e-02  7.7027896299953616e-02  7.6988237941810228e-02  7.6955213740950407e-02  7.6879399428402106e-02  7.6821359209111997e-02  7.6579073544987539e-02  7.5021489676061412e-02  7.5015740392064031e-02  7.5003420517626790e-02  7.4994306754716911e-02  7.4963624013143770e-02  7.5032633854070566e-02  7.4780695411559864e-02  7.3083944963784453e-02  7.3096604644707144e-02  7.3111779625746234e-02  7.3134942915556250e-02  7.3159404773782896e-02  7.3194166610484473e-02  7.3126920126294390e-02  7.1253612492575155e-02  7.1284171362190799e-02  7.1324034790184385e-02  7.1376354539950365e-02  7.1436781871953292e-02  7.1575134533716722e-02  7.1554171110339571e-02  6.9535483837807555e-02  6.9583159482172377e-02  6.9644706426241682e-02  6.9729177516101457e-02  6.9826505522222193e-02  6.9974701833068101e-02  7.0091457146005176e-02  6.7931201474501893e-02  6.7996500800419094e-02  6.8080076403137568e-02  6.8191856482299487e-02  6.8331772248717920e-02  6.8545941684516790e-02  6.8711355006105854e-02  6.6435280575265196e-02  6.6514378582212555e-02  6.6620137411744371e-02  6.6760006928979945e-02  6.6930648356249678e-02  6.7189867748633100e-02  6.7429795537055415e-02  6.5049764374633556e-02  6.5144522874448857e-02  6.5268430063323127e-02  6.5435823394493012e-02  6.5641873078889829e-02  6.5938315163251979e-02  6.6250643090337777e-02  6.3767083505496022e-02  6.3879532001636305e-02  6.4022917868593210e-02  6.4208976804303861e-02  6.4449423200999514e-02  6.4784730471388982e-02  6.5162464207447715e-02  6.2586861176230441e-02  6.2709877160394334e-02  6.2873655021468675e-02  6.3082213040572210e-02  6.3352377557894191e-02  6.3722705787189401e-02  6.4160295925118363e-02  6.1501451038652816e-02  6.1638116197134274e-02  6.1813580267626969e-02  6.2048463413952912e-02  6.2347717949724012e-02  6.2751045163273123e-02  6.3234726981916969e-02  6.0503385367177441e-02  6.0652777709301373e-02  6.0844597679235127e-02  6.1096493443908377e-02  6.1420811980946025e-02  6.1855968996371496e-02  6.2397200857654211e-02  5.9587874212492911e-02  5.9748717504128641e-02  5.9956459128613172e-02  6.0227983558142871e-02  6.0578280105981604e-02  6.1034187904555580e-02  6.1624789636019778e-02  5.8751232684583453e-02  5.8921294053367171e-02  5.9142226733634139e-02  5.9430336682557802e-02  5.9805557033701870e-02  6.0298510913545350e-02  6.0920355942203561e-02  5.7983206061065017e-02  5.8163965923136010e-02  5.8397929561053684e-02  5.8702114409452930e-02  5.9096520509224940e-02  5.9616986386176345e-02  6.0278613094848534e-02  5.7282653037558889e-02  5.7470846612434096e-02  5.7717117512874332e-02  5.8036839730187730e-02  5.8451187368525365e-02  5.8995575885271316e-02  5.9692588524209327e-02  5.6642016137366025e-02  5.6838880117603449e-02  5.7094907500735800e-02  5.7428547843772215e-02  5.7861879825475609e-02  5.8429222454136114e-02  5.9159546873074044e-02  5.6055786001168305e-02  5.6260799507844433e-02  5.6527037003712380e-02  5.6873716416331418e-02  5.7321876674157717e-02  5.7912212808694782e-02  5.8671523827371945e-02  5.5519953189460618e-02  5.5731570062166016e-02  5.6007514102890087e-02  5.6367525158912010e-02  5.6829549755288609e-02  5.7439482908040219e-02  5.8227205021454821e-02  5.5019996635024715e-02  5.5238220679516579e-02  5.5522126057802004e-02  5.5893781321618291e-02  5.6373478310310872e-02  5.7001180332364371e-02  5.7812846522594594e-02  5.4525915877670104e-02  5.4751798653498072e-02  5.5044798698096198e-02  5.5426690059482357e-02  5.5922672083501303e-02  5.6570344059203484e-02  5.7405613772291003e-02  5.4036857813309656e-02  5.4270065234620808e-02  5.4571885768947115e-02  5.4963822361749501e-02  5.5476052796283135e-02  5.6141662362048678e-02  5.7003920917019862e-02  5.1619850868649592e-02  5.2313697432282417e-02  5.3212883939626206e-02  5.4380957559908204e-02  5.5899200779021323e-02  5.7865393726352556e-02  6.0430265639433961e-02  5.2310993424529384e-02  5.3008977466975624e-02  5.3918984844387743e-02  5.5099247604311861e-02  5.6633487062929297e-02  5.8620268507095702e-02  6.1210389817584275e-02  5.3031214824982985e-02  5.3737855082283549e-02  5.4655962216593440e-02  5.5848538893191267e-02  5.7398525843653556e-02  5.9405729261897557e-02  6.2024799766374650e-02  5.3783460873191101e-02  5.4497231570233652e-02  5.5424889079051180e-02  5.6629518036040251e-02  5.8195388053286813e-02  6.0222092128505524e-02  6.2869015848635620e-02  5.4568204608506476e-02  5.5289047389798895e-02  5.6225724879338988e-02  5.7442471492804945e-02  5.9024191060870243e-02  6.1071676929271006e-02  6.3741421657445604e-02  5.5383579712752366e-02  5.6113302282789490e-02  5.7059014483759683e-02  5.8287554909142780e-02  5.9884517745029349e-02  6.1953524191437515e-02  6.4645350599353640e-02  5.6235250638315852e-02  5.6968699749767857e-02  5.7925098777116567e-02  5.9165572523230889e-02  6.0777694267875472e-02  6.2867009949984343e-02  6.5588339878807633e-02  5.7117912617819983e-02  5.7859844661534446e-02  5.8823826120639015e-02  6.0076867006325731e-02  6.1704200583067789e-02  6.3811742826167042e-02  6.6564715737500516e-02  5.8033147684683560e-02  5.8783872966025837e-02  5.9755975107103766e-02  6.1018590676430354e-02  6.2664924031603134e-02  6.4787316555831517e-02  6.7567129568591844e-02  5.8983991254168117e-02  5.9740469764598202e-02  6.0722026879203410e-02  6.1995201483859085e-02  6.3656968513990025e-02  6.5800757871757043e-02  6.8600754171515302e-02  5.9970571825477506e-02  6.0731969993099356e-02  6.1724015968596509e-02  6.3009927255190695e-02  6.4683309521853499e-02  6.6851868401246281e-02  6.9674210930004088e-02  6.0990064008206231e-02  6.1759333410150108e-02  6.2759208733181596e-02  6.4058017070826478e-02  6.5745495906283230e-02  6.7930657952717868e-02  7.0781819208818125e-02  6.2044698117731646e-02  6.2820620363874757e-02  6.3829038784183223e-02  6.5138728186148645e-02  6.6841676553330537e-02  6.9045609826941565e-02  7.1920307122836230e-02  6.3135171351964600e-02  6.3917627966431717e-02  6.4934650236231323e-02  6.6255586578320605e-02  6.7971044444567627e-02  7.0194811210093994e-02  7.3094083713313510e-02  6.4261097173815923e-02  6.5050016125009005e-02  6.6075234579945352e-02  6.7407853413143953e-02  6.9135449933216561e-02  7.1377318740004678e-02  7.4302697739448795e-02  6.5423096835519431e-02  6.6218418488739994e-02  6.7251804464735387e-02  6.8594900001736306e-02  7.0339262767494304e-02  7.2597978370025809e-02  7.5542587721078663e-02  6.6621756042398644e-02  6.7423295296485594e-02  6.8464888918614075e-02  6.9818377596198064e-02  7.1574793549649088e-02  7.3855056493969312e-02  7.6815353338566802e-02  6.7856681705558169e-02  6.8664304359438377e-02  6.9713836732003903e-02  7.1077711470718369e-02  7.2848781388343761e-02  7.5144080901421800e-02  7.8134228195231900e-02  6.9128799754249154e-02  6.9942425137677330e-02  7.0999773081122458e-02  7.2373699230893276e-02  7.4157336642176511e-02  7.6468228030156044e-02  7.9485926838703244e-02  7.0438154426787372e-02  7.1257618295038239e-02  7.2322589435124832e-02  7.3706401189894313e-02  7.5503698094897473e-02  7.7831666563579510e-02  8.0864765902841848e-02  7.1784912336003481e-02  7.2610055261774067e-02  7.3682476207995160e-02  7.5075745481961401e-02  7.6885274354894312e-02  7.9229140403882611e-02  8.2287585066785116e-02  7.3169371557431542e-02  7.4000086333901566e-02  7.5079713274485982e-02  7.6482900155449285e-02  7.8302703567328810e-02  8.0664440250095920e-02  8.3736033627688389e-02  7.4591483430963446e-02  7.5427615842154072e-02  7.6514135191995583e-02  7.7926427532983372e-02  7.9760110400405163e-02  8.2134952679025194e-02  8.5234658996515694e-02  9.8590283632626882e-02  9.6584419822027756e-02  9.3473812170935644e-02  8.9666624151997013e-02  8.4807700609365058e-02  4.6823254245901537e-02  7.8401618727259093e-02  6.0050648132279880e-02  6.9982077681349064e-02  7.9498861676605581e-02  7.5168016204370747e-02  6.9663848570052964e-02  6.3121702812686198e-02  5.5256791116923026e-02  4.6064510743158552e-02  3.5361868813795744e-02  2.4142899339666710e-02  1.3260024076215642e-02  6.2857824395686386e-03  1.6814442254619585e-02  2.8474614999370554e-02  3.6386849502360541e-02  4.6385977732499202e-02  5.2454967428748736e-02  5.4235019537856310e-02  5.8543547694090654e-02  6.0116400443512373e-02  5.7335793380092134e-02  5.3873577025603699e-02  4.9130891741848856e-02  4.2746880878362092e-02  3.4393200945741498e-02  1.5610168482515227e-01  1.4221180379906245e-01  1.7803500153625432e-01  1.3231550563880462e-01  1.2632645216268079e-01  1.1990255552728311e-01  1.1656440218161437e-01  1.1327409761266137e-01  2.5431033870159653e-01  2.3112769232893726e-01  2.0967414407593946e-01  1.8828374656770142e-01  1.6885510813438512e-01  1.5055955167117807e-01  1.3357068588071605e-01  1.2135823744730702e-01  1.0704067892670259e-01  9.4380141002343959e-02  8.4532177523422569e-02  7.6798016632266569e-02  7.0680703082025453e-02  6.4808393960186450e-02  6.0353640273043872e-02  5.7221689224548088e-02  5.5220050962948346e-02  5.5514960223172004e-02  5.5490758290805534e-02  5.6259858709503244e-02  5.7774730338062186e-02  5.9672849418464700e-02  2.7946553183125493e-02  1.7637000087265226e-01  2.8353268518885649e-01  2.0134267342899162e-01  1.1009136742347335e-01  6.2683154559479107e-02  3.1014271472719279e-01  2.2888596301606298e-01  1.7433733277479411e-02  2.5592379389622544e-01  8.2564468370510680e-02  9.8957973484710249e-02  3.4074975051287665e-01  2.6634312211098209e-02  2.6132201349704343e-01  4.4596471037101335e-02  3.0590294644210259e-01  3.7234914759943566e-01  3.6759262157152431e-02  3.0672969833850500e-01  6.6514537454302039e-02  1.0549588822452968e-01  3.9768773975725807e-01  3.6724539165913167e-01  1.6389189579381647e-01  3.3801923439132558e-01  4.2098854238936956e-01  2.5436665318795380e-02  3.6947135911734319e-01  1.1035081215810537e-01  3.2368766057318149e-01  4.8776752109958765e-01  4.3637470110936455e-01  3.9153847973646677e-01  8.5022602662323060e-02  9.8202743618004490e-02  4.4523298357848018e-01  4.2732771704236300e-01  4.7719699379416997e-01  5.2958116324733784e-01  5.5619471253025898e-01  7.0175996623382184e-02  1.0156575703190573e-01  1.9064383774858282e-02  2.7408434972611358e-02  8.6396145704312130e-02  9.6015621645224911e-02  7.3962826817458818e-02  9.7104340665101763e-02  5.8875432372125114e-02  2.0768635991453052e-02  8.6244214480407116e-02  9.3966000543965214e-02  7.6656764749880174e-02  8.9911073471021050e-02  9.8923905208910826e-02  8.0936649779138670e-02  1.1241676364137028e-01  1.2340900471028597e-01  1.3757784263180822e-01  1.1778623788226363e-01  1.4737467896396764e-01  1.1483064088291288e-01  1.2793381825538189e-01  1.8728617842891263e-01  1.6598538709340949e-01  7.3019404445373498e-02  6.0644604172017995e-02  2.6744635749011936e-01  8.1434967052320159e-02  5.6477432431921153e-02  1.1255995680850221e-01  5.5044014135619442e-02  5.6887318907076510e-02  6.7066221277210583e-02  5.5812715369246389e-02  2.2160763795485078e-01  5.9022110429662898e-02  9.9974841202813025e-02  8.9576996353240734e-02  1.2747248442920708e-01  1.9707303399757878e-01  1.6114519666136987e-01  1.4358900401404767e-01  1.7688952843265071e-01  6.2012017485617375e-02  5.6168694294461814e-02  2.4130789126502744e-01  5.8371480383435301e-02  5.3953677073448045e-02  5.9726602047897058e-02  5.7716588999259605e-02  8.0542865292407648e-03  3.1213827810419537e-02  6.7078959175231032e-02  4.0170887301761701e-02  2.0081371539579135e-02  1.9686214545482115e-02  7.7780285414435005e-02  3.8362783523692268e-02  7.3040232541793759e-02  5.5801212494862362e-02  4.6210271802165664e-02  3.0341706983338032e-02  4.7669552760482389e-02  5.9115312069887654e-02  5.8203006435824621e-02  4.1487761852931626e-02  1.2468783809990910e-02  5.1230298254998155e-02  5.1480436791358400e-02  5.4710662291316686e-02  9.5384031058471902e-02  8.1334810057453508e-02  9.7527828874351102e-02  6.5893903330988296e-02  8.7030857487789173e-02  9.1398921158337795e-02  7.5097542303758424e-02  2.9635224992010217e-01  3.2494450871406272e-01  2.4632893573214371e-01  2.1388397581131743e-01  3.5756026427082066e-01  4.4739074299865211e-01  3.0777069142802451e-02  1.9190199612955504e-02  1.4691811597783837e-02  8.8736020474245753e-02  8.6099637099482262e-02  8.9663105289374295e-02  9.0778675070277509e-02  9.2223105683248985e-02  9.1826709659358241e-02  9.0838406502043167e-02  8.8717721209180436e-02  8.9820736934138626e-02  9.1261354513717918e-02  9.2646461440914679e-02  9.2782358421751435e-02  8.6951782296190161e-02  8.9438761503525921e-02  8.9884502927048096e-02  8.9514049567925510e-02  9.0856839242527049e-02  8.9906025852774102e-02  8.8865592832478496e-02  8.8300402145534695e-02  8.7388932824005991e-02  8.7256274742310291e-02  8.8926177175519885e-02  8.9275126187402923e-02  8.9341907005360668e-02  8.8252288795025086e-02  8.7255377710958801e-02  8.6587224734558030e-02  8.6654893470705499e-02  8.6484208639590027e-02  8.9680363011460124e-02  7.9744908600390518e-02  8.9787371010250749e-02  8.9871303858867879e-02  8.9593740368237570e-02  8.9592239883542077e-02  9.0198868067306898e-02  8.9573179142011142e-02  8.9570928033844296e-02  8.9583763616224998e-02  8.9587829504444563e-02  8.9594737011916434e-02  8.9595437564797889e-02  8.1820513586700658e-02  8.9420377057013486e-02  8.3303557348749890e-02  8.4247351728582026e-02  8.8113985636097875e-02  8.5177443124349897e-02  8.5907120678923879e-02  8.6503902193494769e-02  8.6984763721455319e-02  8.7991060206524613e-02  8.8446083483170596e-02  8.7990538216238992e-02  8.7456375504552764e-02  8.8169418911666450e-02  8.5650116805074769e-02  7.3565350772619390e-03  9.2738366373258992e-03  1.9414357445480045e-02  1.1663995997961146e-02  8.9633031092824930e-02  8.6520938422402979e-02  5.2458039945789114e-01  2.2536344425479191e-01  2.4570477444921038e-02  2.8072795100646340e-02  3.4329143823830988e-01  2.3662369042764983e-01  1.6554445541514921e-02  8.6880771611397942e-02  4.4018237003954891e-01  5.6246368834151605e-01  4.0787341313725833e-01  3.1274478410614426e-01  1.4728100812645351e-01  4.9740216433909817e-01  9.9059920330380150e-02  1.0417829593733152e-01  7.2147497936118923e-02  6.8214237948275747e-02  8.5768395087096619e-02  8.3475798026880613e-02  8.5514507632177120e-02  9.8905282578273482e-02  9.7280619713173783e-02  9.0721971211920008e-02  1.0850446629250922e-01  6.3918469398608957e-02  9.0733705282111721e-02  7.7927017146135563e-02  8.6128946701861581e-02  8.9607290988058419e-02  6.1428111186201825e-02  1.1189128007834633e-01  8.9662121338832682e-02  8.0599286181346805e-02  1.3002487899419660e-01  1.1730324298336374e-01  1.3482641942518864e-01  1.6069359639530037e-01  1.2124441550548758e-01  1.4567699658619682e-01  1.1399031905704084e-01  9.2282416878123372e-02  1.1640053082102472e-01  5.7104047861029322e-02  5.8206999617416252e-02  5.6037219942477401e-02  1.2339015349417665e-01  2.0344123046181015e-01  1.3901208745045307e-01  7.2691819771536062e-02  1.8260905554354806e-01  5.9088803664374447e-02  2.4834829890630236e-01  5.5372386121860510e-02  5.5866155697338597e-02  1.5608065012465797e-01  7.8525695536093149e-02  6.8706148621623775e-02  2.1541087598901876e-01  1.0317175264099070e-01  5.5071123730421591e-02  6.3241514928221929e-02  6.5128332209885162e-02  5.9710561599145992e-02  4.9068894430045043e-02  5.0631801052483015e-02  5.4362038818073187e-02  5.6564840878673972e-02  5.6797042029866976e-02  6.1035328201606280e-02  4.0603117920072353e-02  7.6463960717971166e-02  7.2416030910978707e-03  3.7225731535952447e-02  3.3978806061065514e-02  1.6478681334492620e-02  7.1295957760299747e-02  2.2626073630435454e-02  5.8155759763237676e-02  3.2620958599323659e-02  6.5675376538750028e-03  4.4811355668657446e-02  4.3081827718740542e-02  4.6268199031051511e-02  7.2727676721393977e-02  4.3341097029054344e-02  9.8079795470718517e-02  9.4383378543811666e-02  9.2494523990061361e-02  5.0889074758752033e-02  8.3131122558814441e-02  6.3206630272415507e-02  8.8412985171089989e-02  9.0027249612759083e-02  8.9662220887513217e-02  2.7535299779565980e-01  1.9409382791067312e-01  2.8074928874562466e-01  3.1663247956251517e-01  3.8177906077778195e-01  3.4869304158130082e-01  4.0760815969965075e-01  4.2712391890309864e-01  4.3917627160918493e-01  3.8023106529348988e-01  4.1293019618834242e-01  4.4984694848656082e-01  2.3989761027863769e-02  3.2426181752649705e-02  1.1180075051872374e-02  1.3930224870115342e-02  3.2912208643629495e-02  3.9630197977213517e-02  5.5328167319295768e-02  5.9375273627602643e-02  3.1550830693609722e-03  8.9433687131921418e-04  8.5788703154197898e-02  9.0114112956221737e-02  8.7400296076677653e-02  8.6373762460698819e-02  6.5977933300636451e-03  6.8553140374070847e-03  9.2288400212622423e-03  1.3185572270270457e-02  1.4688380699224977e-02  1.6602327136653029e-02  1.7569536272854552e-02  1.9162912548933826e-02  1.9664516442791508e-02  2.0822262396254541e-02  2.0883997440091600e-02  2.1540950549056418e-02  2.1248773061403475e-02  2.1337082182177766e-02  2.0762323505424649e-02  2.0237937676968902e-02  1.9424333360057607e-02  1.8316857211483600e-02  1.7366345702298783e-02  1.5707707184329400e-02  1.4764800752495640e-02  1.2695481501152382e-02  1.1849988903503889e-02  9.9756695787093525e-03  9.8937166973227329e-03  9.5667433632655417e-03  1.0779218987688962e-02  1.3020717544043893e-02  1.5001135455958782e-02  1.9252611508908848e-02  2.1538519650131274e-02  2.7249040235004126e-02  2.9654144821542945e-02  3.6706489334287273e-02  3.9115354910557447e-02  4.7594443194401467e-02  4.9982300325546264e-02  5.9997319279138560e-02  6.2249092676419503e-02  7.3975542380321169e-02  7.5968666804473922e-02  8.9534475561989540e-02  9.1247939444187506e-02  1.0655689067655665e-01  1.0810222787811705e-01  1.2470326268175545e-01  1.2579691634958556e-01  1.4321655572945152e-01  1.4361157760526599e-01  1.4278300736663388e-01  1.6128383500772864e-01  1.6153283405474439e-01  1.7876507306125206e-01  1.7976188034880608e-01  1.9407329558729275e-01  1.9582274735036237e-01  1.2658542028864847e-01  1.4396491397293387e-01  1.2761893289411050e-01  1.4434499523774369e-01  1.2839089377468779e-01  1.4467195584206752e-01  1.2919115143243529e-01  1.4497889614922854e-01  1.2992707321801600e-01  1.4525989245754944e-01  1.3065440220096911e-01  1.4552277917257508e-01  1.5958694989399527e-01  1.5932899954211582e-01  1.7181951577000204e-01  1.7102586625359112e-01  1.5906367050059184e-01  1.7024531963879283e-01  1.5878846039002761e-01  1.6947168144457403e-01  1.5850592485306250e-01  1.6869877302812999e-01  1.5821229475055754e-01  1.6787948713705123e-01  1.5789908369721350e-01  1.6714253550718242e-01  1.5758912408730436e-01  1.6636567288297177e-01  1.5725923583575865e-01  1.6566156261939424e-01  1.5693338657151842e-01  1.6492295209884320e-01  1.5665784182728143e-01  1.6418496660831319e-01  1.5631538523517527e-01  1.6343787829143347e-01  1.5589497752210021e-01  1.6268633664100396e-01  1.5550898250572426e-01  1.6193857699560457e-01  1.5512346818301254e-01  1.6118931696400149e-01  1.5472908369791774e-01  1.6044361971743518e-01  1.5432302987979893e-01  1.5969713208202904e-01  1.5391131787042256e-01  1.5894407121509371e-01  1.5368007560828759e-01  1.5823899935575311e-01  1.5227736964904418e-01  1.5739736091451148e-01  1.5258955184752315e-01  1.5667885163237599e-01  1.5215491131251360e-01  1.5593237454514500e-01  1.5814282915441866e-01  1.5711376078569630e-01  1.5516429890805147e-01  1.5608891149781998e-01  1.5446267220726143e-01  1.5505615792640437e-01  1.5373099377904526e-01  1.5402835372203050e-01  1.5291677460837400e-01  1.5302864095571503e-01  1.5211339136654625e-01  1.5202204833786101e-01  1.5133841925145886e-01  1.5101341732233939e-01  1.5056149096642105e-01  1.5000095792489140e-01  1.4978213637484161e-01  1.4899635564391300e-01  1.4899739340437329e-01  1.4799654185416358e-01  1.4820969863097114e-01  1.4699280966270106e-01  1.4743073504761170e-01  1.4598754947048925e-01  1.4665272199433629e-01  1.4499438400667103e-01  1.4580250137595999e-01  1.4396275913042478e-01  1.4497030620137050e-01  1.4296468615144586e-01  1.4419678080643894e-01  1.4198809232025850e-01  1.4339746739979523e-01  1.4099617947963580e-01  1.4258192843440282e-01  1.3999070663819108e-01  1.4176183901598824e-01  1.3900126955705611e-01  1.4093919678261449e-01  1.3800702225651582e-01  1.4011604447283782e-01  1.3701000960559992e-01  1.3928459721647260e-01  1.3602532215705262e-01  1.3845190455416462e-01  1.3502695930664646e-01  1.3761387238514575e-01  1.3399949107206097e-01  1.3676948211691109e-01  1.3299592382023004e-01  1.3592315984618683e-01  1.3199865100795397e-01  1.3529119644158988e-01  1.3132724918450903e-01  1.2614888063752461e-01  1.2505309527599653e-01  1.3000177343553823e-01  1.2385695290484008e-01  1.2865795537794980e-01  1.2265854206979851e-01  1.2795059288209160e-01  1.2160844158518272e-01  1.2699874942564951e-01  1.2052876188058559e-01  1.2601675306081384e-01  1.1943457535437667e-01  1.2480590761851988e-01  1.1829648627613647e-01  1.2379556127224919e-01  1.1719316565295670e-01  1.2281538449424353e-01  1.1610415790296819e-01  1.2187422267976464e-01  1.1503742791166076e-01  1.2090842221943029e-01  1.1395862015005397e-01  1.2006006009097306e-01  1.1291870007485612e-01  1.1907068630638457e-01  1.1186298620207141e-01  1.1809664105279695e-01  1.1079453665156688e-01  1.1713847102608066e-01  1.0972691995574504e-01  1.1609940400679744e-01  1.0868365679828301e-01  1.1622030579746119e-01  1.0786181745627679e-01  1.1417602410639058e-01  1.0661212580202457e-01  1.1315113251026140e-01  1.0552906801378170e-01  1.1200215472265461e-01  1.0445692691887082e-01  1.1098534083403652e-01  1.0341140620185753e-01  1.1019329016462520e-01  1.0242182128959208e-01  1.0933346142649020e-01  1.0142679023738636e-01  1.0824912425001280e-01  1.0039100970959756e-01  1.0741326939480952e-01  9.9410734342641416e-02  1.0644376196789823e-01  9.8402072999806731e-02  9.0082286781074536e-02  8.9050917554995085e-02  9.7364915331979898e-02  8.8019013340516913e-02  9.6371491504876214e-02  8.7002695350571119e-02  9.5440603454577624e-02  8.6044699036055758e-02  9.4483018498739593e-02  8.5060864796084962e-02  9.3524366616259041e-02  8.4078239872845573e-02  9.2570314162322698e-02  8.3078913424860318e-02  9.1619163621154118e-02  8.2132522699696939e-02  9.0685206003031746e-02  8.1178892350124918e-02  8.9226870597520186e-02  8.0135641279760125e-02  8.8200127092923228e-02  7.9167198873917363e-02  8.7796976755417047e-02  7.8334841025542667e-02  8.6984289683596047e-02  7.7455348518330525e-02  8.6114913088575148e-02  7.6562482580752503e-02  8.5237393920531479e-02  7.5676708030078213e-02  8.4359713272051717e-02  7.4799334087785038e-02  8.3500528575734131e-02  7.3909055772660576e-02  8.2646618585427406e-02  7.3073447780555967e-02  8.1805045776802213e-02  7.2236429488800630e-02  8.0974309406596640e-02  7.1408517725366952e-02  8.0154592640330147e-02  7.0591406237695581e-02  7.9345781637516932e-02  6.9765712674478272e-02  7.8545036187411141e-02  6.8993103766692668e-02  7.7760958757268517e-02  6.8219854347170067e-02  7.6987400597051767e-02  6.7456637773275832e-02  7.6225968188974536e-02  6.6673737210944814e-02  5.7107510792288131e-02  5.6363522925733683e-02  6.5929570126762219e-02  5.5646571186788063e-02  6.5213103717762316e-02  5.4927362218139417e-02  6.4501322137193770e-02  5.4264249208043985e-02  6.3808845839967446e-02  5.3600807386013277e-02  6.3127911089185418e-02  5.2949422170506029e-02  6.2303079388134106e-02  5.2283187857561475e-02  6.1514432932527834e-02  5.1649664377713685e-02  6.1010304629979271e-02  5.1050356500879399e-02  6.0517804238315626e-02  5.0482952309730926e-02  5.9932799952926073e-02  4.9916293737197609e-02  5.9342295613881879e-02  4.9359131306286268e-02  5.8760989433198886e-02  4.8795249169909870e-02  5.8191513641365905e-02  4.8282250408005024e-02  5.7645484939801435e-02  4.7769410372558913e-02  5.7107700502225037e-02  4.7269920742012625e-02  5.6110576043233100e-02  4.6705104084043110e-02  5.5705098942057003e-02  4.6272229443208371e-02  5.5095003005696058e-02  4.5773994583019638e-02  5.4694607910129679e-02  4.5338880359839212e-02  5.4297040754180889e-02  4.4953567048803468e-02  5.3859082863494459e-02  4.4527212599783941e-02  5.3671823040802084e-02  4.4172506944359834e-02  5.3292113357920529e-02  4.3780946417781463e-02  5.2887267167357650e-02  4.3438359642162437e-02  5.2495740397262250e-02  4.3085887028857427e-02  5.2111199460710314e-02  4.2746677397203489e-02  5.1738857160779278e-02  4.2401426916320380e-02  3.2900750727875135e-02  3.2621604478289136e-02  4.2084438304037401e-02  3.2354887711686396e-02  4.1787731423816622e-02  3.2105742626514187e-02  4.1502095543104044e-02  3.1867892172750593e-02  4.1228190706157124e-02  3.1639902393956004e-02  4.0966212784738019e-02  3.1432747779979515e-02  4.0704657449700470e-02  3.1225823698534744e-02  4.0465707851551895e-02  3.1035064145423747e-02  4.0259580493026234e-02  3.0856877128205024e-02  4.0051526412462679e-02  3.0692468315040463e-02  3.9847724017093793e-02  3.0541719209736782e-02  3.9654699289462407e-02  3.0402189467379891e-02  3.9472570993033342e-02  3.0273387116830138e-02  3.9234221383825901e-02  3.0144816030020376e-02  3.9044949219858252e-02  3.0030577608532342e-02  3.8956657269002409e-02  2.9942185941779186e-02  3.8841370639774810e-02  2.9860911848117937e-02  3.4464307379728533e-02  1.3178049698915331e-01  6.0922033591179210e-02  9.5359949123408727e-02  1.6338671707760846e-01  3.6862168981043594e-02  1.0082076106751864e-01  1.3746885048773075e-01  2.0734456709664558e-02  2.0697261847853397e-02  2.9785219255351658e-02  2.0668730321574433e-02  2.9717190291864207e-02  2.0648704781374733e-02  6.5132694798291230e-02  1.6995061636931463e-01  2.1073966111401481e-02  3.9286866995172968e-02  1.0645624146530795e-01  1.4329275925995566e-01  6.9633828704832271e-02  1.7570176636046281e-01  2.1702845643541767e-02  1.4924611820033651e-01  4.2109447144224654e-02  1.1223740447876211e-01  7.4511182866426107e-02  2.2619292260047559e-02  4.5345129977191562e-02  7.9574168516514818e-02  1.1819960584428163e-01  1.5538762814112120e-01  1.1456095062645019e-02  1.1491209909220236e-02  2.0637199121325316e-02  1.1535548611469234e-02  2.0536625306323866e-01  2.0778397475390295e-01  4.6471015080674482e-03  4.6080769277895570e-03  2.0634045834103106e-02  1.0220179745738524e-02  1.0026287789367610e-02  2.1082919756674229e-01  2.1372976091109686e-01  1.9421657567946882e-02  1.9189661484272598e-02  2.0906495340603637e-01  2.1217842522593255e-01  2.8392250421485354e-02  2.8108867510230170e-02  1.9948716916109843e-01  2.0250344081893676e-01  3.7773090036552423e-02  3.7531285400660017e-02  2.7929253775537104e-02  3.7081921394820819e-02  2.7632247470984739e-02  3.6723608006253905e-02  2.7322858701603173e-02  3.6401466143654526e-02  2.6988314940989605e-02  3.6238683611495126e-02  2.6434400335848419e-02  1.8257569414900954e-01  1.8520794246033839e-01  1.4872096389989506e-01  7.1529600730315751e-02  1.0180959083512714e-01  1.2966960709686190e-01  5.0055914896274249e-02  9.6299973703382349e-02  4.5712206088844735e-02  6.8665671178641835e-02  1.2460178158834129e-01  1.4661210470767416e-01  4.8472726909091352e-02  1.4584522247629614e-01  6.4991042649854391e-02  1.4244043928227562e-01  1.4706072658829980e-01  3.7632159507323612e-02  1.8001443702923611e-01  1.5785876837140481e-01  1.5587880436244900e-01  9.2089962518673657e-02  1.2009756572312161e-01  8.7182256634628821e-02  4.7239219746797921e-02  6.2171247142718364e-02  1.4693308880119607e-01  1.3797716836298202e-01  1.1369380000277297e-01  6.0497281575066272e-02  2.0562608628960852e-01  1.8791425335823264e-01  1.3089739355320362e-01  1.2950930056514995e-01  1.8077525142122405e-01  4.6991947778270184e-02  4.6468380610347255e-02  5.4773779241539665e-02  5.4672055127631708e-02  3.5484664243951913e-02  2.5779838703079275e-02  1.1582685018275647e-01  2.0886139110959104e-01  1.9069749142735670e-01  6.2288136392421728e-02  6.2309655969309652e-02  1.0403067728769204e-01  1.0315170659465206e-01  3.5341681450895751e-02  2.4549799095296056e-02  2.1221574239427990e-01  1.9356021152089944e-01  7.8986053971899450e-02  7.8479777852135779e-02  6.9184673629779772e-02  6.9220733312356092e-02  3.2498612004468047e-02  3.4262201401285483e-02  3.5087315604401800e-02  2.4159177531627191e-02  1.2516361656836179e-02  1.1736916425268388e-02  3.7653404092871348e-03  2.1569556787280550e-01  1.9650454372741150e-01  5.6760065803045760e-02  5.6474081354255114e-02  3.5292762012697244e-02  7.4917829017284748e-02  7.5263519334585416e-02  2.1930727770976022e-01  1.9953206716520330e-01  1.7043406641510239e-01  1.7263267684154879e-01  1.4051791640136965e-01  1.4182753389937780e-01  1.1001596269248418e-01  1.1054898928934116e-01  8.1631602945923656e-02  8.1607969254061691e-02  1.1100502821397128e-01  8.1488780473665354e-02  1.1137101249696575e-01  8.1261267948371657e-02  5.6732222849554599e-02  3.8110693622069158e-03  4.4554666852381346e-02  3.7468022501163253e-02  3.7273269514192076e-02  1.1163175708335832e-01  8.0910906649770312e-02  1.4886905990500795e-02  8.0015440894431022e-02  8.0454842120680520e-02  7.9903007057716025e-02  1.1176965417585996e-01  8.0421223671286818e-02  1.5453936844539959e-02  2.1271702655278085e-02  2.1042722500039981e-02  8.4282745476240664e-02  8.4735543186049977e-02  1.1176431976999306e-01  7.9773594230384159e-02  5.4287478600968525e-02  5.3333971804178870e-02  1.4755798853593297e-01  3.3528961432484350e-02  3.2531382950340505e-02  5.2211022668780541e-02  3.1389888537835725e-02  5.0899444951339419e-02  3.0092557096961875e-02  8.0901741609751027e-02  8.5190471657558081e-02  8.1356758867242362e-02  8.5647186651570228e-02  8.1822559049567256e-02  8.6106087891665128e-02  8.2279080161503385e-02  8.6564959675853898e-02  8.2733123280286813e-02  8.7024395052326037e-02  8.3178965639351149e-02  8.7483216023455809e-02  8.3638455487352950e-02  8.7944087376910424e-02  8.4092713664144517e-02  8.8405682763905896e-02  8.4545264283508850e-02  8.8868036078426582e-02  8.4996842031937331e-02  8.9331532880692510e-02  8.5440497819167044e-02  8.9794713084459979e-02  8.5897831432591124e-02  9.0260133747450136e-02  8.6349948871814644e-02  9.0726521485152312e-02  8.6800160372220797e-02  9.1193874634894756e-02  8.7249791338257818e-02  9.1662161602828474e-02  8.7698892702866280e-02  9.2131618401239609e-02  8.8147359235432043e-02  9.2602193000256405e-02  8.8595355327311984e-02  9.3073882581981779e-02  8.9042506919832412e-02  9.3547271904194110e-02  8.9480607455406896e-02  9.4020509229738508e-02  8.9933058119503972e-02  9.4495989969712771e-02  9.0369117044690139e-02  9.4971418780649963e-02  9.0811098834119197e-02  9.5448459951259751e-02  9.1257766798742257e-02  9.5928197095059814e-02  9.1697013401631139e-02  9.6407330834251043e-02  9.2142296427867906e-02  9.6880573158303479e-02  9.2584255395689111e-02  9.7367121992065028e-02  9.3020200814624393e-02  9.7857371547556998e-02  9.3452304607255121e-02  9.8338997507298867e-02  9.3888032802998123e-02  9.8826171864533310e-02  9.4321986808665492e-02  9.9308039119227420e-02  9.4753476673501688e-02  9.9794385187413098e-02  9.5183255087431681e-02  1.0027552269306797e-01  9.5610050284549025e-02  1.0075821901991851e-01  9.6035337492373168e-02  1.0124482988849118e-01  9.6456626642186155e-02  1.0168292496983862e-01  9.6867050058485268e-02  1.0221063768787635e-01  9.7290483278990397e-02  1.0267408432338693e-01  9.7697461866929874e-02  1.0317358667521546e-01  9.8112810847577933e-02  1.0365555441574706e-01  9.8513553113980856e-02  1.0396068011136446e-01  9.8873122342976100e-02  1.0433566111329901e-01  9.9239425545345331e-02  1.0496990087569619e-01  9.9660321445383004e-02  1.0555225639136612e-01  1.0007435127298484e-01  1.0605244270082670e-01  1.0047722823758856e-01  1.0771421460051499e-01  1.0110015427394994e-01  1.0729956892754441e-01  1.0129435168285715e-01  1.0740595963258251e-01  1.0157013277253836e-01  1.0791688465375607e-01  1.0190925019581556e-01  1.0825963932153658e-01  1.0221717051835513e-01  1.0867479845603681e-01  1.0253541031664601e-01  1.0905184757797570e-01  1.0284306365456271e-01  1.0946626877861955e-01  1.0316504647997086e-01  1.0982825808129738e-01  1.0345846152705054e-01  1.1022875726318476e-01  1.0374396445354046e-01  1.1057375458399932e-01  1.0399754123054818e-01  1.1093642237841168e-01  1.0426997705933243e-01  1.1211957714164129e-01  1.0469726976477402e-01  1.1268001058935533e-01  1.0501209445495059e-01  1.1297138227300062e-01  1.0524787816621171e-01  1.1334406484144983e-01  1.0545151438035591e-01  1.1362282898906376e-01  1.0564585126025441e-01  1.1405899594009559e-01  1.0587623302978864e-01  1.1408536030840127e-01  1.0599684827864748e-01  1.1441860044010756e-01  1.0616137760956719e-01  1.1474317418176425e-01  1.0629361533388963e-01  1.1505264315581994e-01  1.0643141168174357e-01  1.1534708529991944e-01  1.0657764033365863e-01  1.1543019700342393e-01  1.0664737887710694e-01  1.1555021930231509e-01  1.0670190625564792e-01  1.1599816312181173e-01  1.0677312123398972e-01  1.1638781024903416e-01  1.0684968506359899e-01  1.1662673817102610e-01  1.0692732927978225e-01  1.1635409627299764e-01  1.0688295941683018e-01  1.1817295074081562e-01  1.0718781326413319e-01  1.1723517137969634e-01  1.0700152279718504e-01  1.1742576717717179e-01  1.0693859659054999e-01  1.1756685535266462e-01  1.0687932611744673e-01  1.1758005366896149e-01  1.0678158991683866e-01  1.1763458705097073e-01  1.0670386971104270e-01  1.1767770283136049e-01  1.0654134995385388e-01  1.1763632163277203e-01  1.0639311664936639e-01  1.1783083070284575e-01  1.0626848825971291e-01  1.1763289308813243e-01  1.0604411337687809e-01  1.1747077222593154e-01  1.0578921945122104e-01  1.1741499383777927e-01  1.0555828835036317e-01  1.1723302130571221e-01  1.0531200799358341e-01  1.1714430200808286e-01  1.0503784738905665e-01  1.1784012844633290e-01  1.0490000126736099e-01  1.1789549525758894e-01  1.0463585679523719e-01  1.1785884829336835e-01  1.0434179185259576e-01  1.1775569550656149e-01  1.0402961745224909e-01  1.1779801936550846e-01  1.0370998216891039e-01  1.1767819149540344e-01  1.0334827425632870e-01  1.1727812960145509e-01  1.0291392024851742e-01  1.1703576731936219e-01  1.0248326415070015e-01  1.1665199270088127e-01  1.0201527188970570e-01  1.1622878831730434e-01  1.0148282817866958e-01  2.7715750820064156e-02  1.1615024465887092e-01  1.0102706535544027e-01  1.1605822536636679e-01  1.0063975230926039e-01  1.1580727107009761e-01  1.0012614195834491e-01  1.7770089750113328e-02  1.1550424976460079e-01  9.9596744601090303e-02  1.1516976796571136e-01  9.9047444054883263e-02  4.9378472175009756e-02  2.8627051024594719e-02  1.1481845774749257e-01  9.8481381185877709e-02  8.2143888745505531e-02  8.1415165129474151e-02  9.7892073406434271e-02  8.0670044020833373e-02  9.6171323663340219e-02  7.9719954637385668e-02  9.7005248482041159e-02  7.9163851582149794e-02  9.5626764709265177e-02  7.8284288979137806e-02  9.5067027107955032e-02  7.7489881293212617e-02  9.4388145806366633e-02  7.6679509994989736e-02  9.3497908745888925e-02  7.5820355116724927e-02  9.2735547718572814e-02  7.4970527062746165e-02  9.1787118401300702e-02  7.4082329041016554e-02  9.1402057445191781e-02  7.3275708500778011e-02  9.0188338754714645e-02  7.2337925262243433e-02  9.0123022641954736e-02  7.1562473966636606e-02  8.9468675969951159e-02  7.0710155985787226e-02  8.8694016711935456e-02  6.9824372073175739e-02  8.7957464812263964e-02  6.8929861731140338e-02  8.7136960469576655e-02  6.8012178767987166e-02  8.6208960679197880e-02  6.7061758387084461e-02  8.5323569579487682e-02  6.6123284188687195e-02  8.4435896457338039e-02  6.5175060916044372e-02  8.3536103557322522e-02  6.4218793650271236e-02  8.2621125317247204e-02  6.3254228138019120e-02  8.1693323943215712e-02  6.2281823650617206e-02  4.5763437439006814e-02  8.0749670107952032e-02  6.1302913293536022e-02  7.9790564857652263e-02  6.0316070318956520e-02  7.8817449509541407e-02  5.9322199051324249e-02  7.7829930622245774e-02  5.8323307581248741e-02  4.1027677613422804e-02  4.0094104989259020e-02  5.7318935764469059e-02  3.9164800404185678e-02  5.6324510995475398e-02  3.8244745618522355e-02  5.5313180257781147e-02  3.7319138400397800e-02  5.4286517825038932e-02  3.6400771797079533e-02  5.3266222051853447e-02  3.5498597250121458e-02  5.2230890121400912e-02  3.4598584418718763e-02  5.1199210863007001e-02  2.1466701632218466e-02  6.7628897202558751e-03  6.9043316286513381e-03  8.4870027876015205e-02  2.8361074603639538e-02  1.5355907377670331e-02  8.8512276361291192e-02  2.2976944701153312e-01  4.7626135337998123e-02  2.6979827396126015e-02  1.3082496839594339e-02  1.1497506431206001e-02  2.5134037957022421e-02  9.7753951601501840e-03  2.3065658405307266e-02  8.0069524125412472e-03  2.4354886510761977e-02  9.0327899034629511e-02  9.2172818578328194e-02  3.7047300872038169e-02  9.5008640096599609e-02  8.9069412658225280e-02  9.1430599462620429e-02  9.3417054144427858e-02  9.4868383884603863e-02  6.1498330609576983e-02  5.7014656653560029e-02  5.2390303483478215e-02  2.0041603064777532e-02  2.0739256038852728e-02  6.3737796812071215e-03  6.4922319203400206e-02  4.4871327449262340e-03  9.5630690644890770e-02  4.0118485169416206e-02  9.6952261905667081e-02  8.9955265907262737e-03  8.5073356871072613e-03  2.9225943138489498e-02  1.4719450737778148e-02  9.9447337955049078e-02  1.8109870677473109e-02  5.1655768053954819e-03  1.0209917799253751e-02  1.0221577771717821e-01  1.0414280773354494e-01  1.5141070104740854e-02  4.7669236598434543e-03  1.0224527675640612e-02  1.2610712626475234e-02  5.5308643170199632e-03  1.5097726111200305e-02  7.5710004390890798e-03  1.7617198190341701e-02  1.0665260746249735e-02  2.0224617559266366e-02  1.4239622716920102e-02  2.3038615350366082e-02  9.3940140811977157e-02  9.4948016659279988e-02  9.5736520975490583e-02  9.6215144029838842e-02  9.6227097957592489e-02  2.3375682679406248e-01  2.3403256055944147e-01  2.3799503876435207e-01  2.2815740317207697e-01  2.3167313034225417e-01  2.1326088173063218e-01  1.0666535234478193e-01  1.7764428862608362e-02  2.6108482004182344e-02  2.1146194573913212e-02  2.9361417061309319e-02  2.4648276146561513e-02  3.2678500393434354e-02  3.3708331802597129e-02  5.0169329065961749e-02  1.0914489767364798e-01  2.8474506655119403e-02  3.6004260568451227e-02  3.2487450382299519e-02  3.9353621177926797e-02  3.6430717994602249e-02  4.2725340227712669e-02  4.0229729778564483e-02  4.6062530828373416e-02  4.3953232132188748e-02  4.9300852407093670e-02  4.7591759190299544e-02  5.2407483682408246e-02  5.1057893824568518e-02  5.5352985012382921e-02  5.4298452359020949e-02  5.8100740412237804e-02  5.7286072812085718e-02  6.0620817036313640e-02  5.9986032542259593e-02  6.2882490724786397e-02  6.2385975263248426e-02  6.4862561534857838e-02  6.4461999408861756e-02  6.6544320925231590e-02  6.6181640927440416e-02  6.7916768899226071e-02  6.7550517046790909e-02  6.8967471837991692e-02  6.8566446823083674e-02  6.9699222893645552e-02  6.9217946757210644e-02  7.0113838391528710e-02  6.9534492029528314e-02  7.0223565371036634e-02  6.9507748431611949e-02  7.0038733481517818e-02  6.9173153617392083e-02  6.9580061611017208e-02  6.8543286957856331e-02  6.8868649419811467e-02  6.7646476403892097e-02  6.7928720753934344e-02  6.6510788624542266e-02  6.6786584473477656e-02  6.5165445680231041e-02  6.5469912147508275e-02  6.3642009372869290e-02  6.4008441539017039e-02  6.1969832955402405e-02  6.2431115046647889e-02  6.0181357615193345e-02  6.0505896677976817e-02  5.8509142129858388e-02  5.8307435444372419e-02  5.6428900458510026e-02  5.6377526784911432e-02  5.4295143679951370e-02  5.5181287904869543e-02  5.2850896028772687e-02  5.2136786749661018e-02  5.0498231900746225e-02  4.9981456344636035e-02  4.8151450613982481e-02  4.9557645215745877e-02  4.7031291770878149e-02  4.5834695808157730e-02  4.4536610561885612e-02  4.6657044698871532e-02  4.4002166170907742e-02  4.2095277004743498e-02  4.1401250298699371e-02  3.9727191773489899e-02  3.8871884055360913e-02  4.1497392861721563e-02  3.8832185460214746e-02  3.6430028814154601e-02  3.6252071634446041e-02  3.9566263104521326e-02  3.6878637567651265e-02  3.3768008347977510e-02  3.4286013616137416e-02  3.8217822485433969e-02  3.5529157500876291e-02  3.1791708207866060e-02  3.2972372775111107e-02  3.7365608711289064e-02  3.4765336115371658e-02  3.0504548974176988e-02  3.2271411044300265e-02  3.7041450891502181e-02  3.4528212661827221e-02  2.9863726307708748e-02  3.2103749380826850e-02  3.7116668423033058e-02  3.4695014093066738e-02  3.9932158503545388e-02  3.7505428662819897e-02  3.2365737024575250e-02  3.5183232555464093e-02  3.0137849818860245e-02  3.2962795010329109e-02  2.8010021409383488e-02  3.0843862575689641e-02  2.5978390656117435e-02  2.8822372856166366e-02  2.4038369880580085e-02  2.6893511461319481e-02  2.2186001343745747e-02  2.5051968265744205e-02  2.0417686575068296e-02  2.3294982661026916e-02  1.8727439136270247e-02  2.1620265424805180e-02  1.7117005745365167e-02  2.0006844034537830e-02  1.5575813809359042e-02  1.8468853728687794e-02  1.4107452795762858e-02  1.7000292069156091e-02  1.2708370066558807e-02  1.5595455854360094e-02  1.1376101445079927e-02  1.4251254057336033e-02  1.0112859812150710e-02  1.2966274913135437e-02  8.9064825813407397e-03  1.1735994392178340e-02  1.6108683036581053e-02  1.4886625183427845e-02  1.0560739693773979e-02  1.3713497576277590e-02  9.4356165727854033e-03  1.2588047942539144e-02  8.3967013991601731e-03  1.1513501835381497e-02  7.3782923114340936e-03  1.0475820911383021e-02  6.4817407505368642e-03  9.4910980075346030e-03  5.4103512159736225e-03  8.5269315649191164e-03  4.5768076676247502e-03  7.6338553257102549e-03  3.7880662252435795e-03  6.7477552360574056e-03  2.9035872807619879e-03  5.8692571561987936e-03  2.3440342390901149e-03  5.0567773030402450e-03  1.9531415463900333e-03  4.1930302210266080e-03  1.7951290826476584e-03  3.3431053246792538e-03  1.8680742976363172e-03  2.5807791165428384e-03  2.2990441128887852e-03  1.8523362951910381e-03  2.9004103247173289e-03  1.3445635643741184e-03  3.3529632520355439e-03  9.9469402877161938e-04  4.7405565727966104e-03  9.2847097727821639e-04  4.9416941157054773e-03  1.0877011289973924e-03  5.5527591571340393e-03  1.4366751763292239e-03  6.1281607493780020e-03  1.9397347664076409e-03  6.6607369514790878e-03  2.5429203544047071e-03  7.1520221563120892e-03  3.1928199339628285e-03  7.6430657091640332e-03  3.8422354078705527e-03  8.1168636628591202e-03  4.4503183365990498e-03  8.5976261868788238e-03  5.0050085141686010e-03  4.8238131858251517e-04  7.4662153979234986e-04  5.5148074339388016e-03  1.1285438446090200e-03  5.9884784356858296e-03  1.5941822910524460e-03  6.4256908853278670e-03  2.1388363244975238e-03  6.8373902347881703e-03  2.7146138327776115e-03  7.2262267600869306e-03  3.2821216196845899e-03  7.6135375363091855e-03  3.8082754707769845e-03  7.9981922366954943e-03  4.3007020532099599e-03  8.3791879696000129e-03  4.7579173581940729e-03  8.7554624852391842e-03  5.1753436056056834e-03  9.1281368004565398e-03  5.5658073865101857e-03  9.4939120994729283e-03  5.9372280402735537e-03  9.6900868676996401e-03  6.1474367303239047e-03  1.8147989814311196e-03  2.3091481418178662e-02  5.4940548717302687e-03  3.1807934599365685e-02  9.2418908909869396e-03  1.3671158596584153e-03  1.7942814574544693e-03  4.2868029112920765e-02  1.6133867169156990e-04  1.3813995997403463e-02  6.4712942327537050e-03  2.2497717213311522e-03  2.1866120565859634e-03  6.8834559105294141e-03  2.7333668229656775e-03  1.9359781853935158e-02  1.1336885912887993e-03  7.2015300483898488e-03  3.1905980955524607e-03  7.5028217898154281e-03  3.6167867830487099e-03  7.5830441149061798e-03  3.9858834483726506e-03  2.0313548109303465e-05  2.8850269102320929e-05  3.8263753976489376e-03  3.4273258090151376e-03  7.9546651878508977e-03  7.6153107826606144e-03  7.3326920976994068e-03  1.1334272851661074e-02  1.1022998631058680e-02  1.5081462932622134e-02  1.4789020686752946e-02  1.0725271719627933e-02  1.4497183991148922e-02  1.0446759114133085e-02  1.8806299360716323e-02  1.1015931160578111e-02  1.1349855994342427e-02  4.1996674436378884e-03  3.6212735855972321e-03  1.3304419923391847e-02  1.4275683968458002e-02  1.0049023526818484e-02  7.6032513035735284e-03  1.7863111515150475e-02  1.0673794359374685e-02  1.0341335074460251e-02  1.4102969708898665e-02  9.3440653663619637e-03  1.3878816132450934e-02  8.7618944324377983e-03  1.3330185217482313e-02  8.5034523557733187e-03  1.3542063137145092e-02  8.5448244175105534e-03  1.8687963099777626e-02  1.8968243273923965e-03  1.5048021511272340e-03  2.0020483680299704e-03  8.3455375829132664e-03  1.9103403942701127e-02  2.2821556404996186e-02  2.3117887180588454e-02  2.6822227286053182e-02  2.7118565348648226e-02  3.0808741686344274e-02  3.1104370405612678e-02  3.4779277748533476e-02  3.5073317699344839e-02  3.8731185002973893e-02  3.9022668147904387e-02  8.6657868765474349e-04  4.2657636619293768e-02  4.2944853640302441e-02  4.2378335719815148e-02  8.1691955369823065e-03  1.4106328107383099e-04  4.6284339894736452e-02  4.6014472806854577e-02  4.9900623005736854e-02  4.9638154664061303e-02  7.7942620155246932e-03  -1.4802392032929221e-05  6.7001267827051222e-02  5.3504764602646443e-02  5.3247514534381778e-02  7.5316427979879976e-03  7.0428992230133611e-05  3.9319315732362907e-02  4.3229262003451299e-02  3.9633799307801677e-02  4.3529047415797641e-02  3.9945439407711655e-02  4.3847480198291648e-02  4.0251788600847431e-02  4.4159791054411784e-02  4.7730409935255243e-02  4.8036108390402066e-02  4.4478122139068793e-02  4.8348068761237650e-02  4.4816798091536797e-02  4.8666527041459587e-02  4.5151641861258911e-02  4.8992093346394851e-02  4.5492531200274029e-02  4.9324629454381007e-02  4.5840450084317780e-02  4.9664338862209938e-02  4.6196640179479803e-02  5.0011702514771036e-02  4.6552203289760952e-02  5.0365364003974442e-02  4.6932602963195985e-02  5.0729678398797912e-02  4.7316476655107291e-02  5.1101984860640090e-02  4.7708414936793307e-02  5.1482894879963624e-02  4.8110346027232125e-02  5.1871888862782926e-02  4.8522003075471089e-02  5.2272282876142169e-02  4.8944799837937515e-02  5.2682106897911432e-02  4.9369134428286415e-02  5.3100350411163948e-02  4.9822219571727271e-02  5.3532030958796800e-02  5.0281276928833801e-02  5.3974277043829497e-02  5.0751496556895967e-02  5.4427943999347389e-02  5.1234963021779996e-02  5.4893541451927472e-02  5.1731738477622698e-02  5.5371913613098185e-02  5.2242895387360232e-02  5.5861877036123324e-02  5.2759120670597917e-02  5.6366431304870464e-02  5.3308892302473515e-02  5.6888246127219225e-02  5.3868589739031435e-02  5.7422706383142452e-02  5.4444060288830441e-02  5.7972271952605695e-02  5.5036875586017706e-02  5.8537506184098503e-02  5.5638372232682400e-02  5.9117357256273602e-02  5.6276830807028180e-02  5.9717221700031846e-02  5.6928768370891711e-02  6.0339067723396089e-02  5.7601561109567288e-02  6.0976674667180458e-02  5.8295856238943081e-02  6.1629336591028899e-02  5.9003915517026800e-02  6.2304829569739109e-02  5.9753389630878839e-02  6.3005555152921416e-02  6.0523474388263117e-02  6.3729599723262476e-02  6.1319834183061563e-02  6.4476049069766436e-02  6.2144777811148855e-02  6.5279999910738878e-02  6.2996706232778144e-02  6.6072621424790895e-02  6.3895768920040993e-02  6.6897635335835690e-02  6.4806425112448246e-02  6.7757924609388828e-02  6.5772912717873458e-02  6.8655647289132857e-02  6.6779069518188086e-02  6.9589853877024335e-02  6.7829754761992295e-02  7.0563649292740047e-02  6.8939765920527904e-02  7.1590498198827845e-02  7.0094457340073635e-02  7.2649610117651114e-02  7.1302552447150072e-02  7.3761350694440300e-02  7.2572985054721303e-02  7.4932431792918350e-02  7.3914331844799980e-02  7.6167039927171887e-02  7.5332702181589023e-02  7.7472502100264198e-02  7.6838588867196758e-02  7.8857612072537081e-02  7.8441208869966125e-02  8.0334117690413320e-02  8.0147211408215333e-02  8.1913251555841116e-02  8.1987994167525932e-02  8.3613472764322766e-02  8.3973107264143490e-02  8.5451518672332041e-02  8.6124287059854726e-02  5.1575137774214720e-02  8.7453381373358813e-02  8.8466797734773381e-02  5.2801113808065681e-02  5.4130911256207441e-02  5.5964346514687846e-02  5.7591484683871257e-02  5.9863064478153434e-02  6.2455055760912620e-02  6.5405659475990044e-02  7.1200714646184465e-02  7.9696338595435526e-02  8.9645954819582235e-02  9.1033263452539620e-02  6.8857801172921881e-02  3.0551944402845796e-02  1.3379929591742237e-02  7.2057807042089833e-02  7.1203250493994501e-03  6.5954742234827904e-02  8.9166190314455454e-02  9.2079546032150211e-02  1.1240559757896772e-01  2.1597880627475530e-01  1.9154702495291304e-01  8.6346319699260321e-03  2.5806035789581769e-02  1.1507230907785033e-01  7.6809859502242006e-02  2.2782453668813415e-02  2.2107520084427238e-02  7.5144678311699797e-02  5.7082636426985689e-02  5.6835810360176008e-02  8.1590328638022500e-02  3.9538131511382232e-02  8.6654672172079283e-02  1.1664889527292943e-01  3.1656627282964402e-02  1.3146322689882702e-02  1.1999232696706136e-01  5.1400543361736620e-02  8.7944104862710273e-02  8.9930316093772694e-02  2.4552316735666790e-04  6.0578352299434845e-03  1.4581537530605412e-02  6.5860933253851978e-02  9.1976267984241300e-02  9.0340488918648695e-02  5.8801290548180840e-02  5.4783135749126605e-02  1.2179017942905934e-01  8.8550380292510028e-02  5.1403894803053546e-02  4.8521287641022690e-02  8.4676384363486762e-02  8.9511141106618675e-02  9.2755979988209961e-02  4.6503844441239034e-02  1.2396079022497995e-01  7.1267471297269264e-02  3.2826986751280221e-02  4.9033722307065306e-02  9.3342571956646220e-03  3.7889636459949874e-02  6.9890115095809169e-02  1.2812470126176859e-01  1.2486166842405449e-01  1.9325115471114016e-01  1.6573084358843254e-01  3.6628301842236845e-02  3.7546923766400050e-02  3.5734200433346332e-02  6.0635912042889852e-02  6.0401779006210111e-02  1.2795678192231408e-01  6.9532259277438807e-02  7.3792575751062239e-02  6.5226169189574759e-02  1.1504115072735616e-01  1.1097094011331944e-01  1.3018244884584820e-01  1.4686264659303153e-01  7.0575893759579247e-02  2.3399368693213338e-02  1.7572239804168794e-02  1.6662196703575025e-01  1.5000180817915543e-01  1.4437163572761075e-01  9.3124626747027262e-02  1.3988027823403840e-01  1.3265641743887147e-01  1.2730661650845612e-01  1.2288132253716530e-01  1.4636806730905902e-01  1.1599196366875487e-01  9.8990281321851836e-02  8.9588961386981053e-02  6.2812670250088978e-02  8.4862462211301379e-02  9.5972558073914471e-02  4.1606363289053989e-02  8.7369206770410532e-02  9.5285145503616053e-02  9.6299460338122547e-02  9.3047056338559378e-02  9.6875417490344770e-02  9.2920995138079707e-02  9.6987051325870224e-02  9.2378651663905534e-02  9.6620606506403431e-02  6.4404221955583374e-02  7.7489348402919170e-02  5.9468806739603815e-02  6.0858449694314712e-02  9.3579698763135516e-02  1.9294280119825424e-02  7.9672006586754301e-02  2.8578683183653813e-03  4.9566300515061786e-02  1.2815643737916557e-01  3.5594433179944887e-02  8.5056703827118812e-03  6.9321016346171552e-03  1.0000774619553579e-02  1.2373440411894870e-02  6.1618490328312410e-02  8.1808655839014310e-02  4.9192314074105993e-02  4.3467395445865004e-02  9.1402433578432002e-02  9.5772244261463912e-02  1.0898685340101058e-01  8.7494467434224482e-02  8.9216375613092244e-02  8.8473128723851893e-02  1.6764649395914981e-02  6.2671813778146738e-03  5.6595806647720986e-02  6.0177826868668120e-02  5.6347880808738718e-02  6.0033206567156987e-02  5.6015376536371751e-02  5.9888150156145785e-02  5.5577433483784716e-02  1.3075611196310549e-01  1.0707709650401870e-01  3.9367427554473894e-02  5.0388513578146971e-02  5.0146629460885050e-02  6.0726979163591002e-02  5.9557025503103302e-02  6.7147680504075047e-02  6.7011532593559589e-02  7.3109909324132777e-02  7.3175022029815170e-02  7.3249429336678329e-02  7.7699953254540308e-02  7.7852564766908106e-02  8.1119079787498313e-02  8.1336209327659365e-02  8.3514456319597322e-02  8.3755863822069718e-02  8.1605076359967790e-02  8.3994936087534014e-02  8.5301032391662535e-02  8.5544499858425146e-02  8.4324250887979971e-02  8.5834418585277794e-02  8.4613719025001990e-02  8.6140116836381980e-02  8.6382798141353745e-02  8.4817140085183290e-02  8.6448516392432229e-02  1.0426104075490754e-01  1.2983621685804314e-01  1.2976089447772890e-01  9.2739530671600288e-04  5.1045387243457141e-03  8.3478908042075348e-02  4.5133482184534848e-02  1.0170064973241465e-01  5.8429437538511687e-03  9.0007797275423407e-02  9.4445749326641723e-02  5.4004498824368204e-02  5.5141452042560962e-02  1.2991002056124479e-01  1.6512584884306941e-01  1.3879729567684226e-01  6.4159995073878498e-02  9.8508426230154184e-02  1.6635979545817903e-01  5.9734783261515947e-02  3.2290553172004868e-02  1.4064335978984592e-02  3.9815613072829653e-03  3.6810549583574832e-03  1.4984564208773130e-02  3.4793719121516921e-03  6.1588161287549174e-03  1.7492418310867234e-02  8.5064516193526410e-02  8.6763051518736589e-02  8.7386765998429108e-02  8.7737981388949962e-02  8.7677049190523909e-02  8.8046901209776110e-02  8.8099371870119084e-02  8.8426460701373388e-02  8.8463933253071558e-02  8.8818758527278746e-02  8.8815144154165054e-02  8.9220113070382925e-02  8.9189575799878240e-02  8.9625527275302985e-02  8.9599240616843601e-02  9.0039105220774129e-02  8.9987800008802368e-02  9.0466534057122808e-02  9.0381763251728323e-02  9.0898196711425530e-02  9.0792557612587046e-02  9.1335819534508617e-02  9.1198073287477852e-02  9.1781737525662169e-02  9.1608872173942049e-02  9.2233876244685375e-02  9.2023171573638277e-02  9.2692057926271415e-02  9.1597661300662020e-02  9.2441086191569183e-02  9.3155722271774752e-02  9.2861928385372827e-02  9.3624475473069402e-02  9.3052994333774425e-02  9.3553371906611990e-02  9.4097616372916415e-02  9.4060518156900988e-02  9.4574987982055936e-02  9.4573927617100956e-02  9.5056053878005461e-02  9.5092497791539415e-02  9.3757977647916643e-02  9.4297666555825221e-02  9.5615910528244280e-02  9.4845423421039868e-02  9.6146718404956769e-02  9.5393890960619995e-02  9.6632595732770568e-02  9.5948350574542776e-02  9.7271955698085263e-02  9.6555478970719366e-02  9.7743650210012703e-02  9.7099204557432678e-02  9.8298875154349027e-02  9.7669803543210323e-02  9.8856512414552275e-02  9.8243350125867532e-02  9.9396664718609334e-02  9.8827624354001414e-02  9.9918318867136924e-02  9.9414477031436882e-02  1.0048233057757247e-01  9.9992273870440074e-02  1.0104934265838733e-01  1.0058838285754787e-01  9.8572668133229277e-02  9.9196684263172616e-02  1.0118279547853282e-01  9.9817085568354738e-02  1.0177210795538773e-01  1.0043903401200313e-01  1.0236267068398278e-01  1.0105646329369314e-01  1.0295217425767367e-01  1.0167135814913189e-01  1.0353970979558663e-01  1.0228687912986346e-01  1.0412671998205469e-01  1.0290665231315307e-01  1.0471236414109053e-01  1.0352774889384170e-01  1.0529760135026621e-01  1.0413666197915959e-01  1.0587912375771551e-01  1.0474949308083392e-01  1.0645714073356942e-01  1.0536818707491132e-01  1.0703375731906897e-01  1.0597811028603756e-01  1.0760721156545719e-01  1.0658355488197246e-01  1.0817736419580208e-01  1.0718479078163654e-01  1.0451020415301088e-01  1.0512933722494067e-01  1.0778138703590739e-01  1.0574805873764191e-01  1.0837381913621023e-01  1.0636901295623281e-01  1.0260075126192647e-01  1.0896218136414143e-01  1.0698083649420111e-01  1.0329920658918566e-01  1.0392207228959646e-01  1.0758228850611438e-01  1.0455840653460541e-01  1.0818409208513408e-01  1.0517206570222548e-01  1.0866938551270497e-01  1.0577213844478577e-01  1.0982805910966967e-01  1.0649083340477514e-01  1.0996098300444021e-01  1.0701436279705086e-01  1.1124757245197546e-01  1.0775241557905249e-01  1.1135182429834012e-01  1.0822231723533478e-01  1.1166612167412827e-01  1.0871921372161805e-01  1.1217879531527802e-01  1.0926202828120909e-01  1.1269310647465799e-01  1.0980058020979462e-01  1.1322218395417909e-01  1.1033813866255267e-01  1.1375978978367872e-01  1.1087108073223183e-01  1.1427707067401448e-01  1.1138867533094435e-01  1.0688256536701578e-01  1.0740437105193458e-01  1.1189630176980606e-01  1.0791462803705813e-01  1.1239319386787039e-01  1.0841285831590035e-01  1.1287917046819336e-01  1.0889903095494775e-01  1.1335455044299760e-01  1.0937295378840169e-01  1.1381835442395422e-01  1.0983410372323420e-01  1.1427119099460786e-01  1.1028266501180060e-01  1.1471312236483627e-01  1.1071842782409989e-01  1.1514351895648335e-01  1.1114118224412385e-01  1.1556302355271544e-01  1.1155093323702371e-01  1.1597095219261766e-01  1.1194705528452963e-01  1.0646886850524184e-01  1.0685814287009469e-01  1.1233060615839123e-01  1.0723187733470937e-01  1.1270161626943466e-01  1.0745650069217202e-01  1.1304053164318646e-01  1.0768941071464871e-01  1.1337713607538866e-01  1.0813563429773770e-01  1.1371062576075329e-01  1.0855770394517263e-01  1.1404340739240137e-01  1.0887865627701641e-01  1.1435418134635134e-01  1.0916877921232557e-01  1.0521488391421092e-01  1.1464800681695059e-01  1.0944085514941118e-01  1.0296787012037922e-01  1.0322695416892647e-01  1.0969761385894918e-01  1.0346957092671595e-01  1.0993957893543280e-01  1.0369612981483400e-01  1.1016666918556824e-01  1.0390654722341933e-01  1.1037984417385927e-01  1.0410100316767357e-01  1.1057864378325401e-01  1.0427980472389431e-01  1.1076358260627087e-01  1.0444277102811675e-01  1.1093446183223246e-01  1.0458988784344408e-01  1.1109157976918967e-01  1.0472162260995223e-01  1.1123525534773732e-01  1.0483809838584503e-01  1.1136529845563829e-01  1.0493932928093706e-01  1.1148205809103384e-01  1.0502533173072490e-01  9.7623335920341045e-02  9.7693257670225922e-02  1.0509637910931659e-01  9.7746538199913427e-02  1.0515271827160759e-01  9.7783805551036371e-02  1.0519422383486357e-01  9.7805024185429953e-02  1.0522151755733773e-01  9.7810211838505690e-02  1.0523490839661061e-01  9.7799703945845806e-02  1.0523398765092691e-01  9.7773468094790275e-02  9.7314516698454007e-02  8.9568311009440044e-02  8.9535006268558884e-02  9.7731737341909930e-02  8.9484843429748231e-02  9.7674748914662074e-02  8.9418320279381527e-02  9.7601173303370578e-02  8.9335130833174847e-02  9.7513689287617333e-02  8.9235625903584123e-02  9.7411281612238637e-02  8.9120453791807067e-02  9.7294362465952508e-02  8.8988968117797718e-02  9.7162549947213350e-02  8.8841177059075460e-02  9.7016323547645056e-02  8.8677797648611695e-02  9.6857577580915025e-02  8.8499070343814740e-02  9.6682980938972082e-02  8.8304210217911683e-02  9.6493690681590791e-02  8.8093480761355078e-02  7.9347745132787806e-02  7.9139159715776577e-02  8.7866926048602717e-02  7.8913711748189730e-02  8.7624728654260034e-02  7.8671379923547086e-02  8.7366473760021435e-02  7.8401061722845680e-02  8.7090362777328165e-02  7.8122947469970658e-02  8.6800909682269625e-02  7.7808307386293518e-02  8.6492672495587120e-02  7.7475417053134737e-02  8.6167522972349003e-02  7.7153272054798522e-02  8.5830649036122933e-02  7.6819666690827113e-02  8.5479215623284324e-02  7.6442209472655245e-02  8.5107765205631736e-02  7.6068708765086951e-02  8.4722426559262390e-02  7.5714299735064480e-02  8.4330128114845790e-02  7.5310126421317597e-02  6.6754567042539015e-02  6.7687668934095557e-02  8.3910701377717459e-02  7.4876783889445298e-02  1.0067981036244351e-01  8.3276751065491011e-02  9.0222608895318898e-02  6.7769930590657848e-02  9.6160750221446795e-02  1.0525165277353660e-01  1.0383584939385011e-01  1.0186368810635575e-01  7.9873261407576973e-02  9.8832904547335398e-02  9.6855988418777433e-02  8.2314049688378674e-02  6.8593721784851736e-02  1.0139075876293811e-01  8.6019118647674961e-02  8.7419688375934182e-02  8.8532417466279753e-02  2.3919259659433985e-02  8.9562049094858792e-02  8.0248846849546196e-02  1.0358744021304682e-01  1.8211461483715229e-02  9.8805535268165948e-02  9.4411326870647364e-02  2.0255395267988079e-03  5.3650482472736138e-03  9.2190979133898912e-02  1.7988338987960841e-02  6.1127251838278360e-03  3.4193127037422839e-02  1.0090386373213002e-01  8.8205884653545077e-02  9.2661454573737034e-02  9.9237797084058513e-02  9.7447250286918946e-02  9.0449416825402557e-02  9.5178960785384306e-02  8.3474039945686987e-02  7.4424915184394314e-02  6.5623213260299268e-02  6.5185906813943553e-02  7.3953851470873383e-02  6.4728455314606664e-02  7.3463768330712526e-02  6.4250672550615062e-02  7.2953988735608738e-02  6.3752253700459754e-02  5.4905454657100540e-02  5.4411404571458898e-02  6.3226307739052717e-02  5.3925842432239419e-02  6.2682783950557319e-02  5.3459952191452643e-02  6.2127339028512016e-02  5.2928661350782419e-02  6.1536219057590970e-02  5.2379583940568887e-02  6.0925541796796635e-02  5.1808166621129907e-02  6.0289352224571387e-02  5.1211976520936502e-02  5.9633918005011492e-02  5.0608848882959578e-02  5.8946839301524868e-02  4.9908657324391106e-02  5.8229718532618137e-02  4.9248310465479367e-02  5.7491083860947353e-02  4.8561134859020333e-02  5.6724805264827483e-02  4.7831036343167821e-02  5.5926944963922851e-02  4.7067701131979875e-02  5.4817536943518055e-02  4.6227762199027481e-02  5.3401370491579926e-02  4.4977668279076399e-02  3.7704557171928242e-02  3.6960898247076893e-02  4.0467275434901945e-02  4.4256367504708224e-02  3.5805219773469774e-02  4.2154434572902355e-02  5.6150898026697892e-02  2.8999831778730504e-02  2.8292361400309437e-02  3.5211248589726157e-02  2.7615510658899289e-02  3.4105219355342206e-02  2.6845858649300707e-02  3.3577001604752472e-02  2.6120683093781523e-02  3.2706728082349250e-02  2.5321857153598557e-02  4.4123142777507715e-02  6.9809580713281000e-02  1.9502902767978780e-01  5.4947859798434140e-02  1.0233942583323287e-01  1.0143930827520008e-01  8.9415212469333483e-02  9.6244838416288628e-02  8.0471624524352858e-02  1.0172931718224039e-01  4.5330492490792670e-02  3.4640249277344021e-02  5.2428649892968610e-02  5.1847180483471159e-02  5.2990893162770572e-02  6.3843329369536600e-02  9.8153163194783892e-03  9.6900214859457823e-02  8.7388646703498385e-02  7.4379025572063009e-02  7.5669060397750731e-02  3.1732796260330307e-02  2.4468812245231997e-02  1.8655743560122593e-02  1.8003220888320112e-02  2.1461386476040577e-02  3.4868014876886642e-02  6.2460639473862913e-02  4.6855421349237508e-02  1.6699182905172688e-01  1.9686936962329013e-01  9.2734889288293709e-02  7.1856982740391526e-02  1.6295601451526417e-02  2.9617932887362588e-03  4.1249301154847465e-03  1.6071092311225280e-02  3.3470427229802435e-03  9.9803710491881747e-02  1.1712555023006006e-01  2.0429882513857994e-02  8.7850930940539154e-02  9.2482325132815887e-02  5.5102882706425660e-02  5.9655868977063813e-02  2.3971927728397364e-02  1.0022219081616078e-01  9.7387720635333644e-02  8.9419396561685821e-02  9.4151276792280761e-02  2.0304490881669507e-01  3.7611510459551849e-02  4.2586320806108108e-02  5.7732200966198388e-03  4.0721780126049267e-03  8.3456838217764867e-02  8.4483967378420455e-02  8.2592395006803584e-02  3.1559085150231502e-03  1.0514552369332508e-01  5.0047989660092010e-02  1.6705858330816364e-02  6.7362522853215354e-02  2.3569124330914844e-02  1.7320479664171412e-02  1.8080461612586457e-01  7.1804986134892626e-02  7.1041421127804413e-02  9.8153915978417397e-02  9.9471038042375892e-02  7.6952816399856835e-02  1.0076364047665856e-01  7.8227693275748036e-02  1.0203024788414057e-01  8.1570870013509961e-02  9.6512795050304925e-02  8.6064073714018502e-02  9.0598064346704033e-02  9.9110987545552115e-02  9.5310790627730305e-02  1.1576577914390415e-01  1.2672641790655706e-02  1.2326370954838642e-02  2.0780997373755768e-02  1.6759860260138312e-01  1.9875756653583107e-01  1.3763293862975678e-01  1.8180346438881365e-02  3.2628774537092511e-03  1.0986573871737729e-01  1.5823107583131660e-02  3.9739252545952013e-04  3.6325788451900862e-02  1.3913389081544170e-01  1.1408977501961844e-01  1.8209686659292934e-01  1.8712725838259159e-01  1.8890873719862952e-01  1.4617310965037997e-01  9.6814372403838819e-02  8.7711439198944766e-02  7.3819875160770515e-02  8.6869526724458551e-02  9.1293032029048232e-02  9.3814955084357943e-02  1.1175389227604941e-01  7.9491442072235075e-02  1.0326899815147961e-01  1.0486813456159425e-01  9.8956975675857275e-02  9.5838629910651521e-02  5.4672930149215100e-02  5.9609057529202099e-02  1.1936317156686579e-02  1.1063891000514746e-01  1.1191401586468860e-01  1.1544815985641668e-01  1.0268293911620585e-01  7.1297827668258387e-02  3.0516494441352328e-02  8.9804194089106809e-02  7.9322786335744438e-02  7.8970582605199527e-02  9.5055557544821770e-02  1.1717041009580413e-01  1.1250081714013434e-01  1.0756375776467060e-01  6.3860103978574903e-02  9.4142100782964269e-02  1.1613822152970203e-01  2.3393254307335430e-02  2.0847397149438025e-02  3.4033441778937211e-02  8.4058981472526634e-02  1.0018763328751341e-01  9.5839989322309388e-02  8.7118433793978503e-02  9.1375971835070277e-02  6.9436994274167704e-02  8.2056489915045425e-02  1.8893380970990878e-01  1.9107236729969435e-01  1.1410854361948068e-01  1.1849432299707434e-01  1.9632317109918029e-02  3.0139551927259862e-03  1.6814468334782440e-01  2.0067666308490234e-01  1.1672153597320925e-01  1.0433947867216235e-01  6.7368604648046615e-02  9.3705264788744684e-03  9.5213111398146852e-03  1.0484101863446942e-01  1.1558382161808337e-01  1.2727235172220897e-01  5.5639554126544729e-03  2.5810303443748544e-03  8.8625833137629090e-02  9.2337591760854223e-02  1.2378103192071191e-01  1.2253748730479602e-01  9.2122277467740182e-02  9.1100282066681706e-02  2.2622205906360920e-02  1.1516515335255889e-01  9.2422258851457148e-02  5.4053502892170931e-02  5.9516829951719530e-02  1.0047437441215151e-01  9.5636596174080532e-02  8.6895661636137156e-02  9.0814211054373206e-02  5.1923194525983492e-02  2.0725366607570420e-02  2.7711749037869792e-03  8.0742048835949723e-02  1.0447842790934080e-01  2.0269276082517135e-02  3.3234497319775222e-02  1.0488963965177706e-01  4.5414642629209780e-02  4.8381202363813609e-02  1.1818790139063308e-01  9.1230297956829687e-02  8.2528214462708610e-02  8.6126251938822396e-02  9.4669427545090654e-02  8.9621380759579136e-02  1.8539488104812482e-01  1.8770980216090297e-01  2.7817267646380525e-02  3.6791943808829823e-02  2.0486903925184423e-02  1.0033900214740581e-01  1.9731132811936225e-02  3.2475534209860969e-02  4.8585322287710633e-02  4.7584963506566935e-02  6.6699537327252617e-02  6.5470503766522956e-02  4.6624357616564610e-02  6.4270307035193638e-02  4.5709397942777695e-02  6.3105327734132674e-02  4.4846351848766487e-02  6.1982380455701799e-02  8.5683066953938652e-02  4.4041836118109773e-02  6.0908692131697029e-02  6.9601056529392481e-03  3.8160013509622892e-02  1.6858793056032131e-01  2.0260834724789589e-01  7.5054838898944098e-02  7.5180765293545546e-02  5.3490716636475734e-02  5.9506249009489302e-02  9.4123819236964258e-03  9.8905141440955753e-03  8.9550339792658154e-03  9.7013437121644275e-03  1.0392490708152975e-02  1.7629344518373322e-01  6.9746070346298657e-03  2.0817198728819665e-03  9.8375123477416879e-02  9.2936480260364634e-02  8.4861696639311771e-02  8.7823026911127561e-02  5.3273427345485978e-02  5.9314454085809445e-02  9.4035694308522558e-02  7.3983941885750443e-02  7.2004251275969877e-02  5.6376135604854223e-02  5.4184936711906072e-02  4.1189787676931426e-02  3.8912480316654473e-02  2.8237825526806693e-02  1.3948079823736600e-01  2.2495023628964989e-01  4.3302782866510778e-02  5.9891863356192176e-02  8.1639868166370894e-02  8.0360388124341958e-02  1.0701746393664295e-01  1.0555729153902320e-01  7.9128547718355965e-02  1.0411749897971985e-01  7.7952983949438684e-02  1.0270664256932771e-01  7.6842590667869443e-02  1.0133359202211702e-01  7.5806411313261921e-02  1.0000754006386539e-01  7.4853477499474810e-02  9.8738023673507869e-02  7.3992702305193059e-02  9.7534524907934309e-02  7.3232795574957890e-02  9.6406222141159570e-02  7.2582024909185791e-02  9.5362275621355061e-02  7.2048019229134175e-02  9.4411430568179328e-02  6.4322773201226632e-02  9.5974575422906425e-02  9.0496754599734053e-02  8.3147654297548293e-02  8.5493369396161437e-02  9.2768740446666428e-02  8.7454504738871355e-02  8.1977756799654564e-02  1.0565816300167989e-01  1.3038901836147129e-01  1.3134455716426510e-01  1.5736751405296920e-01  1.5791815316320956e-01  9.9170591050415750e-03  1.0922112677158733e-02  1.7180431608998126e-02  2.1269325177022146e-02  3.2547358444691261e-03  2.5955541112623742e-02  1.7295570864081802e-02  1.5214206994606180e-01  1.5118834432489750e-01  1.1248189909139783e-01  1.1115774480888344e-01  9.0069050665200712e-02  1.0983737692234154e-01  8.9033119705356753e-02  1.0854999023995424e-01  8.7996442507112457e-02  1.0726449608976618e-01  8.6955984909003720e-02  1.0597496497686934e-01  8.5908828649030419e-02  1.0468515890047658e-01  8.4856461184341689e-02  1.0340086829803780e-01  8.3798744016989613e-02  1.0211637616307739e-01  8.2737194030225017e-02  1.0083407346685136e-01  8.1671565352576317e-02  9.9567749385741575e-02  8.0571659967853940e-02  9.8303455695634187e-02  7.9494430457213591e-02  9.7040533073102911e-02  7.8447458797002337e-02  9.5789439647978841e-02  7.7373230468781598e-02  9.4533453654332286e-02  7.6290006573052863e-02  9.3279622656901859e-02  7.5202371652180924e-02  9.2026363725936727e-02  7.4110728299726800e-02  9.0780953293169403e-02  7.3016574562646555e-02  8.9542580671948493e-02  7.1920408503465927e-02  8.8297628339758794e-02  7.0819743674985350e-02  8.7059298160188703e-02  6.9716654777716741e-02  8.5826370434922847e-02  6.8594098754939353e-02  8.4590538390282799e-02  6.7482615705375198e-02  8.3358124041796405e-02  6.6388115591234365e-02  8.2129473080352108e-02  6.5225638139977629e-02  8.0894774851557064e-02  6.4100925565834438e-02  7.9667505346170078e-02  6.2996791523812573e-02  7.8446767228974673e-02  6.1879416270187504e-02  7.7228723947434019e-02  6.0793596162659988e-02  7.6019970918177679e-02  5.9626548554233820e-02  7.4794473702870873e-02  5.8492814723817552e-02  7.3578244605782175e-02  5.7378949210875468e-02  7.2368938151572221e-02  5.6253498071470044e-02  7.1162129975006774e-02  5.5168100661153185e-02  6.9963073631299222e-02  5.4002077931421727e-02  6.8757432685131278e-02  5.2863033669566364e-02  6.7553306978997640e-02  5.1773147968531191e-02  6.6363009880846105e-02  5.0652313011452350e-02  6.5171599615674036e-02  4.9528136673958591e-02  6.3980292645098177e-02  4.8404788203981475e-02  3.4850296183860270e-02  8.9044151396704685e-02  8.5731068479936876e-02  9.0961130776239907e-02  8.7274102479130256e-02  9.3260057520917733e-02  8.1207239299594877e-02  6.3004298397292394e-02  1.1137505875561343e-01  1.4842740021186990e-01  1.7852197748359824e-01  1.6177222964203691e-01  8.5348059865935008e-03  1.7104849538731796e-03  1.1072689723406688e-01  1.3453314132693886e-01  1.2694882772486521e-01  6.2793102819707666e-02  4.7282821064562448e-02  8.2311111386662958e-02  7.5487783404745046e-02  4.5022989538687351e-02  5.0174373579500463e-02  3.9885620779673669e-02  5.7131835040970080e-02  6.0768394349228538e-02  1.6888127777575906e-01  2.0453395555781034e-01  1.3529827002965680e-01  2.3517052224517096e-01  2.3887138407727060e-01  3.0547730306507301e-02  3.0487434055350676e-02  1.8581417060331954e-02  7.1637657327641602e-02  9.3561589629166331e-02  5.5441942103803925e-02  5.1040820542328863e-02  5.3987181912221786e-02  5.1301201940489753e-02  5.6817735147124744e-02  5.4142779696243530e-02  5.9524385312852354e-02  5.6872609691453441e-02  6.2070346016655932e-02  5.9468510864075112e-02  6.4461994733209793e-02  6.1917401455743974e-02  1.8323434343363764e-02  9.4453225184610967e-02  8.8902160742713482e-02  1.2820052873565115e-02  1.3317139140451378e-02  1.8685443876599267e-01  7.9006379538469243e-02  1.2718180985418590e-01  7.0680888192232075e-02  7.1243884013291167e-02  3.6508135748014314e-02  2.0166078844959412e-02  9.4783321926759905e-03  8.6394464892369305e-04  2.0643413842978697e-01  2.4273385271089434e-01  2.6718660561419083e-01  2.7279436690242809e-01  2.1386452887054163e-02  3.1489650940361631e-03  1.8384395447971788e-01  1.8382997026057479e-01  1.5842321276886445e-01  1.8377551242164492e-01  6.1609292843606653e-02  4.6163848301430138e-02  3.1838327558812003e-02  3.0825753852121225e-02  4.5049320774343933e-02  2.9815219447647378e-02  4.3938713460428776e-02  2.8805805878813703e-02  4.2766026329345584e-02  2.7786568580606692e-02  4.1655190033898525e-02  2.6775745615317804e-02  4.0561277044966877e-02  2.5770086255922448e-02  3.9476903218526260e-02  2.4766857936731900e-02  3.8467839090847965e-02  2.3777891853529954e-02  3.7348750913726407e-02  2.2778234551442320e-02  3.6281562575286370e-02  2.1788174204247175e-02  3.5231206972033809e-02  2.0811255445091208e-02  3.4191224336027490e-02  1.9849090457990187e-02  3.3224371656724802e-02  1.8910319834376653e-02  3.2154901469748032e-02  1.7979265887906361e-02  3.1135033035500328e-02  1.7079490798153140e-02  3.0131893147969491e-02  1.6211600959060140e-02  2.9138166588009926e-02  1.5381277363208925e-02  2.8212534617042494e-02  1.4600473657539173e-02  2.7191109939946913e-02  1.3856327041023317e-02  2.6215597061437466e-02  1.3168834594639186e-02  2.5255929971926168e-02  1.2540302850849715e-02  2.4306295379704416e-02  1.1974845287499798e-02  2.3420391904721255e-02  1.1479524412096494e-02  2.2450265494493731e-02  1.1046947771308593e-02  2.1524857398702749e-02  1.0686061659804028e-02  1.1398244053790715e-02  1.0214137799563405e-02  1.1592402307276496e-02  1.6586849623588203e-02  1.3482837243698387e-02  2.0669575589961953e-02  1.0399494810977850e-02  1.1582158552718064e-02  1.1250519157089751e-02  7.5337690198898535e-02  7.1804293479715328e-02  7.5507877049307767e-02  7.2349753745261591e-02  7.5675261330385601e-02  7.2870679509021874e-02  7.5839643997314077e-02  7.3361959575945324e-02  7.5990410258715307e-02  7.3818474242666368e-02  7.6123625686328439e-02  7.4240584555953920e-02  7.6236830859373370e-02  7.4625221118279461e-02  7.6328237037432134e-02  7.4973432378039592e-02  7.6397694699398055e-02  7.5287144555595709e-02  7.6445175667315596e-02  7.5565706434138583e-02  7.6471460576439096e-02  7.5811203082881126e-02  7.6476828694484425e-02  7.6026239724067565e-02  7.6462461119755645e-02  7.6211423404231982e-02  7.4853126533079559e-02  7.6429705493092845e-02  7.6367900418816859e-02  7.6379486691948745e-02  7.6498174024340809e-02  7.6312873291055322e-02  7.6603846454154773e-02  7.6231116661178169e-02  7.6686334229673275e-02  7.6135370536867933e-02  7.6747439895865827e-02  7.6026764197148169e-02  7.6788351665659060e-02  7.7084429889086203e-02  7.7280793728839461e-02  7.6810572183821549e-02  7.7451924048516085e-02  7.6815383598095727e-02  7.7599335400863959e-02  7.6804154480554651e-02  7.7724645461800967e-02  7.6777878109589220e-02  7.7829126731246645e-02  7.6737961977240920e-02  7.7914272839969656e-02  7.6685044856952878e-02  7.7981166609366548e-02  7.6620596327767881e-02  7.8031236697623296e-02  7.6544608909986225e-02  7.8065867794277558e-02  7.6459480068266625e-02  7.8084715421662079e-02  7.6364938972036708e-02  7.8090310938227839e-02  7.6261418605806458e-02  7.8083938959876698e-02  7.6150877640650538e-02  7.8063796735322294e-02  7.6030827035435691e-02  7.8033065226197726e-02  7.5907346661192504e-02  7.7991332511184175e-02  7.5772241387244268e-02  7.7940160168069872e-02  7.5634340047596324e-02  7.7878919184702619e-02  7.5497599568892182e-02  7.7810954361692553e-02  7.5349383443995097e-02  7.7739505782378954e-02  7.5202823952474976e-02  7.7657993628465968e-02  7.5043275830286651e-02  7.7567348834277322e-02  7.4884894147538225e-02  7.7470804641348201e-02  7.4724417483225988e-02  7.7368626562117959e-02  7.4561484413060070e-02  7.7261190757376683e-02  7.4396264267941062e-02  7.7148920119759892e-02  7.4228894585937191e-02  7.7032126282808921e-02  7.4067483660890110e-02  7.6912425471838838e-02  7.3893466435408325e-02  7.6787335090086811e-02  7.3725858200162114e-02  7.6659666675313806e-02  7.3545289588620610e-02  7.6527117257419036e-02  7.3369436388492720e-02  7.6392182788441496e-02  7.3193828105598088e-02  7.6254815985553018e-02  7.3017657130171776e-02  7.6115016110941097e-02  7.2851615003028905e-02  7.5974638431712552e-02  7.2676689493728519e-02  7.5831184179448841e-02  7.2488880113652343e-02  7.5683619283486686e-02  7.9018260189159931e-02  7.9406068756133444e-02  7.9873643277814918e-02  7.9712582744636537e-02  1.5888668637997908e-01  1.8368348076072788e-01  3.6612621175515087e-02  2.8420897173024506e-01  2.9088624951684722e-01  2.7874743670775526e-01  2.9797463639257304e-01  5.7009536851945194e-02  5.9513847542702961e-02  1.6056217699879077e-01  5.4691485052207181e-02  5.7250896287695752e-02  5.2504909373858752e-02  5.5118008259706648e-02  5.0439672213218420e-02  5.3105192084892540e-02  4.8486464487534978e-02  5.1206453072606448e-02  5.9677329700783051e-02  4.6637400748320804e-02  4.9410545714311617e-02  4.4885678348128052e-02  4.7696726307960791e-02  4.3219782798607616e-02  4.6076977075037023e-02  4.1636549452730202e-02  4.4537254679390542e-02  5.0429995767721551e-02  5.5421698849247004e-02  7.1356844786331683e-02  9.2819948852981435e-02  7.1210246498106353e-02  9.2192896315451148e-02  7.1201151419429232e-02  9.1685468359014588e-02  1.2073304846410028e-01  7.1331354766348776e-02  9.1301292397342929e-02  7.1600901466002786e-02  9.1042757930258428e-02  7.2008032704610744e-02  9.0910408071966653e-02  7.2549146268009443e-02  9.0903007327502811e-02  7.3218533395848467e-02  9.1017788879821399e-02  7.4008315931049978e-02  9.1249952467983730e-02  7.4908523689436513e-02  9.1592576052841559e-02  7.5907175420416070e-02  9.2036711940114618e-02  7.6990282078448519e-02  9.2572016006275418e-02  7.8141922526453703e-02  9.3186593496752831e-02  7.9344815102126806e-02  9.3866073233714917e-02  8.0580547334559383e-02  9.4595299988395484e-02  8.1829520465702327e-02  9.5359075403650559e-02  8.3071813215480100e-02  9.6140161383270265e-02  8.4288024403706821e-02  9.6920322837448156e-02  8.5458834455064081e-02  9.7684871749158589e-02  8.6565015694765657e-02  9.8420599688335927e-02  8.7590241828949894e-02  9.9106609257861258e-02  8.8521082076579619e-02  9.9728497384936818e-02  8.9343083927762648e-02  1.0028293953038822e-01  9.0045756937267213e-02  1.0075576545047313e-01  9.0623237117862271e-02  1.0113718468282039e-01  9.1070621915887717e-02  1.0142642871344792e-01  9.1385726014310567e-02  1.0162143407017514e-01  9.1570211096860005e-02  1.0172141869857529e-01  9.1628475291600786e-02  1.0172894584981367e-01  9.1567109950529801e-02  1.0164952768753763e-01  9.1395116031718432e-02  1.0148959016886844e-01  9.1123494835169086e-02  1.0125798840569525e-01  9.0764697502748681e-02  1.0096420956027827e-01  9.0332613015543781e-02  1.0061827878811895e-01  8.9841715838223951e-02  1.0023176240305447e-01  8.9306726968001751e-02  9.9815974106590447e-02  8.8742425560587770e-02  9.9381893946328820e-02  8.8163274861899871e-02  9.8939847122533106e-02  8.7582686380844474e-02  9.8501101154089415e-02  8.7012956337236894e-02  9.8073332583376457e-02  8.6465671145260353e-02  9.7663505568716460e-02  8.5950526915267889e-02  7.7416055249244567e-02  7.6760901586714794e-02  8.5475587802866862e-02  7.6160188434897691e-02  8.5046826760655503e-02  7.5621511469076530e-02  8.4668857875804124e-02  7.5150192997518642e-02  8.4345975691023922e-02  7.4749622548861278e-02  8.4079742239335079e-02  7.4421872543108947e-02  6.6747165763646268e-02  6.6343240995170055e-02  7.4167251266186549e-02  6.6027680806254180e-02  7.3984249442575603e-02  6.5798882068424422e-02  5.8962598622939656e-02  5.8681198820071882e-02  6.5653774657501676e-02  5.8497134392715130e-02  6.5587992638251477e-02  5.8405400819669238e-02  6.5596440672576584e-02  5.8399933964399103e-02  5.1972729578749884e-02  5.1948476632084475e-02  5.8473887426262014e-02  5.2014338570006910e-02  5.8619973317787163e-02  5.2162010937415515e-02  5.8830842915663262e-02  5.2383288928234413e-02  5.9098373252960815e-02  5.2669304722030991e-02  5.9415599151556378e-02  5.3011306575880664e-02  5.9775541069504015e-02  5.3401290780102646e-02  6.0171582446456096e-02  5.3831908474030674e-02  6.0597402464503514e-02  5.4295922091719656e-02  6.1047502988267249e-02  5.4786743476824412e-02  4.8506500838925104e-02  4.9031326428098737e-02  5.5299078793228026e-02  4.9579906346142157e-02  5.5827131751164959e-02  5.0140881915516813e-02  5.6365664942704757e-02  5.0718494743952229e-02  5.6934700742956923e-02  5.1292170653728937e-02  5.7486782479998381e-02  5.1883624427780120e-02  5.8011726314905906e-02  5.2495509114503590e-02  5.8562431377150150e-02  5.3063533258539734e-02  5.9122544833375298e-02  5.3649337839045463e-02  5.9665847724401956e-02  5.4378159999614560e-02  6.0231500186843839e-02  5.4554777130871729e-02  6.0715438076770198e-02  5.5705784667855994e-02  6.1306816903011548e-02  5.6122490548709374e-02  6.1795587657593909e-02  5.5866839279231154e-02  6.2235531100879704e-02  5.7235138521229592e-02  6.2758861677683103e-02  5.7588805777779868e-02  6.3211602783373996e-02  5.8066805988357756e-02  6.3664587925642876e-02  5.8559555344032441e-02  6.4111505815619280e-02  5.9043891440080667e-02  6.4549961294978420e-02  5.9515376471673674e-02  5.4239982176470296e-02  5.4740525815946704e-02  5.9975586480822039e-02  5.5226671019959074e-02  6.0423829540428860e-02  5.5700579892536746e-02  6.0859988899467761e-02  5.6162022913318156e-02  6.1284637193503189e-02  5.6610612417986518e-02  6.1697896567245530e-02  5.7048161458099336e-02  6.2099850019556653e-02  5.7530680690103204e-02  6.2515955565025996e-02  5.8081081730368848e-02  6.2891660445952152e-02  5.8448073946345269e-02  6.3272609453836948e-02  5.8714420315549874e-02  6.3617525148817036e-02  5.9073335222493979e-02  6.3954990805769399e-02  5.9438685340234464e-02  6.4297679373629665e-02  5.9799492758142690e-02  6.4631765293050453e-02  6.0151715631688328e-02  6.4959088061725831e-02  6.0494133757711399e-02  6.5277462451247034e-02  6.0827540876420540e-02  6.5587262186463838e-02  6.1154196188344410e-02  6.5889023767923924e-02  6.1473590908923709e-02  6.6183620750299030e-02  6.1784607714868954e-02  6.6471140041358262e-02  6.2089016867730495e-02  6.6752158039174364e-02  6.2385551860185288e-02  6.7026583819643049e-02  6.2676114538322059e-02  6.7295241341256778e-02  6.2968052950006653e-02  5.7820851291908795e-02  6.7559387761451081e-02  6.3134922585127401e-02  6.7798166012798797e-02  6.3417800205437594e-02  6.8049619956528043e-02  6.3760561380524605e-02  5.8962765761498365e-02  5.9586511424950861e-02  6.4038060716857498e-02  5.9673512719268629e-02  6.4265110023642102e-02  5.9905495604469526e-02  6.4505382846026610e-02  6.0343645223237437e-02  6.4794085030088572e-02  6.0635679470441337e-02  6.5034748459190064e-02  6.0892795361754619e-02  6.5273345538302746e-02  6.1140828343439903e-02  5.6817395773298668e-02  5.7071525949698748e-02  6.1383493674364277e-02  5.7321209916409516e-02  6.1609181019900053e-02  5.7569740522146827e-02  5.3256466715957095e-02  5.3423578722631718e-02  5.7895980269974341e-02  5.3686800770588156e-02  4.9166343002072968e-02  4.9470294211728993e-02  5.5023497811988127e-02  5.8264005203779452e-02  5.2033196361393835e-02  5.0450749998607887e-02  4.8565535181187496e-02  4.6770744355764303e-02  5.6507790528798299e-02  4.6102300739899307e-02  5.5480288268776212e-02  4.9647572692659431e-02  4.3106624673288511e-02  5.4171550919671262e-02  5.2843121758272341e-02  5.1170318445181225e-02  4.5433315715532017e-02  4.4775869373642037e-02  4.5088254201268857e-02  6.6215328970980883e-02  6.8783410831612601e-02  6.2505068170327790e-02  6.8023093344728003e-02  6.9484144835014722e-02  6.8998126212284044e-02  4.0293695460805620e-02  4.0420668652328885e-02  4.5548834464127372e-02  4.0235904261119747e-02  3.5762067838129984e-02  6.6012731299901165e-02  6.4004304492756153e-02  5.2659892148926538e-02  7.0181102185923688e-02  7.0998129850151234e-02  3.5705089708085808e-02  3.1411235542694010e-02  6.9133091813643396e-02  6.7455657459799492e-02  6.6003568699228229e-02  7.2004357218689793e-02  4.0490647277543132e-02  4.6203289424436460e-02  6.7207057566809572e-02  7.3835080839123143e-02  6.8479666499438888e-02  3.1315271864289035e-02  2.7150694302713108e-02  4.0610975866307721e-02  4.6761668583656123e-02  2.7185442951167531e-02  3.5289759189606480e-02  3.1161229938388563e-02  3.5292289802105817e-02  2.2877886547069667e-02  4.0780851653311974e-02  4.6980493276092397e-02  5.3086976366906007e-02  5.3912816591920279e-02  4.6864554566240585e-02  5.4884214790098917e-02  6.0020020658673172e-02  1.9790132292190035e-02  1.0187079642636033e-02  1.8874965370439870e-02  1.0044922269814377e-02  1.8040857124067521e-02  9.9729155000059973e-03  1.7189069734645540e-02  9.9685230619515897e-03  1.6420907913469264e-02  1.0026126421384845e-02  1.5651283433246184e-02  1.0147011509109157e-02  1.4906431267379356e-02  1.0324660573225947e-02  1.4194614842997319e-02  1.0553987576345373e-02  1.3519462797975513e-02  1.0829763411061151e-02  2.0805329874625154e-02  1.2883713397323294e-02  1.1146607111014867e-02  1.2289733065987208e-02  1.1500072672569720e-02  1.1740040350269397e-02  1.1881341603340794e-02  1.1236707959068020e-02  1.2287849982494718e-02  1.0779718450142483e-02  1.2714516294813662e-02  2.3793376860199805e-02  1.0370345883175857e-02  1.3155865770218827e-02  1.0008734792894805e-02  1.3609685311234335e-02  9.6950954495942845e-03  1.4065982758263925e-02  9.4291035550090989e-03  1.4525536068165611e-02  9.2087574764049655e-03  1.4984797862289335e-02  2.6340930293485512e-02  9.0330059113673845e-03  1.5439848659953587e-02  8.8998366884282809e-03  1.5891518743385846e-02  8.8073887367010641e-03  1.6329227447732554e-02  8.7529279235040846e-03  1.6762828137513931e-02  8.7338953401714364e-03  1.7181034249292140e-02  2.8456048442003910e-02  2.4383361923786231e-02  2.0000324803027508e-03  3.1027193606630660e-02  3.5153985554009809e-02  7.6324818502312236e-02  4.9129402511853583e-02  8.7470553046749694e-03  1.7585192847445107e-02  1.1625218652994146e-01  5.1513738120512832e-02  5.9139196063115872e-02  7.9976873885933109e-02  7.9918494364096357e-02  1.1644592798206359e-01  1.2086646770845853e-01  5.5009525161869362e-02  1.8151632055692424e-02  1.6091207609793497e-02  1.4110345559760165e-02  4.4930943718141422e-02  5.4178650402039716e-02  4.0129277361098677e-02  4.3071657066525160e-02  3.1463846562293403e-02  2.1801438446354907e-02  6.8985974812467085e-02  7.5965518896648598e-02  2.8554263698767907e-01  1.8595237155779262e-01  1.9009577835711325e-01  1.6382178121331906e-01  1.5143218019587826e-02  8.1717143490778292e-03  9.5270348377266403e-02  8.9643068321599934e-02  8.3953986716692588e-02  8.4571673876843056e-02  8.9395131435011585e-02  8.4417864491384192e-02  2.0872752845695352e-02  6.6696368360426445e-02  1.5930811628880906e-01  1.8355703447252170e-01  1.1432527935766777e-01  7.6065577932835832e-02  6.8615526877103983e-02  7.3320658606218281e-02  8.3197133750796404e-02  7.2309142319742475e-02  7.5535239537046980e-02  1.8226290612108759e-01  1.8182216457636621e-01  7.5327139857925010e-02  4.7297412464466629e-02  5.5350005605732375e-02  1.0507559283498967e-02  7.9697619919904386e-02  3.4081564786974688e-02  3.9039328719602966e-02  7.4443047536759302e-02  4.4366047978443297e-02  4.9928337410370435e-02  5.5657904469270533e-02  7.6514024688562457e-02  8.2785156864206094e-02  8.9186417676659954e-02  9.5726014106458812e-02  6.6174081412593011e-02  1.0243171761604682e-01  7.9604084354295723e-02  5.7262998578782670e-02  7.3443111368465111e-02  7.1530553575326561e-02  1.5628489072144151e-02  1.5945608405698520e-02  1.3165445444229565e-01  7.9356223252129265e-02  1.0175370248883937e-02  3.0773859978922583e-02  3.4939043112568458e-02  3.0571312697525152e-02  3.4747423740922899e-02  3.0424061842506754e-02  3.4532871945405851e-02  3.0230973341414686e-02  3.4334331625001720e-02  3.0065076161309753e-02  3.4015336940041316e-02  1.1430986191231261e-01  1.4445725158250679e-02  2.7794581058205827e-04  8.7680099248582929e-02  8.3233311417885078e-02  1.1327474908339883e-02  2.4215214925578266e-01  4.5750968046432486e-02  7.8768821114407663e-03  1.8381563503614581e-01  1.1672067050439365e-01  1.0261669386696022e-01  1.0374794336991396e-01  8.9737908473572825e-02  9.1847873714027056e-02  8.7748209218892245e-02  1.6400143748336735e-01  6.6835414892301255e-03  7.4347569141209775e-03  2.2481161538300862e-01  1.8264492071143734e-01  8.7032977966605571e-02  8.6277516544170901e-02  8.5962109849955309e-02  8.4879896051118092e-02  8.4629758740553437e-02  8.3364720162972417e-02  8.3545281558800880e-02  8.3246224132742991e-02  8.1962765302145177e-02  8.2057621853818041e-02  7.1377468413924214e-02  2.8507956507613458e-01  3.0550697897288853e-01  2.9836454118893671e-02  3.3783789760929911e-02  1.1378197664218941e-01  7.8838726571577408e-02  2.0804771200021530e-01  4.9907219756343248e-02  3.4913814690007150e-02  9.6078136584129142e-02  1.1599124688815872e-01  6.6221907474506458e-02  6.5250059767472252e-02  7.7815437856498151e-02  2.2926704031570096e-02  8.7900442425419573e-03  1.7974925128875534e-02  2.9539105632750074e-02  2.9863239318501260e-02  1.8348901649935811e-02  3.0171182057810452e-02  1.8706985114225822e-02  3.0462499133121466e-02  1.9049269649050397e-02  3.0738052389784914e-02  1.9375053945567926e-02  3.0997130106538109e-02  1.9684196099433861e-02  3.1240818812913719e-02  1.9976719027468608e-02  3.1468096018989956e-02  2.0252552711444615e-02  3.1680127795110702e-02  2.0512569814210006e-02  3.1875772788047499e-02  2.0755981698957995e-02  3.2056530088606372e-02  2.0982953661179617e-02  3.2221030532766218e-02  2.1193796544776725e-02  3.2372833586236646e-02  2.1389269178738592e-02  3.2505859565957598e-02  2.1569667452354047e-02  3.2624407505702294e-02  2.1733853952971536e-02  3.2729393434423992e-02  2.1882944462937020e-02  3.2818289511269902e-02  2.2017190387484925e-02  3.2897767666557082e-02  2.2137549233573726e-02  3.2955709589259891e-02  2.2244199817259520e-02  3.3011676941578090e-02  2.2336460144829092e-02  3.3046647165438363e-02  2.2412629439643440e-02  3.3067139884817180e-02  2.2476085688313906e-02  3.3059990436244802e-02  2.2525669022295119e-02  3.3052325155064399e-02  2.2565674330673122e-02  3.3046935654038552e-02  2.2591970911496902e-02  3.3016644144491965e-02  2.2604669053922836e-02  3.2971426721814474e-02  2.2605218480916543e-02  3.2913476958925825e-02  4.3226514629345424e-02  4.3651957192634656e-02  4.3717344248567179e-02  4.3460115780855957e-02  8.4009868200146651e-02  8.0628397834900181e-02  6.8543757056011845e-02  7.6912276704326862e-02  1.1515457973649050e-01  2.2593866784159825e-02  3.2843487401477293e-02  2.0591975628992415e-01  2.0515618079064446e-01  1.8339872594367104e-01  2.0438003731287913e-01  1.8329080527271951e-01  2.0359979392624603e-01  1.8303049561992624e-01  2.0278964977247776e-01  1.8282145952033466e-01  2.0199321355575325e-01  1.8255160987211583e-01  2.0117233858055236e-01  1.8218755505020315e-01  2.0026917699268423e-01  1.8197337016403436e-01  2.0213582363079616e-01  5.1836100995841128e-02  5.9161964204149320e-02  1.8571404857722264e-02  7.2390705192540358e-02  7.0480785659089995e-02  6.9654388371951398e-02  4.2597356631898911e-02  1.1685383599335292e-01  6.5809782776786424e-02  3.8692767144614663e-02  4.1675520324722742e-02  4.5944141786906083e-02  4.4593052718925393e-02  4.0343504278926558e-02  4.3303578788825084e-02  3.9063785837120613e-02  4.2070077854243451e-02  3.7845651132052217e-02  4.0891071124901958e-02  3.6687719032831016e-02  3.9764291267763492e-02  3.5573029588551422e-02  3.8682938331685630e-02  3.4492097219264523e-02  3.7643941694423234e-02  3.3463278277733731e-02  3.6647557068116232e-02  3.2486843736005314e-02  3.5691184334038714e-02  3.1531398574309213e-02  3.4776530396486940e-02  3.0618406014196083e-02  3.3893303544848846e-02  2.9741024820290424e-02  3.3034999283336884e-02  2.8883164821634395e-02  3.2210528264718395e-02  2.8072012846833201e-02  3.1417832631879389e-02  2.7288212236864829e-02  3.0657788346829414e-02  2.6529940335130852e-02  2.9923012023163161e-02  2.5797219496591462e-02  2.9207932848756384e-02  2.5088328569828115e-02  2.8518210051894151e-02  2.4402986888146946e-02  2.7852349725931161e-02  2.3740603467697258e-02  2.7208771116579097e-02  2.3101838740106864e-02  2.6586789150114164e-02  2.2481926359546146e-02  2.5983391448879248e-02  2.1883493321877358e-02  2.5398744658159427e-02  2.1302214400863516e-02  2.4832057864926548e-02  2.0743132766164421e-02  2.4283753690825298e-02  2.0197542653929344e-02  2.3750941686201905e-02  3.9784287706877731e-02  3.5497006460564945e-02  3.1917485962122454e-02  4.8744206521479802e-02  2.9459211750679538e-02  2.6500763825638377e-02  1.6467938578211224e-03  4.1694457907323138e-02  6.2066070005547556e-02  5.4778151918048440e-02  1.3629380226774953e-02  2.9146149624858933e-04  1.4954907428058953e-02  1.5171683424574630e-04  1.9667361131076148e-02  2.3234068109629715e-02  6.4866500716762962e-02  5.6834580988627710e-02  5.3879410871755420e-02  4.3050696187162132e-02  4.2913508020131295e-02  3.2761648585418954e-02  4.2765661710304242e-02  3.2668185263882613e-02  4.2607345367632249e-02  3.2563581509735068e-02  4.2438782189884602e-02  3.2448010903628907e-02  4.2260312219105187e-02  3.2321455397952004e-02  4.2072211136953232e-02  3.2184310601424827e-02  4.1874684469469688e-02  3.2036927350020984e-02  4.1668008724457244e-02  3.1879366792071810e-02  4.1452438838863764e-02  3.1722103681292482e-02  4.1229733044841198e-02  3.1547378038320820e-02  4.0997552526867279e-02  3.1361744005465833e-02  4.0756770662288104e-02  3.1160563706241869e-02  4.0506926852939523e-02  3.0962012807704890e-02  4.0251025009276298e-02  3.0750703726045058e-02  3.9987260104016049e-02  3.0530295723690155e-02  3.9716102383236487e-02  3.0268785901851128e-02  6.0661844359580420e-02  7.9693968681036925e-02  1.8218388855734288e-01  1.9716319081520287e-01  6.9016365717193454e-02  4.3878787871492859e-02  2.7286741399096138e-02  2.6783272555766860e-02  2.2732341541219482e-02  2.6294304539160328e-02  2.2244307164488809e-02  2.5819097083353386e-02  2.1770785267323269e-02  2.5357292716328052e-02  2.1309110776318575e-02  2.4908057070950871e-02  2.0861233965565509e-02  2.4471214102717812e-02  2.0424893128681305e-02  2.4046022472395488e-02  2.0004524119980875e-02  2.3632745874339573e-02  1.9583763303123392e-02  2.3228490688761171e-02  1.9197471587967974e-02  2.2838275142123832e-02  1.8802265641585388e-02  2.2455472992683013e-02  1.8425368013327417e-02  2.2082913065112189e-02  1.0128911743063256e-01  1.8547746091618963e-02  7.9540272468291276e-02  8.1927372537680940e-02  1.1038755648748762e-02  1.4287048523013096e-02  6.3216709016600592e-02  4.7500658978101566e-02  5.6130192406111543e-02  3.9073833546730219e-02  6.0299618050088577e-03  3.2287179817022818e-03  3.8101535956426317e-03  6.6288602240037074e-03  5.5778103121055089e-03  1.0600655260435618e-02  1.1638207378706288e-01  2.9182650715393665e-01  3.1351575611206300e-01  3.0663550493423380e-01  3.1434930992674004e-01  2.8644317714575612e-01  2.9230357470444329e-01  3.2239522298642220e-01  2.9815526371694501e-01  3.3076310070270959e-01  3.0391435906816056e-01  2.4793302424893743e-01  2.4583463303407271e-02  1.6216255434963411e-02  -1.0368602490644975e-05  2.9617732183723940e-02  3.3564241947629851e-02  1.4971450571268642e-02  1.4949773672775645e-02  1.0959122766503076e-02  1.4987581396469590e-02  2.4549118749980555e-02  4.1054698015905645e-02  1.1479240705304032e-01  5.1225992714826640e-02  5.9570654749788003e-02  5.0197197539653723e-02  5.9132201321715795e-02  1.8648828863705048e-02  8.4778812686649357e-02  8.4474798160402986e-02  8.5214838824797232e-02  8.4861353323941915e-02  8.4892463424683290e-02  8.4598885790542658e-02  8.4519283208501536e-02  8.4298972408229089e-02  8.4182904437435063e-02  8.4129861863352015e-02  8.3979592495118924e-02  8.3852246781278769e-02  8.3685796295587117e-02  8.3471744988497076e-02  8.4373645875581507e-02  8.3360387222464416e-02  8.3554756374852268e-02  8.2489145822912238e-02  8.2582031345657864e-02  8.2290298399327583e-02  8.3356438862100479e-02  8.3133126774200983e-02  6.8812163996677111e-02  8.0516427610006519e-02  8.0509738761681438e-02  2.8973348626256949e-02  1.3028686267620173e-03  3.0179024555975369e-02  1.2119244767130092e-03  8.2016366507916619e-02  8.1691462283659352e-02  8.2825475170458768e-02  8.0946410080450018e-02  3.9408705319202320e-02  3.0009903978041933e-02  1.0653777565914013e-01  2.1231144851896674e-01  2.1191901047593814e-01  7.6844803775940648e-02  4.1549060335114726e-02  5.6311047861806698e-02  5.6629307404180027e-02  6.8659339976488071e-02  6.7973821570347814e-02  6.8631793873158639e-02  7.6743473946079763e-02  7.7297292957659997e-02  8.2228328725336253e-02  8.2822190760851969e-02  8.5091770516301513e-02  8.5595704924684088e-02  8.4441773748250473e-02  8.3588045235388014e-02  8.6111356293594912e-02  8.6211389498450391e-02  8.6684921082885821e-02  8.6627548076754934e-02  8.7125429013991076e-02  8.7121466232344624e-02  8.7546794070821651e-02  8.7551535657129517e-02  8.7946985167637007e-02  8.7949708989556327e-02  8.8324741534193937e-02  8.7483197826147871e-02  8.7885802695085682e-02  8.6386733426499093e-02  8.6727605408002659e-02  8.8192488416464113e-02  8.7057217023620223e-02  8.8508124728540527e-02  8.7398556252120438e-02  8.5398625687998275e-02  8.5723169995493412e-02  8.7742265682992329e-02  8.6054924248091705e-02  8.8100138289174110e-02  8.6394773620640380e-02  8.3270508783990005e-02  8.8459849640899105e-02  8.6735135381443756e-02  8.4183671206428945e-02  8.4508517059641158e-02  8.7167010078838147e-02  8.4854890571292474e-02  8.7505259886267520e-02  8.5184267162531621e-02  8.7851569558027781e-02  8.5540673397603961e-02  8.8301173681447576e-02  8.5918950313390099e-02  8.8708856798146427e-02  8.6297698220351465e-02  8.9026191011569500e-02  8.6666562437347536e-02  8.9422025777910114e-02  8.7057942594975332e-02  8.9855531017469875e-02  8.7466978816602717e-02  8.6581398477889510e-02  8.7020317951808271e-02  8.4799176557534606e-02  9.0289947982066215e-02  8.7886287458834284e-02  8.5154738115838693e-02  9.0682849822658729e-02  8.8305520697803563e-02  9.0965955557792383e-02  8.8632902937774594e-02  8.5336452952318537e-02  8.5752217413999327e-02  8.9081082692703303e-02  8.6212183187334479e-02  8.9628232026305724e-02  8.6650041606937372e-02  9.0141228179095187e-02  8.7117899152054756e-02  9.0638625156365851e-02  8.7591256939170609e-02  9.1149451361234812e-02  8.8076178408527231e-02  9.1661745004185863e-02  8.8579132048829237e-02  9.2182572170990074e-02  8.9094937610792388e-02  9.2724200059434617e-02  8.9623573288403521e-02  9.3247973355676556e-02  9.0161169045768708e-02  9.3805943665460856e-02  9.0720084941273579e-02  9.4336964528119849e-02  9.1287642508998748e-02  9.4927254251719245e-02  9.1871592761731902e-02  9.5491584192581871e-02  9.2467063349642803e-02  9.6104507451579446e-02  9.3084900111129978e-02  9.6843568465009827e-02  9.3741784524752320e-02  9.7338374576146178e-02  9.4366646850999020e-02  9.7967835232967870e-02  9.5026376271586152e-02  8.3811139417218877e-02  8.2778638375700916e-02  8.5912170022210035e-02  8.1845397040444856e-02  9.8805035080602316e-02  9.5740728600504185e-02  9.9525824400263155e-02  9.6451276790022356e-02  1.0023126278897902e-01  9.7170405064875343e-02  9.2664106710825783e-02  9.3380669419470028e-02  9.7902053936346073e-02  9.4115095346844382e-02  9.8648382485471309e-02  9.4867516306512190e-02  9.9410782555113195e-02  9.5638265554593108e-02  1.0018901689689592e-01  9.6427459101074545e-02  1.0098296303486574e-01  9.7235054761930229e-02  1.0179257536822391e-01  9.8061151642978767e-02  1.0261764265063036e-01  9.8905623988202920e-02  1.0345800519697364e-01  9.9768497564899306e-02  1.0431352059013271e-01  1.0064971509531129e-01  1.0518511244046382e-01  1.0154926813246923e-01  1.0607047826018226e-01  1.0246670961531049e-01  1.0696870561795405e-01  1.0340175740580937e-01  1.0788171959978927e-01  1.0435305903564193e-01  1.0880836263445758e-01  1.0532213200676570e-01  1.0975047844556027e-01  1.0631148883077141e-01  8.9518675729300293e-02  8.8153799640511885e-02  1.1070386065240904e-01  1.0731707845580543e-01  8.4489216480743576e-02  8.1992405947753699e-02  8.1839497825823393e-02  8.2450445670599767e-02  9.0618992805116316e-02  1.1166675747138309e-01  1.0833734130801680e-01  1.1264259942172618e-01  1.0937405397005785e-01  1.1362982809171771e-01  1.1042611794165033e-01  1.1462745987617635e-01  1.1149313050361538e-01  1.1563465922861318e-01  1.1257463342935235e-01  8.6486393128460001e-02  1.0733865220528914e-01  1.0847033284162581e-01  1.1367010858574078e-01  1.0962038495548281e-01  1.1477853294255654e-01  1.1078932205778266e-01  1.1589938278992466e-01  1.1197484398033195e-01  1.1703210743794064e-01  1.1317687614209701e-01  1.1817543543554371e-01  1.1439468935160296e-01  1.1932884061168010e-01  1.1562854683503933e-01  1.2049130693992446e-01  1.1687664592730425e-01  1.2166176860068667e-01  1.1813830504358802e-01  1.2283917256619704e-01  1.1941364745375299e-01  1.2402254651639641e-01  1.2070081159548954e-01  1.2521080074883056e-01  1.2199853146934152e-01  1.2640262063565802e-01  1.2330703902943999e-01  1.2759688440840677e-01  1.2462425027411486e-01  1.2879226950527944e-01  1.2594925801173387e-01  1.2998699216595944e-01  1.2728108217580891e-01  1.3117989499751229e-01  1.2861833202210063e-01  1.3237025068508834e-01  1.2995955547774013e-01  1.0196364557424405e-01  9.8989084124774543e-02  8.3154549407349010e-02  8.1944876962049107e-02  9.5733950568354251e-02  9.5308747842747996e-02  1.0548424650569774e-01  9.2772758150277509e-02  1.1895249635115542e-01  1.3355620600851723e-01  1.3130369855111076e-01  9.8034210625984206e-02  8.9679080004889014e-02  8.9804574809701790e-02  1.3473530999234815e-01  1.3264945185776805e-01  1.3590739299182023e-01  1.3399507027830099e-01  1.3707004596040148e-01  1.3533929165349634e-01  1.2908322815149578e-01  1.3822152753264089e-01  1.3668076050619959e-01  9.2384546174751947e-02  1.2467280792032921e-01  1.0240747484492650e-01  1.0461721734294287e-01  7.7860629425109948e-02  1.0959224334282243e-01  9.0905008633398801e-02  8.5515452402693884e-02  8.2848247946350428e-02  8.5855493297816207e-02  9.4428523114992405e-02  1.2078485387784381e-01  1.3935980726661071e-01  1.3801799327588762e-01  1.3356142253542339e-01  1.3506303588433236e-01  1.3934879303896536e-01  1.3656689517958737e-01  1.4067210577943756e-01  1.3807143105888878e-01  1.4198643362486443e-01  1.3957492029100974e-01  1.4328929324597336e-01  1.4107611549373078e-01  1.4457920857593373e-01  1.4257324676762401e-01  1.4585554735823053e-01  1.4406494377400500e-01  1.4711558647875247e-01  1.4554967246457601e-01  1.4835686428657749e-01  1.4702466836624636e-01  1.4957860464161063e-01  1.4848935062157528e-01  1.5077883851328022e-01  1.4994195573638536e-01  1.5195578476092236e-01  1.5138086195580089e-01  1.5310783395235239e-01  1.5280309404624312e-01  1.5423357141186106e-01  1.5420879796390533e-01  1.5532292895869323e-01  1.5559639877107534e-01  1.5638892027993473e-01  1.5695993946076228e-01  1.0091450837535861e-01  1.1481833603531362e-01  1.5055407789610878e-01  1.1084355189999494e-01  9.2412064052731988e-02  8.5144691020192578e-02  8.4694922650212556e-02  7.7627151036115769e-02  1.2498448313765420e-01  1.5742614911295652e-01  1.5830000631102140e-01  1.5546846714936619e-01  1.5708308739896298e-01  1.5961721819331251e-01  1.5868314476259435e-01  1.6090827851892511e-01  1.6026702254240277e-01  1.6217082405294753e-01  1.6183300617154639e-01  1.6340330221190708e-01  1.6337942099666133e-01  1.6460386841558972e-01  1.6490425163248548e-01  1.6577127520263632e-01  1.6640568336480047e-01  1.6690269683585660e-01  1.6788321609714729e-01  1.6799488073612920e-01  1.6933325916228048e-01  1.6905303300758964e-01  1.7075367069962963e-01  1.7006522560460363e-01  1.7214919693397004e-01  1.7102433561833785e-01  1.7350344319196154e-01  1.7199758710459653e-01  1.7481901928142510e-01  1.7286900352269574e-01  1.7611867316962906e-01  1.7367328042948385e-01  1.7737507458929117e-01  1.7446738325318101e-01  1.7858549814142757e-01  1.7520386717496647e-01  1.7975791656587686e-01  1.7588373421533726e-01  1.8088783340582118e-01  1.7651085027073796e-01  1.8197305418367349e-01  1.7708098113059359e-01  1.8301213979456227e-01  1.7759327157525517e-01  1.8400325835152012e-01  1.7804587431565375e-01  1.8494463932265770e-01  1.7843644385213497e-01  1.8583362947117596e-01  1.7876448375745160e-01  1.8666845326846759e-01  1.7902730082546009e-01  1.8744860483179701e-01  1.7921959849093769e-01  1.8817235571505614e-01  1.7934574082729901e-01  1.8883374080348614e-01  1.7952045541978132e-01  1.8944417494295115e-01  1.7955168891008585e-01  1.8999500310394288e-01  1.7895177114802688e-01  1.9040709359924182e-01  1.9307623116403361e-01  1.8909676976840492e-01  1.6813997943998948e-01  1.1394765086714619e-01  1.7866498985047977e-01  1.9077965692266036e-01  1.7831816205828868e-01  1.9109748481845790e-01  1.7773677576575303e-01  1.9134821688004261e-01  2.0064710145409070e-01  2.0151460391699988e-01  1.9162190854174654e-01  2.0232415302132647e-01  1.9173300668832066e-01  2.0305729430794539e-01  1.9176304236994987e-01  2.0372012229407149e-01  1.9171060162976400e-01  2.0431251667766942e-01  1.4389710385259682e-01  1.3888383425500891e-01  1.2917541286802234e-01  1.7850305442916969e-01  2.6388099789619542e-02  2.2351119852107616e-02  3.1281054215090282e-02  7.5987259445403313e-02  1.9586057175839965e-02  7.7735050261897545e-02  1.0708717179145639e-02  1.5080709785449673e-02  1.0498525932688206e-02  1.5209675103224877e-02  1.0315956696132347e-02  1.5389494467778190e-02  1.0182621080480379e-02  1.5616173642811232e-02  1.0108454436886643e-02  1.5894596676237400e-02  1.0070657276189620e-02  1.6211569331185473e-02  1.0076874352288082e-02  1.6584095848628817e-02  1.0131275803949371e-02  1.7023303811526093e-02  1.0271863899982435e-02  5.0880145558741532e-03  4.7566455120950932e-03  1.0455554974797752e-02  4.4448480954336301e-03  1.0570285230785445e-02  4.1462955964284504e-03  1.0831909532556062e-02  3.8716761430742735e-03  1.1129368889577130e-02  3.6246431804949197e-03  1.1528289671562969e-02  3.4127340795757862e-03  1.1928528563041708e-02  3.2399127264128745e-03  1.2641496170970969e-02  3.1405499892982964e-03  1.3609020445894106e-02  3.1126036768447433e-03  1.3845608267389111e-02  3.0611112549914520e-03  1.3885687380967855e-02  3.0026571070229766e-03  1.4339246972867490e-02  3.0841730690615104e-03  7.5015216397331011e-02  6.3546723738274552e-02  1.7926441376293245e-01  3.5649393831652339e-02  4.1990363677887305e-02  8.2178315859496968e-03  1.9773276410401849e-01  7.9839954374999841e-02  5.5660839858232461e-02  6.0859822671262831e-02  1.4703670016298037e-01  2.1728831782610595e-02  2.0905238970271394e-02  6.4171953060344872e-02  7.8379740173166637e-02  9.8013779713696417e-02  9.7356890526769255e-02  6.8095192650246593e-03  7.5653333214942275e-02  8.9284279642121059e-02  6.6532196554428880e-02  8.8257342232650304e-02  2.9603244180953746e-02  2.8454585852751783e-02  3.6146906032136564e-02  3.4853821849955127e-02  1.2585134544463731e-02  1.0319568213645351e-01  6.7847029537345546e-02  1.2389150322172222e-01  9.1183945936333693e-02  9.0995119800193383e-02  1.3098312109186565e-02  4.8257515386081537e-04  1.5155667200186412e-01  1.0937834547182456e-03  1.7217920249974389e-01  4.4196348114537896e-02  6.0462963774679523e-03  6.6122564973750192e-03  6.5702448251874924e-03  9.5129441403958691e-03  9.9851749297905548e-03  1.3659441440291974e-02  1.4306982110777921e-02  1.3065764670731381e-02  1.7580181605721376e-02  1.6931625876461385e-02  2.1686280438933937e-02  2.1011620463694564e-02  4.7264648901932105e-02  1.4710912429669218e-01  9.2577743562505407e-02  1.1356879102908636e-01  5.3573573677800565e-02  6.7984237406285869e-02  5.9023858431080795e-02  1.0392107812563191e-01  1.4116132136104712e-01  1.0377784819806235e-01  9.4529734530343634e-02  1.6021192772210038e-01  6.9157997362303117e-02  9.5336519090613761e-02  1.0370053467216205e-01  9.3627135536861764e-02  9.6043767334532029e-02  6.9924271394853632e-02  6.6879201430872282e-02  5.0688420945383367e-02  6.1334458533219470e-02  9.3098077609542570e-02  4.2278977328426948e-02  3.7059030402158820e-02  4.7764334233179537e-02  5.3441978323461876e-02  6.5750402918782577e-02  4.8586782978031907e-02  4.9482784228557744e-02  3.2896005933466768e-02  3.3791689440890720e-02  3.1994809870509545e-02  9.9733618873848989e-02  8.6613241678672057e-02  8.0261535464011810e-02  9.6287863650388675e-02  7.5838547097707196e-02  5.3363459967355406e-02  9.5336531124357457e-02  9.4326546159330241e-02  9.2678070892814893e-02  9.0526181298266520e-02  5.2178786321123626e-02  8.6035704876321034e-02  5.9321213029176006e-02  4.8013973710442664e-02  9.7108336746727655e-02  8.4046722352987588e-02  2.3034099645276383e-02  1.5167543013859713e-01  6.5007773390455673e-02  4.7078406301197084e-02  1.0032368213136685e-01  9.5752551839619574e-02  5.9717557358698416e-02  8.0534145121216039e-02  1.0649079966784183e-01  8.4502519437390136e-02  4.3277458074188063e-02  5.7180434986999873e-02  7.9941237395000420e-02  3.5169006643791439e-02  1.6968832807060182e-02  5.8449902007285677e-02  4.9987261686799576e-04  7.1512078731517159e-02  4.7195660763470745e-02  5.5045428763226864e-02  5.4952863244243061e-02  6.2260449258297844e-02  6.2012711964769388e-02  6.2427533895928242e-02  6.8587400873457660e-02  6.8112584397836753e-02  6.1734309402273480e-02  6.7784540114507991e-02  6.1474130343309938e-02  6.7481832257678565e-02  6.1229635126862872e-02  6.1512042482271198e-02  8.2570424165552422e-02  8.7614656136960720e-02  1.1645859640152099e-01  1.1865546555306036e-01  8.4677422199314761e-02  8.5473515442316947e-02  8.9349033478743414e-02  5.3112762369934390e-02  4.7459325219701164e-02  4.8120286279452099e-02  4.3049342414174796e-02  4.2286755611302643e-02  3.8445875896261673e-02  3.7563696158218543e-02  4.3958278320768332e-02  3.4341063569612570e-02  3.3313798967821766e-02  8.8475962988735807e-02  4.5739557610800412e-03  1.3859349311953562e-02  1.6327433007765919e-02  1.4448298891004735e-02  1.6774883493805969e-02  1.8465335478331752e-02  1.8703143066353015e-02  8.1885278873566350e-02  8.0541059609279389e-02  7.8799827213241858e-02  7.8685468838774378e-02  8.1827301832386387e-02  8.1750318118004511e-02  7.8568049278723559e-02  8.1668569469272229e-02  7.8447786965140057e-02  8.1582332447841993e-02  8.4757336987308945e-02  7.8324845545814259e-02  8.1491884969305095e-02  1.1478579437723209e-01  2.1030649298443879e-01  4.4434365513421496e-02  8.4786059242804745e-02  2.0828941251581909e-01  7.0406921956685416e-03  9.5871011987119489e-02  7.1122040115106824e-02  1.0441191306654289e-01  4.6835678535177991e-02  3.3755670354074924e-02  2.7561384975686894e-02  1.0512298361188700e-01  5.8466101021839141e-02  9.6923736063278310e-02  6.2403336602595040e-03  1.4548539382493395e-01  1.1117975898703566e-04  2.9458211914761005e-02  2.9051160030311090e-02  4.7028256504253074e-02  4.9861767475875583e-02  5.1062363759374174e-02  5.4051965393469563e-02  5.5988895186589033e-02  6.4119309101850930e-02  1.2930934208418277e-02  1.0558826313819815e-01  6.7840997394678373e-02  5.6953302166540820e-02  5.4603598292140530e-02  1.1025877043919953e-01  1.1530246825112261e-01  1.2065478010600052e-01  1.0509749847899071e-01  9.5974748917166799e-02  1.9647141637630604e-02  6.9706023926373858e-02  7.3999703859945032e-02  7.4203347785302173e-02  7.8595060978064749e-02  7.8777724065228552e-02  8.3283760069380167e-02  8.3123904606473842e-02  8.3442008225122252e-02  7.8958414811080957e-02  8.3601527936774792e-02  7.9136360595517596e-02  8.3860170352317742e-02  7.9149239621417802e-02  8.4193651516519877e-02  7.9155784509457594e-02  8.7948054574207360e-02  8.7817386740430006e-02  1.1464445582470738e-01  2.4464474460522162e-01  1.7752098261808075e-01  5.2463571824358894e-02  5.0532421907635343e-02  5.3803882160405853e-02  5.2114567219388334e-02  2.2315910383968591e-02  7.9571089751279925e-02  1.5743490982892263e-02  6.3774308995168519e-02  5.9659346670880423e-02  5.3755099329184299e-02  5.2872222028644306e-02  5.7440346429217574e-02  1.6880116265505454e-01  5.7317160371789903e-02  5.4839771086743060e-02  8.5455711279434104e-02  1.3747903533959008e-01  1.3892303747071391e-01  1.7393850569457672e-01  1.7501348465583566e-01  2.1275240500368817e-01  2.1305730661332883e-01  2.1236784817360671e-01  6.8597609587527517e-02  1.6945838002637333e-02  9.5647729798965256e-02  7.7952574431152971e-02  9.7259710172007158e-02  7.2470459386077143e-02  4.1382859302979955e-02  8.7425532825642416e-02  3.5916362644011116e-02  1.3007871887705558e-01  8.9882340357225657e-02  1.1579540614970076e-01  3.5683282425410363e-02  5.4785797413188675e-02  7.6648363955353738e-02  4.6097082773330848e-02  6.9323350034195111e-02  7.8393265054822636e-02  8.9356913147582720e-02  6.9576605200075553e-02  7.3339423887521113e-02  7.9220792780755223e-02  8.1720741739691141e-02  7.8326478572591021e-02  7.4318110470208879e-02  7.0961038210806460e-02  6.7275842791485130e-02  7.0487321707759731e-02  6.3675807124204356e-02  6.6821540642725899e-02  2.5897403130702233e-02  2.3756261651989932e-02  2.2958255256626914e-02  2.1061797115937378e-02  2.1444928070399948e-02  1.9914678769756656e-02  2.1639826343203238e-02  2.0564431232681372e-02  1.8564449232153873e-02  1.9692981712230384e-02  1.7406614526823880e-02  1.9027991702687527e-02  2.2402037099475611e-02  2.2138498595471248e-02  1.8566822058904472e-02  2.2044649707449265e-02  1.8301629052113903e-02  2.2104642833107566e-02  1.8217846382392992e-02  2.2299719533267249e-02  1.8298237949286776e-02  2.2611570013009865e-02  1.8521478340676873e-02  2.3017062098523271e-02  2.7791027057154882e-01  1.7616146778073289e-02  9.3478223877829891e-02  8.2888076180248571e-02  9.4818498776004054e-02  8.4308615478411494e-02  2.3142925925008634e-02  8.1576355024817804e-02  7.7847796543709533e-02  7.7536527969894659e-02  1.2313052256672255e-01  8.9416808383259563e-02  9.0511280147580059e-02  9.6162327700908254e-02  1.1683418144926806e-01  6.3989481394324853e-03  8.7165558416124445e-02  2.5359287415042880e-01  2.5572582867889637e-01  3.0947664277517201e-01  2.5721303907342730e-01  3.1467180090249242e-01  2.5779960597770601e-01  1.9436670571664841e-01  1.9110516730880014e-01  2.5729890863734028e-01  1.8658087501036510e-01  2.5295503411591086e-01  1.8018476794782520e-01  2.4881500562115400e-01  1.7252662775540686e-01  5.6647757969657759e-03  2.3486732577945167e-02  8.2171591637739558e-02  8.0521857048579518e-02  8.2305059645930045e-02  8.0553247592130242e-02  8.2458351630738710e-02  8.0604433713424531e-02  8.2631719966648531e-02  8.0675992918092465e-02  8.2825382455040855e-02  8.0768219420276746e-02  8.3039512085071071e-02  8.0881542530486558e-02  8.3274213624738511e-02  8.1016307552446667e-02  8.3529531834483639e-02  8.1172802239203173e-02  8.3805452956292756e-02  8.1351214371297803e-02  7.8707427242022759e-02  7.8767993224337737e-02  8.1551646576097786e-02  7.8851435690810337e-02  8.1774221470026456e-02  7.8957815682408894e-02  8.2019008004873925e-02  7.9087501457695594e-02  8.2285891850165632e-02  7.9240812815212017e-02  8.2574743863681466e-02  7.9417823344575061e-02  1.0227665565169583e-01  1.4565728940793524e-01  7.7132920254513071e-02  4.7549197198621072e-02  4.1945359145571869e-02  5.5161427257392689e-02  1.3977252295924836e-01  1.0405439969316996e-01  1.3403685821429071e-01  1.1405472386941042e-01  1.2715740216803439e-02  2.5219349510232296e-02  1.1456999871793043e-01  1.0704504075619911e-01  1.0875164185535617e-01  6.8321250867226235e-02  1.3037240839961858e-01  1.0305698279350814e-01  1.0698181858868358e-02  9.7532114619323443e-02  1.4723458190035857e-01  1.2347165123507387e-02  1.2178649318831081e-01  9.2167131434322647e-02  1.4750956868010326e-02  2.2222034657437363e-02  1.2689370895269578e-01  4.0367833817812747e-02  3.7784574297224420e-02  3.3467493980110251e-02  1.2829307095160974e-01  1.9500595881298360e-02  1.1883960103414695e-01  2.2051423038379012e-02  4.1743787489608802e-02  1.1705396833169136e-01  5.8064249234179516e-03  2.4865701145443328e-02  6.9916875863428193e-02  1.0501854073154915e-01  2.7237386537031786e-02  6.5402555586304978e-02  1.0461419120846524e-01  8.4404533206838328e-02  4.7662931020168865e-02  6.6969367291398796e-02  9.4464998215699036e-02  5.0197307398743132e-02  4.3861602360573973e-02  5.7104774791968009e-02  9.3106895447114799e-02  4.2181138251343141e-02  2.2615815800486647e-02  7.4758971186837039e-02  4.2945207018899444e-02  4.3443313796794038e-02  7.6588178127135545e-02  6.5872915951838487e-02  3.7125435120273671e-02  1.6327342005907484e-02  6.8436782623160650e-02  4.3349960394317814e-02  4.3716486865360428e-02  6.9601557114414528e-02  7.5634613144655513e-02  7.4291829138286150e-02  7.4990530223702112e-02  5.8563369697569680e-02  4.3664050279212926e-02  6.2565368892526327e-02  3.3284584550410418e-02  5.4729261822419793e-02  6.6908412543294341e-02  7.4056459021303533e-02  7.1573318687199183e-02  1.3555458240375717e-01  7.6587567348066266e-02  7.3030129216336323e-02  1.8053789991374362e-02  8.2648554973983893e-02  8.0959600469574844e-02  7.8803825412556705e-02  5.6758588992851820e-02  7.1956731712736935e-02  4.0903738841658342e-02  5.3452042435395725e-02  7.0050993448685442e-02  5.2176054584163772e-02  2.1718878211999918e-02  1.7690319553998777e-02  2.1363209319094006e-02  1.7324988209976380e-02  2.1014092412332576e-02  1.2599833590705373e-01  1.3144212958077461e-01  1.2562326350763311e-01  4.2324308898773748e-02  4.6206458019156967e-02  6.3681276094404021e-02  4.4279055726755327e-02  4.7778223516096709e-02  5.6998176629878897e-02  2.8339768631172411e-02  4.7483728022957368e-02  3.0650173372159674e-02  7.1292581023293708e-02  7.8199411606328165e-02  8.1397435892865105e-02  7.8071658140482406e-02  8.1299496693362575e-02  8.4516445621120317e-02  8.4457187512925705e-02  8.1177017210479999e-02  8.4658175666468452e-02  8.1037552111728361e-02  8.4724462920731519e-02  8.4565039052429264e-02  7.9146047961919402e-02  2.6576007405278240e-02  6.0547195490951500e-02  6.0251496082871295e-02  2.1442943147929935e-01  8.4630793237190513e-02  1.9550679824639766e-01  9.8440712908521383e-02  7.9047210512855987e-02  7.7111658182586709e-02  7.6225430000589414e-02  7.3928235826795863e-02  6.9632962303367740e-02  6.9133574240583542e-02  6.0620974623357499e-02  6.2798454612190177e-02  4.7546160210312244e-02  5.4534331937000011e-02  3.5266743474646998e-02  4.3443307033371500e-02  4.3321270290211718e-02  4.1940932150127494e-02  8.5770955623042627e-02  9.7484200976278745e-02  6.5448318976909212e-02  1.3224899341183841e-01  1.1767411916516522e-01  7.3377102577036543e-02  1.6987571641637240e-02  1.1583919316214995e-01  6.8883144659653062e-02  9.1610275447256695e-02  1.0515457147150629e-01  5.9785892120428952e-02  5.8429663028779798e-02  5.1337241464932883e-02  6.7191362591470849e-02  6.0997230694090632e-02  9.6835928804869562e-02  7.1015724726594218e-02  1.8236699986321374e-02  1.8239769008771289e-02  1.6011282154464132e-01  3.7110484041430331e-02  1.3396827252225529e-01  7.8652926834121076e-02  1.7414987946743904e-01  1.1218230012901081e-01  1.2897783232402341e-01  8.2981343523729725e-02  8.0501405444778837e-02  8.0260135291747289e-02  7.7523287900027368e-02  7.7342976951940937e-02  7.7714842475260726e-02  1.3632881743843137e-01  1.3004787518366384e-01  9.9247208695711200e-02  1.4018736573205449e-02  7.8795781593887573e-02  5.3546483716827083e-02  1.6656592722935459e-01  4.8039050173391010e-02  5.7908899576018392e-02  2.4654330197528629e-01  1.6375463681185312e-01  2.1855016612339481e-01  8.0817876667289151e-02  8.4771288859165198e-02  9.2157300473028558e-02  2.9902206913914675e-01  2.5540708936985218e-01  2.9392365547563516e-02  3.3340809901509040e-02  3.7535832653804245e-02  3.7315887695291886e-02  3.3110282498867112e-02  3.7088422300944557e-02  3.2871843627555852e-02  3.6852995057264692e-02  3.2672554818920105e-02  3.6606018731199098e-02  3.2424452917924444e-02  3.6355210098294906e-02  3.2141506884913539e-02  3.6071415346556099e-02  3.1878902130543799e-02  3.5798832228495524e-02  3.1569592131889361e-02  3.5544911914721006e-02  3.1257766634155082e-02  3.5256299946034665e-02  3.0950688266980497e-02  3.4956485998784481e-02  3.0635264273879397e-02  3.4645334611848114e-02  3.0308778183658458e-02  3.4321531411271707e-02  2.9972250851070917e-02  3.3987627804138776e-02  2.9495659672696663e-02  3.3620399102098172e-02  2.9108505530230339e-02  3.3254102605561296e-02  2.9147401109331741e-02  3.2951643213482505e-02  2.8892018174734291e-02  3.2602336845975063e-02  2.8384638662871723e-02  3.2193562957611797e-02  2.7741492369910099e-02  3.1743642751122077e-02  2.7267514288503682e-02  3.1205209797525685e-02  2.6796618338010312e-02  3.0740884640137266e-02  2.6328175680838943e-02  3.0332668611121518e-02  2.5860693707022632e-02  2.9798664877590926e-02  2.5360293172381150e-02  2.9237928990809910e-02  2.4840958863734781e-02  2.8855625986744338e-02  2.4338878878113070e-02  2.8432849908529512e-02  2.3829376728531724e-02  2.7928022373924444e-02  2.3281843807672162e-02  2.7392764719996351e-02  2.2721293590234625e-02  2.6840691596053057e-02  2.2147479296298719e-02  2.6276563193432936e-02  2.1561867403998965e-02  2.5700242453969509e-02  2.0967264416357656e-02  2.5113837826793287e-02  4.7553645113251594e-02  3.9171183694601160e-03  9.9921418740650567e-02  1.7361245141672588e-02  6.6350033210870699e-02  9.1246331471189573e-02  3.0499291160296982e-02  1.0257572491414128e-02  1.1402036330318964e-01  1.0709339276562777e-01  5.1298707750771035e-02  1.2224988571885950e-01  1.8476085920844593e-01  7.6079467861239938e-02  7.6122105128477474e-02  7.9618533677810757e-02  7.6189828199303186e-02  7.9842852591525612e-02  7.6282623975473196e-02  8.0090771319071871e-02  7.6400605655651405e-02  8.0362144481908496e-02  7.6544259377952950e-02  8.0656668951478591e-02  7.6712703907668628e-02  8.0973456685969683e-02  7.6906194365991817e-02  8.1312317720280802e-02  7.7125165712766702e-02  8.1672267188809572e-02  7.7369459752918576e-02  8.2053737964814119e-02  7.7638262679118109e-02  8.2456885444374572e-02  7.7930544454720779e-02  8.2879717066888112e-02  7.8245954899269568e-02  7.2830935762870697e-02  7.3115252468922531e-02  7.3295483106575618e-02  7.8582778721386359e-02  7.3501075819373596e-02  7.8932546358356323e-02  7.3729962249524619e-02  7.9308430747347849e-02  7.3984568791159763e-02  7.9717179255376663e-02  7.4265631902462104e-02  8.0143153517172008e-02  7.4570210855960023e-02  8.0597548275782110e-02  7.4900002860117526e-02  8.1038848180625483e-02  7.5245526602366261e-02  8.1513219665786021e-02  7.5615213860432545e-02  8.2003392317199220e-02  7.6005021582956453e-02  6.9031975490099706e-02  8.2508033792205948e-02  7.6413755126379990e-02  8.3026442016768967e-02  7.6840682863551224e-02  6.9813660179497888e-02  7.0121689697601575e-02  7.7284244220974019e-02  7.0450699078268897e-02  7.7757866071397952e-02  7.0823496834680935e-02  7.8238530090250266e-02  7.1198120544074928e-02  7.8713237938183869e-02  7.1546281370622647e-02  7.9204710649703525e-02  7.1942738512955920e-02  1.1125066681239956e-01  1.1098162823458348e-01  6.3579274138942182e-02  1.4914426044625943e-02  3.2343889459420048e-03  3.3332774466491986e-02  1.4372914335195835e-02  4.7225905429771897e-03  6.2786385513402265e-02  2.2271051474702902e-01  8.1594754307473316e-02  8.1594214945448648e-02  7.8683749585118631e-02  1.8169453343488093e-01  7.4558598674438870e-02  7.4693779296032575e-02  1.5525014872422041e-02  3.4521550175980521e-03  1.1324266067750705e-01  8.2497693607319844e-02  8.0772993969958268e-02  8.8208959196782039e-02  1.8022259281574117e-02  2.0520634971259596e-02  1.8047899524991664e-02  -5.6808228007446271e-06  1.0085321673540604e-01  7.8911306828517741e-02  7.2608080464340918e-02  1.2204434763133988e-02  3.1089086387538399e-02  1.1489103381180331e-03  3.1188927387328227e-02  1.1452824839727226e-03  3.1834112248847635e-02  1.2708811857944067e-03  1.4040432954156729e-01  1.3373830693513919e-01  2.0364787355765454e-02  2.4526567237931760e-02  1.0747231055677804e-01  8.3331125694946037e-02  1.4356870097835042e-01  1.3657588864876027e-01  7.3761766052280603e-02  7.9306178367288677e-02  7.4604270555375274e-02  7.4459045785313566e-02  6.0353914301544909e-02  5.8985840737888769e-02  5.1746864588137674e-02  6.7099966742656461e-02  6.0804293440698050e-02  6.6869512487501115e-02  6.0596235211086702e-02  6.6621194069068496e-02  6.0386621032370864e-02  5.3632312729101531e-02  5.3470121475098886e-02  4.6059018041468273e-02  4.5948349729545417e-02  3.7971313202236873e-02  3.7913722829990198e-02  2.9475402040482945e-02  1.1611773612140015e-01  1.2983300529832928e-01  1.0246970652534002e-01  1.7352116417519406e-01  8.7205411732533836e-02  9.8768358301342479e-02  6.8635524116652691e-02  7.6066745813438474e-02  1.8241579192340911e-02  7.4476681483610363e-02  2.3999329807143779e-01  1.5291380585118367e-01  2.3060274745635950e-01  1.4008083270349134e-01  1.6828807017698114e-01  1.2973033442664403e-01  8.9564594284991930e-02  1.2870828300589890e-01  1.9686858014340575e-02  9.2222802333198007e-05  8.0812977376759271e-02  8.0712053483487839e-02  1.7008107039430273e-01  3.0003274065130321e-02  2.9571667285099135e-02  4.4868848484653903e-02  1.6159957834888813e-02  3.7386564092887998e-03  4.2456880759433125e-03  3.8053356545405732e-03  4.0962422745486823e-03  3.3693172393729431e-03  4.5382559707983590e-03  2.9587168445540093e-03  5.0701257007580366e-03  2.5830423156749990e-03  5.6678693350489485e-03  2.2394311028511669e-03  1.6070290375795070e-02  1.5906032974513554e-02  1.9545470533509526e-03  1.5709941588489568e-02  1.7249606826517123e-03  1.5487331006888412e-02  1.5331267788073163e-03  1.5240627132439608e-02  1.3903858134070052e-03  1.4968255278703661e-02  1.3070521398427235e-03  1.4669845349611873e-02  1.2856399242774385e-03  1.4347305319741807e-02  1.3286992334880260e-03  1.4002266964494319e-02  1.4370053821326709e-03  1.3638321609073481e-02  1.6077511648022800e-03  1.3258611056679928e-02  1.8297494017302000e-03  1.2887390795600350e-02  2.1082281784808544e-03  1.2440441638265458e-02  2.5072467705078197e-03  1.1930218016713781e-02  2.9128907023933878e-03  1.1687196564111744e-02  2.5219039079407122e-02  2.5052158998822734e-02  1.1614465825700830e-02  2.4866499181485674e-02  1.1206907369996426e-02  2.4711777796291808e-02  1.0600053917391094e-02  2.4489350154976382e-02  1.0133473801448639e-02  2.4236739648248341e-02  9.7881871047386642e-03  2.3943912866958898e-02  9.4995350793639563e-03  2.3645271295359600e-02  9.3551593681552424e-03  2.3407788723469741e-02  8.6895739838451468e-03  2.3215149080059019e-02  8.3654054674662751e-03  2.2874862581308216e-02  8.4498032675155033e-03  2.2521865521480430e-02  8.2078250021323223e-03  2.2221446823946975e-02  3.5250692187442291e-02  3.4990955756843085e-02  2.1890551687246861e-02  3.4762141060624821e-02  2.1560853348325974e-02  3.4485800872518770e-02  2.1222156347254873e-02  3.4241662739122436e-02  2.0888141479994543e-02  3.3972966376086315e-02  2.0546929923909971e-02  3.3689346305852137e-02  2.0200897504982225e-02  3.3404340113552387e-02  4.6449330882930184e-02  4.6229821949555765e-02  3.3121216296683860e-02  4.5943218618467112e-02  3.2824344976366701e-02  4.5631776778512163e-02  3.2522218621037220e-02  4.5384524178011747e-02  3.2219278112005569e-02  4.5072597887060029e-02  3.1906899243097094e-02  4.4731673456409632e-02  3.1603391990095993e-02  4.4414704726658330e-02  3.1288758516972111e-02  4.4094834074490663e-02  3.0969679793040682e-02  4.3772070149967465e-02  3.0660411426741262e-02  4.3441576122326311e-02  3.0346023712643860e-02  4.3106495559151969e-02  3.0029394297403006e-02  4.2770844740297478e-02  5.5282695688496211e-02  5.4919997990932348e-02  4.2428424313240010e-02  5.4589772883255075e-02  4.2093610573253393e-02  5.4212809406961542e-02  4.1755431255005492e-02  5.3868597683727551e-02  4.1427096084803397e-02  5.3507730674049118e-02  4.1095928659437515e-02  5.3142523444016945e-02  4.0765616150459830e-02  5.2775632039049475e-02  4.0437660724537985e-02  5.2409282295112734e-02  4.0114273966288798e-02  5.2043087965266008e-02  6.3535935424920684e-02  6.3130728099682121e-02  5.1676959069918739e-02  6.2723054899186670e-02  5.1313760752914134e-02  6.2313738492043677e-02  5.0956371041162518e-02  6.1902876007179516e-02  5.0605770770848532e-02  6.1493558591343575e-02  5.0260657539081779e-02  6.1085786552996554e-02  4.9925528644653439e-02  6.0680049739765318e-02  4.9605568865254322e-02  6.0279399596400690e-02  4.9295231569295217e-02  5.9885176603863367e-02  4.8991924530711758e-02  5.9501072315006787e-02  6.9725663133506158e-02  6.9248644291406064e-02  5.9120093957733377e-02  6.8810391775742330e-02  5.8755231085215104e-02  6.8368218991813653e-02  5.8397649042463508e-02  6.7924582430861635e-02  5.8360802917292620e-02  6.7535967262250460e-02  5.8091871138062766e-02  6.7124076202836030e-02  5.7489819817106921e-02  6.6670213495596181e-02  5.7132085315661711e-02  6.6254032866553902e-02  5.6844610164700694e-02  6.5858630548690220e-02  5.6586422882776648e-02  6.5481293363328766e-02  5.6351456423158829e-02  1.1754909773063356e-01  2.6379602348197088e-02  8.4850813358473748e-02  1.4583274538416582e-01  2.9459412268795629e-02  3.2113975535011698e-02  5.5819147345448773e-02  1.1130393998560259e-01  4.8179532303715224e-02  1.2288087834821043e-01  7.6223407517812550e-02  1.2350207241068355e-01  4.1538966374207030e-02  3.8151909491867281e-02  2.1216412462839427e-02  7.3663382749168020e-04  4.4641673793455690e-02  2.7297102317670071e-02  3.9509959135263818e-02  1.9254991381392215e-02  8.3136584085039392e-02  8.2674289466052472e-02  8.4163680810251856e-02  2.1252477620385304e-01  2.1376300404167398e-01  1.6118235473913944e-01  3.9731561495695254e-02  3.0043628996237460e-02  6.8345088114896230e-02  1.8439826787709945e-02  1.1865428611138810e-02  1.4955198570126584e-02  5.2793004671652384e-02  3.9954052745658636e-02  1.8111914860398742e-02  6.1789320216865277e-02  1.7905068461275906e-02  1.8498317609055678e-02  2.0988038831229960e-01  1.5753585587032887e-01  1.1415182335182746e-01  2.8252367485001130e-02  2.9363741877112597e-02  2.8778693084177884e-02  1.4455964291503035e-02  3.9673333783421347e-02  1.6086222800561545e-01  1.1922555117339134e-01  2.5066876500947396e-02  2.9400641970511662e-02  2.1066158085602801e-02  3.2116221894457835e-02  1.7430063752882394e-02  1.4245717298446248e-02  8.9527672905198776e-03  1.1078604221867160e-01  9.3393506693719673e-03  1.0184555747519709e-02  6.2953440201109004e-02  6.5120652019167280e-02  5.6139583949698604e-02  1.1042284264361839e-02  6.8770212648011295e-02  1.4875721388908855e-01  3.4270492048281941e-02  1.7947410078978712e-03  1.1729666176846384e-02  7.4014387938432014e-02  1.2021756274112177e-02  8.9135625190387410e-02  2.0703842996471322e-01  1.2217835112687358e-02  7.3753532577993511e-02  7.5175155982524167e-02  7.6694257644680561e-02  7.8238018565052470e-02  7.1100992361075657e-02  7.2459239803939465e-02  7.3770852636050516e-02  1.5385891240745619e-01  6.5319493456313771e-02  6.6520542980128522e-02  2.2534237637786163e-02  1.5531216770473352e-02  5.6916228564790831e-02  5.7773492557950605e-02  5.8445425983292151e-02  4.7199796518849507e-02  4.7749125135356632e-02  1.4385297831009466e-02  1.2988425137112772e-01  3.6360236210947562e-02  8.0643032439146708e-02  8.4849752700449227e-02  3.7034108824140113e-02  3.7225658620226719e-02  2.5719178030557666e-02  1.6782980492612957e-02  2.6149144689435872e-02  2.2189805808889511e-02  2.6301898037329831e-02  7.8982948407614079e-02  1.6457484031124091e-02  5.4878331269280906e-03  7.9712721929433974e-02  2.3899317925555691e-01  2.3771106130001024e-01  2.4025361142416829e-01  6.5216756871555148e-02  1.1414462784932572e-02  2.8067115599672246e-02  2.5939637250549912e-02  2.5265700778007855e-02  7.5498002126349771e-03  1.4159392173546242e-01  4.0915487645673453e-02  7.7222597103239685e-02  7.4780957540266327e-02  1.6031499715995529e-01  6.1776854250707502e-02  7.5082833758319242e-02  1.0623474094248109e-01  3.6013850141402980e-02  1.7163635933925753e-02  7.6821429083827912e-03  2.3880669803633289e-02  1.1878008734244022e-02  2.0613356986439218e-02  2.8237909966417164e-02  3.2285878683384699e-03  8.4099314957909066e-02  3.3534081177788298e-02  1.7004072650726117e-02  5.2657625713880385e-02  3.4832310221328300e-01  5.7766688959080695e-03  1.6324916167249751e-02  5.0515180421585017e-02  4.9051979588852199e-02  2.5987478401451686e-02  3.5929284043987549e-02  1.8328560550279236e-02  1.4748534784317809e-02  1.4809955736556834e-02  5.6266016143157536e-02  4.9580224059049084e-02  5.8994673546356263e-02  2.8076083459414168e-02  6.4722174477425648e-02  2.6373185440472308e-02  1.0868453736273351e-02  4.5674292730184717e-02  1.5710384322334497e-02  2.6215483605399797e-02  7.8250668023217659e-02  9.5993663279029931e-02  9.9052368184005479e-02  4.6177225722712371e-02  2.9486789683469794e-02  7.3548864807376560e-02  7.8084975674013221e-02  3.0815257685733496e-02  3.5539355045995417e-02  3.9288805746184104e-02  4.1875374986939100e-02  1.9790694856099453e-01  1.2087545389273069e-01  9.3580022611738645e-02  6.9955514296048224e-02  5.9756318575701392e-02  8.3904724101189737e-02  8.3666247786219963e-02  7.0008465357739025e-02  8.2515634056245776e-02  7.9940062401110124e-02  6.3035605342860915e-02  9.8867262618944976e-02  1.1840012758185192e-01  7.1168252636909540e-02  8.4427493319780472e-02  1.8807973870322459e-01  5.6768050965638528e-02  7.6183395937844595e-02  7.5549817155103519e-02  6.3824703661613150e-02  1.3324089444897169e-01  8.2962248322241708e-02  8.7685842516670595e-02  1.9074254612942748e-01  1.1948310946813578e-01  1.4063838004152757e-01  4.9778632536980456e-02  1.2125603214472973e-01  5.7486756558934780e-02  3.7388897493356305e-02  8.1435540026010625e-02  9.5104989964502080e-03  5.3760811169616934e-03  5.5480535157091213e-02  8.4418821902497790e-02  2.0699395445997450e-02  2.2753746642778308e-02  1.4744218759578916e-03  2.4050912107427842e-02  2.0253257849644642e-03  7.8002992343655000e-02  3.4797536675488405e-02  3.5331662965873110e-03  4.1174317446808002e-02  4.6188085851953282e-03  1.8651795103710535e-02  2.0905942212940492e-02  2.1283585405790794e-02  2.1411884609683400e-02  2.1977348850978531e-02  1.2103140131827896e-01  1.7690410827368372e-02  7.9126167802232319e-02  8.4741195746797421e-02  8.0847650315189867e-02  2.2429396529465909e-02  1.6810275374997038e-01  5.2242459444992860e-02  5.1790895090063252e-02  5.1304780440478363e-02  4.9950655838275855e-02  4.8416401791965005e-02  4.8068403172603212e-02  1.4592625478988738e-01  1.3848032443592229e-01  1.4731492427605314e-01  1.3936823341152116e-01  1.4725456033642637e-01  1.3912987659279508e-01  1.1344707382844370e-02  1.6147521366269618e-01  1.0538877817304306e-02  9.6606855548616102e-03  4.0378510595866723e-02  1.6095972711344875e-02  2.6099120928271251e-02  1.9564710199429583e-02  2.6856190295265536e-02  8.4529239943808926e-02  2.3426844594929261e-02  2.7627080685893302e-02  7.5391230436235745e-02  2.8929367561797460e-02  2.9840476469139975e-02  6.7739148543917910e-02  1.8817912371695156e-02  3.0804675468031409e-02  3.9300892379624502e-02  1.6316229234920984e-02  2.1851067168002514e-01  1.2531613989052007e-01  2.0325986972749682e-01  1.0886363283581822e-01  1.8526791380361055e-01  9.1360768155693647e-02  5.7008825618135688e-02  2.0707866843979812e-02  2.1077408274421831e-02  1.2708644217018375e-01  4.5454664506341502e-02  2.8926715865672501e-02  1.7753931419532495e-01  8.0335748738835533e-02  6.8166736693106522e-02  5.5190815894303344e-02  2.0675689741495511e-02  3.9651444067422846e-02  4.4320626965452586e-03  1.0398320412729986e-02  1.5490813514721591e-02  4.9517749320500820e-02  2.8757333364727362e-02  1.4735413819328382e-02  1.6360308814371474e-01  3.9811852675406940e-02  8.4697324696869442e-02  1.3124020435409059e-01  7.1621988675418441e-02  7.1713156831978847e-02  7.1371146384734407e-02  3.8680765955924734e-02  8.7554603802656186e-02  1.6445348672510138e-01  1.6204590513386150e-01  1.4375438011494893e-01  7.7587938038021845e-03  1.1573751444646947e-01  2.6001201959427386e-02  8.8783916045812011e-02  8.2217468420556078e-02  8.0345108838475815e-02  4.8431557525796962e-02  8.2187441309469478e-02  8.3580276223928343e-02  1.8104925669263115e-02  1.6852383210190841e-01  4.9892564931181764e-02  4.0496671252069009e-02  3.5473504445583434e-02  7.2630898525775894e-02  3.8355340086192985e-02  3.9988787269481145e-03  7.4702523361141374e-02  1.9818370132293574e-02  1.0372018108612676e-02  9.3000938346476693e-03  1.4591404074597064e-01  1.3766427400566486e-01  1.3132728257704809e-01  1.2994315652294627e-01  1.3504981873402566e-01  1.2752508346715979e-01  1.3127833259102972e-01  1.2413595315010498e-01  1.2664119038915472e-01  1.1985922444327304e-01  1.2081164027960771e-01  1.1778224533707134e-01  1.2290611915124248e-01  8.2019469899490813e-02  7.9903683680862342e-02  2.8768670324595239e-02  6.4777199626919468e-02  7.9239611238105578e-02  7.9392202717112573e-02  6.0284066707873653e-02  3.2207152817636336e-01  1.7647697306089949e-01  1.7573635614855859e-01  1.6742916217823678e-01  4.3516215954914249e-02  1.9798219384148958e-02  3.8380035231464368e-02  3.7006643663955355e-02  2.2212192562337307e-02  4.8298775253012502e-02  5.8675449648250638e-02  6.9826765691485132e-02  2.5229800367497161e-02  2.6513989406022004e-03  2.6478353282150473e-02  3.5803537070864216e-03  1.2330338502407787e-02  2.7668225508014368e-02  4.7224382157247564e-03  1.3327153975482336e-01  1.3631301320814973e-01  1.3049998415177733e-01  7.5513131403790679e-02  7.6432554331143002e-02  7.3389907153736791e-02  7.0398508101060159e-02  6.8356879366675546e-02  2.6338023646775087e-02  2.0097871748095113e-02  2.0081132220277478e-02  6.1221518117097612e-03  4.3206449671771945e-02  3.6880789813583052e-02  7.9192044574673531e-03  2.0921473256773619e-02  3.9349114174389167e-02  4.5678704865023045e-03  3.9999555425558379e-02  5.7378333312495273e-03  1.8132175591107094e-02  1.6025055834340631e-02  6.6899676340667191e-03  1.4012480631410990e-02  7.3828820164008263e-03  1.2454310499501220e-02  8.3376639466038720e-03  1.0810682065682045e-02  9.4531451569706895e-03  9.3611353108437444e-03  1.0560277514316018e-02  7.9288512352232235e-03  1.2218113570882325e-02  5.7841902300182473e-03  1.2745591740421803e-02  7.4268320205349908e-03  1.3465908003585257e-02  3.6087537167897484e-03  1.6381622223461761e-02  2.8237815153729457e-03  1.6230880556969942e-02  4.8377513048008889e-03  1.6883097594628263e-02  1.1310187107317451e-03  1.9713954657835160e-02  7.7141973749513275e-04  2.0827060362014902e-02  2.7131662269910107e-04  2.2206300927924669e-02  1.8518037439800594e-04  2.3044225631316913e-02  1.8219769810561405e-04  2.3790300240939106e-02  2.7351772131062178e-04  2.4966213521738854e-02  4.1841327314225775e-04  2.5751666359228997e-02  5.3223882132643295e-04  2.6432656524597871e-02  8.4875646965006460e-04  2.7212270926813699e-02  1.3201333259538844e-03  2.7992767155974357e-02  1.8974159546911807e-03  1.6936230412634222e-02  1.5536728702629034e-02  2.5734583060648031e-03  1.4160178700199956e-02  3.2582651475399423e-03  1.2784037673328174e-02  3.9873902114540335e-03  1.1504113113169968e-02  4.8075003303007634e-03  1.0210887575661097e-02  5.6936602291967221e-03  8.8146642782836494e-03  6.5991444849764430e-03  7.5733757394787198e-03  7.5708835455442500e-03  6.6786390611430976e-03  8.3474200842428882e-03  6.3806951206251588e-03  9.2289616158744547e-03  5.3688028683518286e-03  1.0633285881349409e-02  3.9494514941414063e-03  1.1759559544568905e-02  3.2478317867133881e-03  1.2879222449457389e-02  2.6308119387073118e-03  1.3974934387010030e-02  1.9508671622441027e-03  1.5079309550677255e-02  1.3568349768910833e-03  2.5878369988774391e-02  2.4917129382676345e-02  1.6067466725854997e-02  7.9058756532596433e-02  7.8840214523329497e-02  3.9171073059573527e-02  2.0110409378464332e-02  3.8665763283501908e-02  9.4606404625814291e-03  1.0063077809046419e-02  1.3525065634700720e-01  1.6083157163369596e-02  1.6865210039163747e-01  5.4164939037577214e-02  8.1114400171713966e-02  5.6125414249017583e-02  5.7625142101059498e-02  8.0604501382930516e-02  4.5521020459786884e-02  5.9754603693528738e-02  6.4837871837876730e-03  6.0688344066824468e-03  6.8464258571717482e-03  7.2938118661965354e-03  2.4321809388067713e-02  2.7110477944488832e-02  6.8101436025600898e-02  3.7702252906290139e-02  2.5467250053793529e-02  1.8288581836443066e-02  9.5171800678438539e-03  8.0234929959821649e-03  5.8717619758035045e-03  6.5294772842525830e-03  7.2551337253023047e-03  5.5272064854892857e-03  8.4249434626969804e-03  4.5364255036062133e-03  9.5725549560666586e-03  3.3010627098014273e-03  1.1069593174402460e-02  2.4521393166873516e-03  1.2545452140820920e-02  1.6212944971094132e-03  1.4186657947095067e-02  9.0702200065103094e-04  1.5456333633617900e-02  1.9649101631249392e-04  1.7639029968930381e-02  -1.9610982949904599e-06  1.9361266562544860e-02  -2.1761902037364093e-06  2.0876160815821040e-02  3.7382381898726498e-05  2.0856201084942207e-02  4.3590239271514545e-04  2.3533546614612388e-02  1.1269203495012502e-03  2.3248375279737023e-02  1.9206051447356906e-03  1.5316219131952738e-02  1.9720906543322338e-02  2.6423079885562292e-02  3.1320524773992314e-03  2.8669829646453211e-02  4.5734593231190864e-03  1.0234054173421731e-02  8.6651436616226579e-03  5.5791572804106352e-03  7.3226300934163460e-03  6.3960886329001380e-03  6.1945600215187434e-03  7.5215094869800622e-03  5.0606035949775198e-03  9.0014708078706047e-03  3.9094791608492241e-03  1.0335643016983235e-02  3.1400131251209215e-03  1.1789989908075128e-02  2.2565049643685138e-03  1.3482180960671251e-02  1.2452261363219126e-03  1.4766719100943439e-02  6.8865822906015244e-04  1.6061836489199982e-02  8.2476104986579314e-05  1.7877285441086885e-02  -3.7585118838731128e-06  1.8917578470743979e-02  -2.1851102567944106e-05  1.9982468456071045e-02  4.3721290597622995e-05  2.1910286544894127e-02  6.4645009994390300e-04  2.3565819914909192e-02  1.3895340521348542e-03  2.4867589104451235e-02  2.2775914748832571e-03  1.4919549724607116e-02  2.6064285298296408e-02  3.1480970598751993e-03  1.9420328987678478e-02  6.7883418983015101e-02  7.6446968560953663e-02  2.0550763848791898e-02  1.9511643834348405e-02  1.9010106368793949e-02  3.5509674803999296e-02  7.3574456387647202e-02  7.3832294845826846e-02  7.3332071690217868e-02  2.3714222828284615e-02  2.5074425097941316e-01  2.4993336669230362e-01  2.1328613213255387e-01  2.4904981391712061e-01  2.1344175838411505e-01  2.4810872052414795e-01  1.8531747983020035e-02  9.2799837057952819e-02  2.8215517996800221e-02  7.5650348897244202e-02  7.3022265509970166e-02  9.2908513175647654e-03  4.8912110641601773e-02  1.6644136332135077e-02  2.2344809894149234e-02  2.5774559333073037e-02  8.7565811690014553e-02  8.7537849690995997e-02  7.2777778524632880e-02  1.5084847503592996e-02  5.3670818039999232e-03  4.9917702657187320e-02  7.3541765033331555e-02  7.7751738650706406e-02  7.8933067545122595e-02  7.9291714269412367e-02  1.1755566830890905e-02  1.0227163369410720e-02  4.1845259956274890e-03  8.6951835725535796e-03  5.5290692284366543e-03  7.3183399612770919e-03  6.3739784243339471e-03  5.4479556338515667e-03  1.0773466706942705e-02  3.3934438486995608e-02  9.0683588537601736e-02  9.1039052811394433e-02  1.6851555065850571e-01  2.6520967831695219e-02  8.3146604694972634e-02  2.3654639752264239e-02  2.9120613505850160e-02  8.8598746822326199e-02  1.0001195922679398e-01  2.1787335904150624e-02  3.1558987909657700e-02  2.3413639568672484e-02  1.9644398903816824e-02  3.0426340703963731e-02  8.1681447802524856e-02  8.2999815728617476e-02  1.6558426132870818e-01  2.6790837755272370e-02  1.3465670071718044e-02  3.2799552507441723e-02  3.0657427348581314e-02  8.5986125219062695e-02  2.4535167235368621e-02  6.6371315512045920e-02  2.1615450578225268e-02  4.7430068277888683e-02  7.9871890265299145e-02  6.3342494116538209e-02  5.6983308641655739e-02  4.6717032185363633e-02  7.3007699547732077e-02  2.6027392434582641e-01  2.5809848299176724e-01  2.3640779799644171e-01  2.5593679289275739e-01  2.3508735781500498e-01  2.5379503050204150e-01  7.8936724354572940e-02  1.5055845778481047e-01  7.9033236400270185e-02  8.5269524401537636e-02  1.0876534637625558e-02  3.3982030310065255e-02  8.4702815994727496e-02  8.3769559881465505e-02  1.6763310404717352e-01  2.3458668601519482e-02  4.0360406337962562e-03  2.5288970965625969e-02  6.5067886926190120e-03  8.8588536936999293e-02  8.6859644377939610e-02  8.6355611214677122e-02  8.5316298673049518e-02  7.6804245253990367e-03  5.3959427267330058e-02  6.1692294829670702e-02  2.6994409280847512e-02  7.6742682142854457e-02  7.6326585012324838e-02  7.5726016990435602e-02  8.7576587079096463e-02  8.2678733363645451e-02  8.2050645009700662e-02  7.6778486924196712e-02  7.6216868888880351e-02  7.7362263607173784e-02  5.0108479188956549e-02  5.2774398352205709e-02  5.4145505121623770e-02  1.0095976047408053e-01  9.9401261609094085e-02  9.9826964149489814e-02  9.7174783415783089e-02  9.7546719966745896e-02  9.6331164289309892e-02  9.3821881635466620e-02  9.4135027125449633e-02  8.9371403673923905e-02  8.9613859896440162e-02  9.4448925282177063e-02  8.9124721438603324e-02  8.9860977235120001e-02  9.4764675581263030e-02  9.0111780219096979e-02  9.5082156732250553e-02  9.0368753388228862e-02  9.5402765876068552e-02  9.0623628967746561e-02  9.5727605951911959e-02  9.0884333731268016e-02  9.6051293764243317e-02  9.1162875095034956e-02  9.6378047494563801e-02  9.1335613029010582e-02  9.6699502321103081e-02  9.1582724891814543e-02  9.7032479284323972e-02  1.0021868106349216e-01  9.1960570553645357e-02  9.7390578459811042e-02  9.2267469513913028e-02  9.7737184199044355e-02  1.0314550758753599e-01  5.6525089259425378e-02  4.5687637733693227e-02  6.8399528006749463e-02  7.6178355379908441e-02  7.6530928702721990e-02  8.5415664472334937e-02  8.5661439568392672e-02  8.5168455228827517e-02  9.5882903995557447e-02  9.5791218310387435e-02  1.0844636024759852e-01  1.0858726042471466e-01  1.0830403129458223e-01  6.9976247275517267e-02  6.4362867700057322e-02  8.0539813403136332e-02  1.0077107869299497e-01  8.9329973655653608e-02  9.5481382229376494e-02  9.9923228537999773e-02  6.0095108989054180e-02  6.8132487717113513e-02  6.7701889673115911e-02  7.4934467135163940e-02  7.4482138863002104e-02  8.0838456467495157e-02  8.1318799616387882e-02  8.0367120226140301e-02  8.6285866428465460e-02  8.6787042312239854e-02  8.4111978576920182e-02  9.1759632399503133e-02  9.1023444126471842e-02  9.7621623300747529e-02  9.6629977425992622e-02  9.8342251642867987e-02  1.0311709977068770e-01  1.0380532253220764e-01  1.0745527267995099e-01  1.0811285587246680e-01  1.0679600035545976e-01  1.1062667011678856e-01  1.1123890465985679e-01  1.0876888035169169e-01  1.1185228594964416e-01  1.0942725440259485e-01  1.1246155429993002e-01  1.1008628537216442e-01  1.1307219475869314e-01  1.1074567788209773e-01  1.1367968816153358e-01  1.1140507495460712e-01  2.0554614415922889e-01  7.3904733092385169e-02  8.3597624467131801e-02  8.3676820635395263e-02  9.5366259722691082e-02  9.5362446320413158e-02  9.5374397808454123e-02  1.0989944398547240e-01  1.1009709007892603e-01  8.1848627489159234e-02  6.3202480680985496e-02  1.8322695762352119e-02  1.1401008724279610e-01  1.0073165187700436e-01  9.7000055762063733e-02  1.1408507853900299e-02  6.9472030303808108e-02  5.4684374506136502e-02  1.9778375355177208e-01  1.1216320210177948e-01  6.4276884134797915e-02  5.7598698271728442e-02  4.8913443682468756e-02  7.3287166783146188e-02  1.0862776048813071e-01  1.0978215274072733e-01  1.5010395070260685e-01  9.6047232260670842e-02  1.0794238542718774e-02  1.3100014982652514e-01  9.1593715532139075e-02  8.9003711621854317e-02  8.9291406297547657e-02  8.5753349336776266e-02  8.6335936550456779e-02  8.5525222095948372e-02  8.1326718896250400e-02  8.1169632428144622e-02  7.6010549790675008e-02  7.6085473582673521e-02  7.6719029092208790e-02  9.4572749961004607e-02  4.6699462860011719e-02  8.7584286038988046e-02  6.5272207871489130e-02  5.0597395189750219e-02  6.5673898969240113e-02  2.2229245106787859e-01  1.7821959387074229e-01  2.2299406565283364e-01  2.1942311200181841e-01  7.3693420021389297e-03  2.1878403106731226e-02  1.1152629266431227e-01  1.3148734734472545e-01  1.3204372099219067e-01  8.2798946737670881e-02  8.7553170309384670e-02  9.2557625796072282e-02  9.2413059658920299e-02  8.7402961770029666e-02  9.2403455841823343e-02  8.7279132152490876e-02  9.2326630826074535e-02  8.7148059828935462e-02  9.2237442864844060e-02  8.7012671020438262e-02  9.2146181387208717e-02  8.6874467619318135e-02  9.2055740126300495e-02  8.6734871060044363e-02  9.1960243272132702e-02  8.6594628420141512e-02  9.1868207588864145e-02  8.6450968294915012e-02  9.1777766326262902e-02  8.6305382500999520e-02  9.1684634740902451e-02  8.6158086463483136e-02  9.1591242965219116e-02  8.6008500142358266e-02  9.1497637639282411e-02  9.7390987454536296e-02  9.7368909710718765e-02  9.1403388979965430e-02  9.7347250140791083e-02  9.1308353262785566e-02  9.7327352159626609e-02  9.1212891620771189e-02  9.7308369495214209e-02  9.1115692411467067e-02  9.7290690251011627e-02  9.1017828472323689e-02  9.7275290084682220e-02  9.0916888889946618e-02  9.7260936926684347e-02  9.0814666065989716e-02  9.7248435365526395e-02  9.0705791841108566e-02  9.7234636746684255e-02  9.0593507107565793e-02  9.7219112167925212e-02  9.0488556774764431e-02  9.6979581492674563e-02  9.0346173464911542e-02  9.6924897359908530e-02  9.0217282316779890e-02  9.6952574936382249e-02  9.0100920397403847e-02  9.6942959564000480e-02  8.9978235440802537e-02  9.6979738921930306e-02  8.9857548003118931e-02  9.6972386350271389e-02  8.9727228531405911e-02  9.7007491162371048e-02  8.9576360062892005e-02  9.6994867825366315e-02  8.9411352977649780e-02  9.7028244511761938e-02  8.9331144294295090e-02  9.7022755290454121e-02  8.9153984510676326e-02  9.7246928820432565e-02  8.9022780692933665e-02  9.7643128865265813e-02  8.8946040597150569e-02  9.7508549883655676e-02  8.8767959147242878e-02  9.7265566945069132e-02  8.8549847213493640e-02  9.7174162996010727e-02  8.8351164838289142e-02  9.6941181117880026e-02  8.8106233666016998e-02  9.6856551311394506e-02  8.7904056386436849e-02  9.6798103348565978e-02  1.0693837290211258e-01  1.0710371729259818e-01  9.6739079698780206e-02  1.0725729258934874e-01  9.6682132445248675e-02  1.0740588706326716e-01  9.6617203151183245e-02  1.0756440930329303e-01  9.6546004698174911e-02  1.0771859416088504e-01  9.6471792030290507e-02  1.0787751950391107e-01  8.4696985106983050e-02  8.4144724037083812e-02  9.3824762390989080e-02  7.2706063307597102e-02  9.2688625260323329e-02  9.3083815863556463e-02  9.0242837469361223e-02  6.7946077723050630e-03  2.0264367187798601e-01  5.5754453802754698e-02  7.7944270276118249e-02  1.0566221878381032e-01  1.7780690178298517e-01  5.2528183126966659e-02  2.4879732118458406e-01  2.4409338179088511e-01  2.6184742275058559e-01  5.0683672576837452e-02  5.7010181476821152e-02  5.1615950463956332e-02  2.5660825858890102e-01  2.3956191165462273e-01  1.8744263678030997e-02  7.5477958582548660e-02  7.0743574244871835e-02  2.1877614307955956e-02  3.7896188827096916e-02  8.0196262449800229e-02  1.1720514014101793e-01  1.4684657366963946e-01  8.1049231968238142e-02  7.6060654977931061e-02  1.0862811964824913e-01  7.2616015756127653e-02  7.6260408629299517e-02  8.0927714665926270e-02  7.5902884077512375e-02  8.0785701867236714e-02  7.5843466854135094e-02  8.6250225425414558e-03  6.0590494784927146e-03  1.2806581326230838e-02  4.1747795290136017e-02  8.3964063813016548e-02  8.6027213057132790e-02  9.1687687500400419e-02  8.3217638279163397e-02  8.4340231258660622e-02  8.5329208672515852e-02  8.5635073502644252e-02  7.4874149092524822e-02  7.1689116455154980e-02  1.1042059442822132e-01  1.1020314142133902e-01  1.1072256419890424e-01  1.0937476482893763e-01  1.0888884183990699e-01  1.0692862429111849e-01  1.0648312743124787e-01  1.0340153687474271e-01  1.0114133277362598e-01  9.5289691398773774e-02  9.4180045867928996e-02  1.1914989563022575e-01  1.2234016200581466e-01  1.2267952798515362e-01  1.2484362081859476e-01  1.2522082639534288e-01  1.2446132479249394e-01  1.2588871414414773e-01  1.2546349356692935e-01  1.2575292754009487e-01  1.2528868363284962e-01  1.2621833435693630e-01  1.2503563647367985e-01  1.2482328498778530e-01  1.2460504227935684e-01  1.2435821326462150e-01  1.1720348804716853e-01  1.2192009176649932e-01  1.2211817180697519e-01  1.2594900709618997e-01  1.2620937570719423e-01  1.2909050435037647e-01  1.2875751880531722e-01  1.2942248254024324e-01  1.3085077638968390e-01  1.3043823669106230e-01  1.2646411032463190e-01  1.2975234649860667e-01  1.2671380358835471e-01  1.3008003048775674e-01  1.3207497263146475e-01  1.3248439046514407e-01  1.3040453885400646e-01  1.3290038440252461e-01  1.3072813036585865e-01  1.3330852159805848e-01  1.3105233097781036e-01  1.3371575241850017e-01  1.3137394185602080e-01  1.3413081912715996e-01  1.3169387944864322e-01  1.2789497836883271e-01  1.2811909162240637e-01  1.3201265063735818e-01  1.2834094381896541e-01  1.3232653269527725e-01  1.2855902523566956e-01  1.3259753846293887e-01  1.2875963118768469e-01  1.3289557649426431e-01  1.2896425757236860e-01  1.3327671890416054e-01  1.2918725123977065e-01  1.7485711978225245e-02  1.0115090149247210e-02  9.8904177244698421e-03  2.1194262790108997e-02  2.2134395897210491e-02  1.1194300250510353e-01  1.2841944637190017e-01  1.3002909276803951e-01  1.2807657593597219e-01  1.2961382044877573e-01  1.2773282282905013e-01  1.2913670024679522e-01  1.2735862078596746e-01  1.2136975739208045e-01  1.1968346582322981e-01  7.4226258991009861e-02  6.6875377798443172e-02  5.8607661567350970e-02  1.2874940300274296e-02  1.0418125704554677e-01  1.1152232772679856e-01  1.1142053477821340e-01  1.1825456257775663e-01  1.1823324366733101e-01  1.2451416764984972e-01  1.2459627361300681e-01  1.2442861298482041e-01  1.3002328469229341e-01  1.1820445925649888e-01  1.2467352162714572e-01  1.1816875758481933e-01  1.2474639940721768e-01  1.3042357665939891e-01  4.7943205603760468e-02  3.7274455400619105e-02  1.2417146624453217e-01  1.2389259365356432e-01  1.2288897480791677e-01  1.2240224216442142e-01  1.2342745571337184e-01  1.2189506167069206e-01  1.2295759347818092e-01  1.2142715882972968e-01  1.2249148235831572e-01  1.2087506204218311e-01  1.2736396898771440e-01  1.2873475391273820e-01  1.2700735358191184e-01  1.2838239242435462e-01  1.2667466431341132e-01  1.2797361667868154e-01  1.0660569695431397e-01  4.1423814213047361e-02  5.3390733455282419e-02  5.3203489426072330e-02  9.1929251555973757e-02  1.0067204687530655e-01  1.0032514181717352e-01  1.0896778093285631e-01  1.0871638149655431e-01  1.0920780466643130e-01  1.1734706026396535e-01  1.1745518244090937e-01  1.2516493432453682e-01  1.2518392985110291e-01  1.2518032532671966e-01  1.1754050521691667e-01  1.2512565311686308e-01  1.1763163839203711e-01  1.2513476223858022e-01  1.1772998776363436e-01  1.2512538157246314e-01  1.1781742608372080e-01  1.2507673513135026e-01  1.1789759610185754e-01  1.2501079277351668e-01  1.1796896597374450e-01  1.6498006787982206e-02  1.2202049049471968e-01  1.2038016155772922e-01  1.2154948289273665e-01  1.1985284584935837e-01  1.2107481942518282e-01  1.1947425929312447e-01  1.1720127137178131e-01  6.8899466481842234e-03  8.1547305111268370e-02  1.2060393440458288e-01  1.1910512690933697e-01  1.2013627900038516e-01  1.1858712572583911e-01  1.1967491255014398e-01  1.1775488690693574e-01  1.1640175814217642e-01  1.1916731509772410e-01  1.1753686350239630e-01  1.1869573460256576e-01  1.1706940853246299e-01  1.1821725614303659e-01  1.1659056974181051e-01  1.1476277211079802e-01  1.1773419924813057e-01  1.1610888297228139e-01  1.1379124331163250e-01  1.1326599478311435e-01  1.1562698153064939e-01  9.5702040673948052e-02  1.0874832250115231e-01  1.2285209894034385e-01  9.0608474077370452e-02  9.0134056616462163e-02  9.9206138623844226e-02  9.8803493217694285e-02  1.0790852853569399e-01  1.0761368937786810e-01  9.8384670050864154e-02  1.0730863455799691e-01  9.7950007447949142e-02  1.0699171121523764e-01  1.1638484028506059e-01  1.1667317483825292e-01  1.0673047687517928e-01  1.1660440641385807e-01  1.0641514643166475e-01  1.1650414916343158e-01  1.0607676448384079e-01  1.1668764305182767e-01  1.0559566198791248e-01  1.1605649832074255e-01  1.0529707617034507e-01  9.5616651247875245e-02  1.0889622258205767e-01  7.4842556424708759e-02  7.4004735747492278e-02  7.5620943229969068e-02  1.2632141304877606e-01  1.2756595861230000e-01  8.1806453656853531e-02  8.7293612822116076e-02  8.2303134075888226e-02  8.7806416482730229e-02  8.2808780198473986e-02  9.5534896229741706e-02  1.0905022453790530e-01  9.5462387766533097e-02  1.0920146287750067e-01  1.1812430649237214e-01  1.2981986103009657e-01  1.2495060273151715e-01  1.2433506448129095e-01  1.3359288727192623e-01  9.6058220456205601e-02  7.4034368056536196e-02  1.1544021981162686e-01  1.0484629705452293e-01  1.1515373822609366e-01  1.0441276877050798e-01  1.3810244230448782e-01  1.5371745771909852e-03  5.2740262499372248e-02  5.5461622631283021e-02  5.7114579992587948e-02  5.1295274149869674e-02  1.6696568399063727e-01  2.0811468840369757e-01  2.0607302772046948e-01  7.8483974414672059e-02  7.6970970231849220e-02  7.4383407542772603e-02  7.1879450807152662e-02  2.6499590335573739e-02  5.9131527009843109e-02  5.7050256440349251e-02  9.2557989550835496e-02  7.2588209455443919e-02  7.1507632631039167e-02  7.7230701818958067e-02  7.0646867924958459e-02  3.0648304420236135e-02  1.9023343979062649e-02  2.0161569083039805e-02  2.5377530754788852e-02  3.2105236269987729e-02  4.8860421927574865e-02  5.8489657151505559e-02  8.7025784913053919e-02  7.8373199863671916e-03  1.2855370671221333e-01  1.2015832871003361e-01  6.1269370303241012e-02  2.1007590403287056e-02  3.7180533234208481e-02  6.7462458080674087e-03  2.1369433317272344e-02  3.0904857198426866e-02  8.0650141301936332e-02  1.1671912404277399e-01  1.1685792736289481e-01  8.0026513566905988e-02  7.7175004105164646e-02  3.3868330556212009e-02  5.2019014784352509e-02  5.0243045423616246e-02  1.2839814735941532e-01  1.2888430655483668e-01  1.2792638210904725e-01  1.1029366225168225e-01  1.2943834214514660e-01  1.5221872066866007e-01  8.2816475873402781e-02  8.1555036885084767e-02  1.8165418592006325e-02  1.0642575312972215e-01  1.3434396293922773e-01  3.3736854976754896e-02  3.3174243287019053e-02  1.2666557762722833e-01  4.7892474887168059e-02  6.0592979281948324e-02  7.4003920729899780e-02  9.5150716565458579e-02  9.6144738101781091e-02  2.2845659638859879e-02  5.8728425543501037e-02  4.0638995993623625e-02  4.6475967695350638e-02  6.5612226006235869e-02  1.1488977370791488e-01  2.8248163582534788e-02  8.0570641544564781e-02  1.5763516605670803e-02  1.2491280275432767e-02  1.3111758486853764e-01  9.7551891449327535e-02  5.0323673344397871e-02  7.4743088894074494e-02  7.1025711921323481e-02  1.3215280749739786e-01  3.4173257461553239e-02  2.5234011050743757e-02  3.2890832688267001e-02  3.0375431956174100e-02  3.9817745982093485e-02  9.0769625888781902e-02  9.0257310355507644e-02  1.8176280432409753e-02  3.5867164469256058e-02  7.9731726960739005e-02  8.0065744347254997e-02  3.2236309336686045e-02  3.9309117556383076e-02  1.5375322910124725e-01  2.8162924148400225e-02  3.2592424523940858e-02  7.8833924180866322e-02  2.5087228085802330e-02  1.6531654843224208e-01  4.1776118203045297e-02  4.7252304076500939e-02  5.8732136854428338e-02  1.2999561360957651e-01  4.7131856155167198e-02  7.7031055241257316e-03  3.3111573953323287e-02  1.2487315766225128e-01  8.1190903236629933e-02  8.2385726866471221e-02  8.1094907450676740e-02  8.0214649110747091e-02  8.1760134382931726e-02  7.9298106735161383e-02  8.1108924030646429e-02  7.8252853121183394e-02  1.0727704274330621e-01  2.8008927199367384e-01  8.9874469550339550e-02  4.8804712130649248e-02  5.9672387491674313e-02  3.2309472361235592e-01  2.0483148118196420e-01  2.1493774754124281e-01  4.2082663324239239e-02  4.4446564336509183e-02  8.8336603443746983e-02  8.3315770857404325e-02  4.9055983828268299e-02  6.1395000318314130e-02  3.4759712673612386e-02  7.4864649287641069e-02  7.9701442954602852e-02  6.9167614426189336e-02  9.6158426079498444e-03  1.4260576380016122e-02  9.7672528575742351e-02  2.7789334615239841e-01  2.4711866703392563e-01  2.7569184792177798e-01  2.4607338262354761e-01  2.7349472504735539e-01  2.4498264189789146e-01  2.7128272866779263e-01  8.0182560481078524e-02  1.0442392662855372e-01  1.0505977064680078e-01  3.8197770269731583e-02  1.5715294993025868e-02  4.2651881923601198e-02  3.6036653507442042e-02  4.8407601426850987e-02  8.9009726172149389e-02  8.9337665703763683e-02  8.2958741571311528e-02  3.4029799751917236e-02  9.1773375728049597e-02  7.6274176853297307e-02  6.8801292218692231e-02  7.9871262468349996e-02  7.6940118207951325e-02  7.9767809789680191e-02  7.6583120934443930e-02  7.3990776331297484e-02  7.9639761317838911e-02  7.6448246305915360e-02  3.6654728593524456e-02  4.7530015413116300e-02  1.0667860860892711e-01  2.0852673536121524e-02  2.0651652313607969e-02  2.7766622686198041e-02  4.2760787073835078e-02  1.3502291317244944e-01  1.3247751002896152e-01  9.0237522484575158e-02  9.0307349363386843e-02  9.7389430644721331e-02  1.6250524852327738e-01  5.3340682483951227e-02  2.1975101539144290e-01  2.2156441711314498e-01  6.2433168527195222e-03  1.7560845932701706e-02  3.6515343867611808e-02  1.2323696071101461e-01  1.4654436397643869e-01  4.0616215694241856e-02  1.3138739001157143e-01  1.3184555426343875e-01  7.0149197149149634e-02  4.7412178903747181e-02  4.9324327873206911e-02  2.9475102695698228e-02  5.8926382689286440e-02  7.9538201848402615e-02  7.6230218258321061e-02  7.9369963392329296e-02  7.5820157174134969e-02  3.0115702770982095e-02  2.9078930622939893e-02  4.6984874933810060e-02  4.6959169182010381e-02  9.7201354278020749e-02  8.3129225015799196e-02  4.3670085565780149e-02  4.0229551105089523e-02  1.6221372816948913e-02  1.8448589965399477e-02  1.3487105444350176e-02  8.8717121585841149e-02  1.2275005833478138e-01  4.5782866322282630e-02  4.5579257026402156e-02  4.2313146317918660e-02  5.2228311900663897e-02  1.0425650625430880e-01  2.5648761589527093e-02  7.8310714331582792e-02  7.8592170821054491e-02  7.1178318968629126e-02  1.1842197126022910e-01  9.1889522942508128e-02  9.6599899509239195e-02  8.3673798537413940e-02  3.4136101287557091e-02  8.0434443961913904e-02  7.7060106639702836e-02  7.9757251996517786e-02  6.9485016859228754e-02  6.9700514441374817e-02  3.7772997200654572e-02  6.8824195130069599e-02  1.0553472368064601e-01  7.9822463553988782e-02  7.3580170001490669e-02  1.1428358036340461e-01  3.2477041602980740e-02  3.3473015906432903e-02  4.4883295621176246e-02  8.7700765101552391e-02  8.8788396732108907e-02  8.6634531942689719e-02  8.1841435119096057e-02  7.9473518974886165e-02  6.1772167982173706e-02  1.0407094952006384e-01  7.6605557612851635e-02  7.3292484123285540e-02  1.2530480003788594e-01  9.0255347867025021e-02  7.7729165984715867e-02  1.0495709350710214e-01  7.0397863240937039e-02  1.1252702604462075e-01  1.1118131662568662e-01  1.1426041366720928e-01  7.3691303845772660e-02  1.6971206423044782e-02  1.2537006960148259e-01  1.0995231271161157e-01  1.0904039236195227e-01  5.5951338703968463e-02  4.6963350558730410e-02  1.9424844791957354e-02  6.4692088531625377e-02  6.1536414309919713e-02  6.4993070634281308e-02  8.1332659198505977e-02  8.1875097301001870e-02  8.6910949726543979e-02  6.8160778477083905e-02  4.6797254941765530e-03  7.6764318630440503e-03  1.8384907105713409e-02  1.5008645030912416e-02  2.8310423354814040e-02  2.4570050025714101e-02  4.1064240732533119e-02  3.6973497944799608e-02  4.4417118042958142e-02  6.0616141923036264e-02  6.3380690741575207e-02  3.0352456059331179e-02  2.9687769057891163e-02  3.1037643919457878e-02  2.4619522506330017e-02  2.9050146899401118e-02  1.3288946694529175e-02  7.1324780102366384e-02  4.8421795211055635e-03  8.7247277175090732e-02  8.6782404644939859e-02  8.6541395929401591e-02  2.4690071086269593e-02  2.4357742642015644e-02  8.2844283099387864e-02  1.6772652095185012e-02  1.5877055245690306e-02  8.3330620550097059e-02  8.3758377630239370e-02  8.5249010764421401e-02  3.7095612845151830e-02  3.7979574728727469e-02  3.6220252841357319e-02  2.3869552650679769e-02  8.5931226355219451e-02  4.6699402292340611e-02  9.7509520760298882e-02  2.5163092534368010e-02  5.6645696072831930e-02  5.5351761035894613e-02  5.8018322539188233e-02  2.1476896718211312e-02  2.1946675735066895e-02  8.5056053127668368e-02  9.3731736656457801e-02  6.4671061466586618e-02  6.4576193127760362e-02  6.4749264406127910e-02  8.7092794282829178e-02  5.8033631852780827e-02  7.1821732242485128e-02  7.4775364107823455e-02  1.1824757516260376e-02  1.2390701235462162e-02  1.1300363408754161e-02  4.6189687062796289e-02  8.5385081066488344e-02  1.1901021128175130e-02  1.1679418937445890e-02  1.2341947353981590e-02  1.0139126014481861e-01  9.9451245282167325e-02  9.8688019582457459e-02  5.6519711114700860e-02  5.6153451053997834e-02  4.7739443832600377e-02  1.5047758474077026e-02  1.8667614509181574e-02  5.0885033607137989e-02  1.0299756678139405e-01  9.8807185407732062e-02  1.0603730027606637e-01  9.9167022699522961e-02  9.3488583539170306e-02  5.7490583151681950e-03  3.8229669888582028e-02  2.3374873837597859e-01  2.5166171228541451e-01  6.1599680338984067e-02  7.1724076984544263e-02  5.0371751803947783e-02  9.9066133938694734e-02  8.5700652341634362e-02  1.1081351808095227e-01  1.1184729375116080e-01  2.1047922772471733e-01  1.0268895705082585e-01  9.9421522300501608e-02  2.7247667299208200e-02  2.0672444904757673e-02  1.1799081519128687e-02  1.1888201890687788e-02  2.9607268855368716e-02  2.9565103948254162e-02  5.4558346807932000e-02  6.7329298472824331e-02  6.6027791399146635e-02  6.0681607362350148e-02  6.1993968472230147e-02  4.0083476914182549e-02  4.3514432638270817e-02  7.4122884421177065e-02  6.9895089704407387e-02  7.5152072687129534e-02  1.1125572589973734e-01  1.7695443288282410e-02  1.0046316982693310e-01  1.2056042857732885e-01  8.2462777936238435e-02  7.5552028225904172e-03  9.8640513331747989e-03  2.2661582839441557e-01  9.8391736042890657e-02  9.9454595071866311e-02  2.8099600794336890e-02  1.3347916562613731e-02  3.7892330405173515e-02  5.7518110114476405e-02  2.5161011442769254e-01  2.3519811949707814e-01  5.0491465045431165e-02  5.3320328441187607e-02  1.2357750239129560e-01  1.6008503413658728e-01  1.5003078012544144e-01  1.9385303554338343e-01  6.9923676706740073e-02  1.4033944357422934e-01  1.1773390892038335e-01  1.4800969711400472e-01  4.1670595782418919e-02  4.8206348829985007e-02  3.7809500755950139e-02  1.8297024845356469e-01  1.4563391647130178e-01  5.7595301456760263e-02  8.0661419352980532e-02  7.4691752281757983e-03  6.4549345312243153e-03  7.7239692620547251e-02  7.3104872457975742e-02  6.9055739653627379e-02  6.9033984532998596e-02  7.2911825258381038e-02  6.8919155119819622e-02  7.2719972698527063e-02  6.8825625383226188e-02  7.2539988757640908e-02  6.8549190797063050e-02  7.2342972942366551e-02  6.8605503011299779e-02  7.2204036962919285e-02  6.8573265524259797e-02  7.2070309599383264e-02  6.8511859234702419e-02  7.1941772108940136e-02  6.8479524379490647e-02  6.5149724872760823e-03  6.4309517158930608e-03  1.7523670483158268e-02  2.9611509936994088e-02  3.2460606658167801e-02  2.7990594213706182e-02  2.9578673775165910e-02  2.4385280205430954e-01  2.6906925261579595e-01  8.4458626803575243e-02  8.5029366821657473e-02  8.5489870239038895e-02  1.2356071387257192e-01  1.2380688416744003e-01  7.5018608977752005e-02  1.2402849341258888e-01  2.3069756871526782e-02  3.8859345582714776e-02  4.6894399738505441e-02  8.6690560128534683e-02  1.1788199240413652e-01  1.1779409030129212e-01  9.4983026310629978e-02  9.7054393587651597e-02  1.3331129911785125e-01  6.2261810170301905e-02  6.0026689061191477e-02  1.5019006406848546e-02  1.1658961034549192e-02  8.4198532378607083e-02  3.7805816117614112e-02  7.3283938157834086e-02  6.0443213483206554e-02  5.5846593357311528e-02  1.2425433297892477e-01  7.7022467608904951e-02  7.4531612192306904e-02  7.0568257477514010e-02  7.2210977689129000e-02  1.0441184638094270e-01  5.5099628667580662e-02  7.3593302856272441e-02  2.7310935211288974e-02  7.1705841773934215e-02  6.7938008318911475e-02  1.3990383417771873e-01  1.3335835350796643e-01  1.2424614573803233e-01  1.2675976559886878e-01  3.8006556751290513e-02  2.9484672298616389e-02  6.8801127954058391e-02  7.0453135275387463e-02  6.6873921888753129e-02  1.5109548180724933e-03  8.2340327276734637e-03  7.3265524839274648e-02  7.3601397034464069e-02  7.2402694571090276e-02  8.9550665413974634e-02  3.2227945095939836e-01  1.1781177595774144e-01  1.2066092329664312e-01  7.0671834575109740e-02  7.5742173214611658e-02  7.0098834952361674e-02  2.1010142512112653e-02  3.7550731569125709e-02  3.7394911574772059e-02  1.7159834745823169e-02  5.7906664124530917e-02  5.2012805826625416e-02  7.4360155748525336e-02  3.8138985226474742e-02  5.5626269096309917e-02  7.1820235800628185e-02  7.1368926423076545e-02  1.0739020907669566e-01  3.8452782356186641e-02  2.9749153439581160e-02  8.3118107427644972e-02  4.7633377914332697e-02  1.1374184770907748e-01  7.6012121074569061e-02  5.0591677769367766e-02  5.2514191242479337e-02  1.7105209148748468e-02  2.3230662073275767e-02  1.0390668066339216e-01  2.3187357140883946e-02  1.1782326309176512e-02  1.2370478738147745e-02  7.9220780051704437e-02  7.3124592405680783e-02  9.0215705858910908e-02  8.8699226420351121e-02  8.9744751796653935e-02  8.8303814769406561e-02  1.1869620456005739e-01  6.8944807921724948e-03  1.3424603341825350e-01  9.2163526343682686e-03  9.9061442943283590e-03  7.9677419046700379e-02  8.4646224626096944e-02  1.4047604319466514e-02  7.4647464133755614e-02  3.9402605959570007e-02  1.3457599317208074e-01  5.4464131065509722e-02  1.3400038884978438e-01  1.2701541048267015e-01  1.2010171638105208e-01  1.2048771137102683e-01  8.3313119031389021e-02  1.5481423262865239e-02  2.3371609090962923e-02  2.2691729099089349e-02  2.4119502752630209e-02  7.8737032407772925e-02  7.2699344115639580e-02  3.9273823668236861e-02  4.0217821701397066e-02  4.2362292019007347e-02  1.2511062964812339e-01  1.2542759234661094e-01  6.2335869584988587e-02  6.8298318589779083e-02  7.2163316572710509e-02  1.5824414851147137e-01  1.5700979937529433e-01  1.3114127042486939e-01  1.1211815853106925e-02  2.1384285862837516e-02  2.1571768550217280e-02  7.6324143985821602e-02  6.9798271565277903e-02  5.8664967606261754e-02  1.1540258435188348e-01  7.5251786480479144e-02  8.9995318670087324e-02  3.1300892111560091e-01  1.5098002458081142e-01  6.3684238259924225e-02  6.9440099270192873e-02  1.0385447296529973e-01  9.3825107868066374e-02  9.1147407385030951e-02  4.8110706381185621e-02  4.5178443725417516e-02  4.4491006939731681e-02  4.5055640162860205e-02  8.1741354138864131e-02  7.9106113485410731e-02  8.1740281943849441e-02  7.8746566812700494e-02  7.3965991034436296e-02  1.5451720553923295e-01  7.8653953800522911e-02  1.2680932456990177e-01  8.4529012981035878e-02  1.5171806203608881e-01  1.5489558236568132e-01  8.7960075999542947e-02  6.4618753521565916e-02  2.8439213016051096e-01  2.8652768382056298e-01  3.5312308752467686e-02  3.7829914441646670e-02  3.0498336664331171e-02  1.2057074972778144e-01  4.6120380973592098e-02  7.9066331783904917e-02  7.4824069435333845e-02  1.2644686254149137e-01  9.3207798024982372e-02  7.7896976967142664e-02  6.4730706304328214e-02  7.9162111812057442e-02  2.0485073694602503e-02  8.4565798611564977e-02  9.3848680811218749e-02  6.6231489409548802e-02  4.5979514952383241e-02  2.8522053872654324e-01  2.6457498893338655e-01  1.1962621551406773e-01  1.0389975090842220e-01  6.2474171125655099e-02  6.2079874484427998e-02  7.5987245500759179e-02  3.8764832526802288e-02  5.1641109947093228e-02  3.9018519127710143e-02  1.2506183570264423e-01  1.1766326062670632e-01  4.6079795100987420e-02  5.8378952013401715e-02  6.9885888293449341e-02  6.2637392480374032e-02  1.0445765334355768e-01  1.2670596310033616e-01  1.3366517600850558e-01  1.3323177772789888e-01  2.5196193202371351e-02  8.0046157321376696e-02  6.3090147829048815e-02  1.0374553953678534e-01  8.2996810523751505e-02  8.2700369437973237e-02  8.3405837611062475e-02  4.9861428821743783e-02  1.6876380476003791e-01  1.5838080379029398e-01  1.5943742459463678e-01  1.5750494283610847e-01  8.8905232335596274e-02  9.2878921740484954e-02  1.3633104405160840e-01  2.2217944245357824e-01  2.2458361098753840e-01  2.2335991516479139e-01  2.2698177405189077e-01  2.1976395170117541e-01  2.0505455265174108e-01  8.2994977400097258e-02  8.4170083092326389e-02  3.5134631293834801e-03  2.6933962050392368e-01  1.1261604850824503e-01  1.1203919493128740e-01  7.7054973732397836e-02  9.2800831728604274e-02  8.5535326803645104e-02  8.7319518537009158e-02  7.8316182360152850e-02  8.4703129364544355e-02  1.0360026520253708e-01  1.0353935548250451e-01  2.7483417487053396e-01  8.2774262699889231e-02  4.4926524349999337e-02  1.4045525921370441e-01  6.0090637504320761e-02  6.2900014930268852e-02  1.1206746560061277e-01  1.0802572940097074e-01  4.9754763073279758e-02  1.9723743660827658e-02  4.5777553802168539e-02  2.0753302243294416e-01  1.0879359104463217e-02  1.4535808146395547e-02  1.8293559120123860e-02  1.8251740589244541e-02  9.1221570960794682e-02  9.1591783771312288e-02  8.0652364322441796e-03  8.1535913279223063e-02  7.0974478034317182e-02  7.9160610616135593e-02  6.0068285509379780e-03  8.8732546154395478e-02  1.1667808507702714e-01  6.0047838514141305e-02  1.3530838740101869e-01  2.0527589570754073e-01  7.0836979430178068e-02  7.9629825113008104e-02  2.7785534074752222e-01  9.2850484369746938e-02  1.1613377652055504e-01  2.3934902316406718e-02  3.5597937403624220e-02  3.6270659887342245e-02  4.8989195523206847e-03  5.5765251446184091e-02  4.6995586484024347e-02  3.7934541066229524e-02  8.0452185969674517e-02  7.8072817136218692e-02  1.8006737221098051e-02  1.0051599343095845e-02  9.8488073200800937e-03  1.6201407903795040e-02  1.0343153606822277e-02  1.5002990908293809e-02  1.0718401061415295e-02  1.4156657581165496e-02  1.1181658091860846e-02  1.3345279434162293e-02  1.1704509708206540e-02  1.2587646535023662e-02  1.2276836459369981e-02  1.1879911453891690e-02  3.4304429334544258e-02  3.3668054332870803e-02  1.2919093552387552e-02  1.1223903114600791e-02  1.3611134915113272e-02  1.0626381735088217e-02  1.4362426163315062e-02  1.0094238897852820e-02  1.5129995406374257e-02  9.6387125917330729e-03  1.5905018827010169e-02  9.2532615672142882e-03  1.6748881765212231e-02  8.9395148488415708e-03  1.7586243293568390e-02  8.7071190658125491e-03  4.9730363788374213e-02  6.5336772891255238e-02  1.8425368364683021e-02  8.5527182558761544e-03  1.9266880262688107e-02  8.4776547874185638e-03  2.0068284331918644e-02  8.4759044201796405e-03  2.0932325870021910e-02  8.5465287989740044e-03  2.1754432058498519e-02  8.6893296283517534e-03  2.2571694646445848e-02  8.8975815890562672e-03  2.3370977854530014e-02  9.1670734686606949e-03  1.4982159452571034e-01  2.4152530631713486e-02  9.4925683631735241e-03  2.4917281620545483e-02  9.8700144407450428e-03  2.5629122191143092e-02  7.7719072412936602e-02  5.4422426007112112e-02  5.5305373805172336e-02  3.9742769549607676e-02  5.6137023195834017e-02  4.0616089364483764e-02  5.6900718499983967e-02  4.1469855506294458e-02  5.7735469177076816e-02  4.2335874776300381e-02  5.8526226473432273e-02  4.3188872619083718e-02  5.9291485184267252e-02  4.4030402188699046e-02  6.0045573831876656e-02  4.4862452432517470e-02  6.0744584955530097e-02  4.5674034763674008e-02  6.1505574429339870e-02  4.6492126939656118e-02  6.2221384347237715e-02  4.7292869454728936e-02  6.2911906263042716e-02  4.8077867315174105e-02  6.3587518585538516e-02  4.8848915353200968e-02  6.4206336669571748e-02  4.9595378494022152e-02  6.4882117535870629e-02  5.0343688202817594e-02  6.5513188005082601e-02  5.1071349618602879e-02  6.6119298709312893e-02  5.1780575534714553e-02  6.6707330759895864e-02  5.2472475250177265e-02  6.7238236745891883e-02  5.3137161446951062e-02  6.7820292587574077e-02  5.3801033341827162e-02  6.8357877722686783e-02  5.4442119706901243e-02  6.8870562612653036e-02  5.5063137055255298e-02  6.9363495529874628e-02  5.5665191558141751e-02  6.9836445764138569e-02  5.6248257292464167e-02  7.0289953305747527e-02  5.6812394366387901e-02  7.0687786849639417e-02  5.7348271346492341e-02  7.1094712639445737e-02  5.7873998835961345e-02  7.1488038934958656e-02  5.8380723898672049e-02  7.1901594404017805e-02  5.8874586778549738e-02  7.2249343750400610e-02  5.9335421750645857e-02  7.2573025419787732e-02  5.9787695167593441e-02  7.2902093667146464e-02  6.0219195429992649e-02  7.3198315637099248e-02  6.0628688258680834e-02  7.3439923395463486e-02  6.1011038368074061e-02  7.3689464676951880e-02  6.1379934799655853e-02  7.3923578380758040e-02  6.1729890049424932e-02  7.4171779815635094e-02  6.2065765576901744e-02  7.4373699301177959e-02  6.2378742566203918e-02  7.4516306537531121e-02  6.2665006958102024e-02  7.4676531677840441e-02  6.2937160276134427e-02  7.4818330049184159e-02  6.3191279243033208e-02  7.4971290946896030e-02  6.3431818864169112e-02  7.5080992571654515e-02  6.3649988939111959e-02  7.5137542237509611e-02  6.3842957674795947e-02  7.5209384087273692e-02  6.4022679917176389e-02  7.5264151520876427e-02  6.4179705024097894e-02  7.5292979752906525e-02  5.2721913937718967e-02  6.1298327899992663e-02  6.4772977555477618e-02  8.8086221925904873e-02  1.5257528778061476e-02  5.8711314768950147e-02  5.4371053036760278e-02  6.0245878920150354e-02  5.6157867488757410e-02  6.1715679709796314e-02  5.7871041101043623e-02  5.0002295104402190e-02  6.3128340928954793e-02  5.9513385279542981e-02  6.4460685108122362e-02  6.1079417338440016e-02  6.5714694800311335e-02  6.2571780356239601e-02  6.6925024100169012e-02  6.3997162928853144e-02  6.8058088549280193e-02  6.5351732959858022e-02  6.9116276424835157e-02  6.6635636805855311e-02  7.0137870335408983e-02  6.7860341193951956e-02  7.1096899833382882e-02  6.9018755978903695e-02  6.5366670422736195e-02  6.6725156006950379e-02  7.0119846989116080e-02  6.8021274120726533e-02  7.1157529657105936e-02  6.9253333738185721e-02  7.2154277023735600e-02  7.0431725969655024e-02  8.9309012534487905e-02  8.2594988521100518e-02  1.4841275593181774e-02  1.5086223915954334e-02  8.2085377417051339e-02  8.1621406179065950e-02  5.2271355306910794e-02  8.1065238832379927e-02  9.5632439826033224e-03  9.1354768394802596e-03  9.5401446780029084e-02  8.0180261889108859e-02  5.0702763416570609e-02  7.3252469418191732e-02  7.3608322880638732e-02  4.8653453472131451e-02  5.5763248454877151e-02  4.7418634513204411e-02  1.1093021373190948e-02  1.2160445294832411e-02  4.8615227701197854e-02  2.7833824720645304e-02  4.3750859634627375e-02  7.6833054009884535e-02  2.6183834508046819e-02  2.6101310914683085e-02  1.1820830919816271e-01  1.0027596061732645e-01  9.2802441630999100e-02  1.1964169267848986e-01  7.7968143037303886e-02  7.2258532328609501e-02  3.4348195053067125e-02  7.5070809307031375e-02  7.8596585060431504e-02  7.2835260548358094e-02  7.9248611961507162e-02  7.3435500207109206e-02  7.9924464272258591e-02  7.4060780768362811e-02  8.0624269826559944e-02  7.4710399410543415e-02  8.1348498654819967e-02  7.5385722707979635e-02  8.2097293894714971e-02  7.6086319160441646e-02  8.2874479528981401e-02  7.6814719918991622e-02  8.3672568298364697e-02  7.7569001832354920e-02  8.4492475605555312e-02  7.8348646312580622e-02  8.5341454720522875e-02  7.9155750922432849e-02  8.6216021358924810e-02  7.9989913750421346e-02  8.7116475841245808e-02  8.0851602668679926e-02  8.8042831201202126e-02  8.1740697960118583e-02  8.8995212576047117e-02  8.2658040821010401e-02  8.9973637834109763e-02  8.3599803879692333e-02  7.5952787439460295e-02  9.0977786603260807e-02  8.4574915981311463e-02  4.8765679170159650e-02  6.3494317949342377e-02  1.2104407641511730e-01  3.1900486417328219e-02  6.8111274432645488e-02  6.3157790221554294e-02  6.3388439870174770e-02  6.2960952824015384e-02  2.9362560027105099e-02  2.3240538217223619e-01  2.4954681114749142e-01  2.6326428366325760e-01  2.6096199280433757e-01  2.4758336802154376e-01  2.5824048791646276e-01  2.4553281734000690e-01  2.5516778371577498e-01  2.4331242989406257e-01  2.5244325921062488e-01  2.4128789138037698e-01  2.4979800605014904e-01  1.2736190693773164e-01  1.4885384613266170e-01  4.3985025942052287e-02  4.5086508605303943e-02  7.6353013476159817e-02  7.5551755201359802e-02  1.2395875946510014e-01  2.2387259222183913e-02  1.0300186488599856e-02  7.5309489407179783e-02  7.5293416647401343e-02  2.2638915148893494e-02  2.7114328772884336e-02  2.5909269000838148e-02  8.1442175595945257e-02  7.5676737191110677e-02  7.0190731441434187e-02  6.9730177548570749e-02  7.5158700214252389e-02  6.9292246363912804e-02  7.4662329627203455e-02  6.8875384194037492e-02  7.4186922485206280e-02  6.8481553379269616e-02  7.3732625434602322e-02  6.8106752456521646e-02  7.3299057458905401e-02  6.7755360067252413e-02  7.2886939451715899e-02  6.7424231576721352e-02  7.2493868208813941e-02  6.7112749958072981e-02  7.2120028202473888e-02  6.6822353506564902e-02  7.1765408078843795e-02  6.6559642026349841e-02  7.1431118273042687e-02  6.6331001496370778e-02  7.1117747710207083e-02  6.6093690797779242e-02  7.0818848230829831e-02  7.7765672330474989e-02  4.6390684143185881e-02  3.6633670347823326e-02  1.0815767551554913e-01  1.2226839627275075e-01  2.7129651422464617e-02  3.1725582418436676e-02  3.6954268441334974e-02  1.2484585639969756e-01  8.7611534503927238e-02  3.4244026220916039e-02  3.1107216985228704e-02  3.4654528644654993e-02  5.1166043772082795e-02  4.9213882238737502e-02  4.4684173724606431e-02  4.5223772681856809e-02  4.5014087481183004e-02  1.2311273079147626e-01  1.2377352601049786e-01  1.2328259206093285e-01  1.1105335465346509e-01  1.8621017005669774e-02  1.1796054989324194e-01  8.5603117971994977e-02  8.6820906050330354e-02  7.5275509128312906e-02  8.9364643131201765e-02  8.8017388832437787e-02  9.0595177257687509e-02  1.0221959717901886e-01  1.0346974966329500e-01  1.1357486132056170e-01  1.1846212722676930e-01  1.1902323527876854e-01  1.1980604319263517e-01  1.1823528585727341e-01  1.1827245215645962e-01  2.7541220557482118e-02  3.7613662511548782e-02  2.6158035831270497e-02  2.6284633152336635e-02  1.4580044347096525e-02  1.1049893028137985e-01  1.2995442913296029e-01  1.5420215048977939e-01  1.5528200380775142e-01  2.4657342191246857e-02  1.3477526672438311e-01  9.5475724041007640e-02  1.8981635917437911e-02  1.6246614346459343e-02  1.0700085487826777e-01  1.0339074707890265e-01  1.1195663921925872e-01  1.0777833997477976e-01  9.7815191503250146e-02  1.1683079961108876e-01  1.5087682640498446e-02  1.0891341725225458e-01  2.4640174672318316e-02  3.0575352183714946e-02  9.7469171134248370e-02  5.2850819420427679e-02  6.1851025648810613e-02  6.2073482534609842e-02  3.1308194587736052e-02  3.4791962111218676e-02  3.5293949294241359e-02  3.8740438642521802e-02  1.0117962143062338e-01  8.5953664549125230e-02  1.5559269149153622e-02  1.1941542452561422e-02  1.1415652450081857e-02  1.2470805356486951e-02  9.2143372754657213e-02  6.1593220646407307e-02  7.0029836031915718e-02  4.2450896898323022e-02  2.7813611554775623e-02  7.0023638784610459e-02  6.5848996789935943e-02  3.2230209703733304e-02  8.1034262268992352e-02  9.1437736214772761e-02  9.1965551234902881e-02  9.1843826525966121e-02  9.2351883935206144e-02  9.2255237671098764e-02  9.2737369251566726e-02  9.2673077879370666e-02  4.6522729369809640e-02  3.4304507740947114e-02  7.4412790293543446e-02  7.0122132524041675e-02  7.4720377887678824e-02  7.0295949756341639e-02  7.5028229972652058e-02  8.1410097466217621e-02  1.1183059648498572e-01  8.5377463404428144e-02  8.5096865442565589e-02  8.3756542187637381e-02  1.0719508073240648e-01  1.0935381778602470e-01  4.7043842583657028e-02  2.1727275588845997e-02  8.3361962377199159e-02  8.0859278809624041e-02  6.8274276213445756e-02  7.0042390762062715e-02  7.3642938392237539e-02  6.6125840388370452e-02  6.8011457959813629e-02  6.4109261036036730e-02  6.6104043042817542e-02  6.2212485613684892e-02  6.4308651852860055e-02  6.0424138715552432e-02  6.2615404391018661e-02  5.8731829923444182e-02  6.1011737773242744e-02  6.3319064682348256e-02  1.4965118509074319e-02  1.0712564326850380e-01  5.2986911409275528e-02  6.6974780159009872e-02  1.1647245955297354e-01  8.5497404241225608e-02  8.1773546479679979e-02  4.5410551258644696e-02  8.6396919965399055e-02  7.8041117310395564e-02  1.1063467160322908e-01  8.5886005386745512e-02  1.2712340472510365e-02  1.3388642443751464e-02  1.3253204712241670e-01  1.6057466994634051e-01  1.3303909849794365e-01  1.6154971999485906e-01  2.0639021799933342e-02  5.6884014948150464e-02  1.4023279815587614e-01  1.6313540985809508e-01  1.6275117370043010e-01  1.8427214150276167e-01  1.8556371009530559e-01  2.0367237568077334e-01  1.7522331844615435e-02  2.6077710802737356e-02  2.7784136467118980e-02  2.4532946945982424e-02  7.4047668756449636e-02  6.8451849803278744e-02  7.1251758738608922e-02  6.5742569335249856e-02  6.3729041492166863e-02  1.0018874373760973e-01  3.5747368305353339e-01  3.6171903474799566e-01  3.7227173785102508e-01  3.5102093967873127e-01  3.3418997800289785e-01  3.2399511867583752e-01  1.0577669634001186e-01  1.0110980827324191e-01  5.7392345848896083e-02  9.2894106123994638e-02  9.7810195707758688e-02  9.7951830558919206e-02  1.0292804175283664e-01  1.5768464291321990e-02  3.7853202089121546e-02  6.5782872753626723e-02  8.7389622206095516e-02  5.9163082724785904e-02  6.8568765516907604e-02  5.5393325955449831e-02  1.0203932383089455e-01  1.0751717500091473e-01  1.6734238704687435e-01  1.2256972678954446e-01  1.6587445632520514e-01  3.8486955955181534e-02  1.2162555426710002e-01  6.8727044166991746e-03  1.2261209839791251e-01  1.2399284900080357e-01  2.6098686273913579e-01  7.8222361115123290e-02  9.1288000506077702e-02  7.8032003862604893e-02  8.4807413628572109e-02  8.7499823336357238e-02  9.0062993863247329e-02  8.9956477606568649e-02  8.7451582115477627e-02  8.9835919034602918e-02  8.7392217103262865e-02  8.9701998280862588e-02  8.7321133442194929e-02  8.9552827255435771e-02  8.7237853178645269e-02  8.9388602340611939e-02  8.7141546345682233e-02  8.9207808979217013e-02  8.7032097696928587e-02  8.9009053080335035e-02  8.6907504642560973e-02  8.8798638082355136e-02  8.6767564715343568e-02  8.8561012746787418e-02  8.6613671464566347e-02  8.8305786694794580e-02  8.6442313107824312e-02  8.8031773146683978e-02  8.6253434963725964e-02  8.7735410597768113e-02  8.6046958792696068e-02  8.7437440474529199e-02  8.5826148903616464e-02  8.7095006266709851e-02  8.5582192912921309e-02  8.6710813767418932e-02  8.5310819287588310e-02  8.6316972650878523e-02  8.5023132835706311e-02  8.4510114068477776e-02  8.4657108205676804e-02  8.4755255455044975e-02  8.4810225481658702e-02  8.4826247106077390e-02  8.3713723287984668e-02  1.3918004337972958e-01  5.8223499884070273e-02  5.7109849659432700e-02  5.2049205394841702e-02  5.6090500545574698e-02  2.0606655040827784e-01  1.0970603801446387e-01  6.9924031420867658e-02  1.2128362628560260e-01  1.0999541670692048e-01  1.1732922767331586e-01  1.1601267275333541e-01  2.6632648605727427e-01  1.4148845798275775e-01  1.1347819651855676e-01  1.7398819156741609e-02  7.1496342813442734e-02  7.2523981397760964e-02  5.5563522234917964e-02  3.7307368256537535e-02  3.8421087599026488e-02  3.5455149660952791e-02  1.0642602322371125e-01  3.6641400722497795e-02  5.0884372282538115e-02  5.5175260627012862e-02  4.8796136580059768e-02  7.4984419403373553e-02  3.7844505055932579e-02  1.4645617970535657e-01  1.4828157743136428e-01  1.6816020521369579e-01  1.7041482802833094e-01  1.8579502961879976e-01  1.8836663319473179e-01  1.9768718982614858e-01  1.7272447947586347e-01  8.3488241101453614e-02  3.3111448706821212e-01  3.1406159081172488e-02  1.1276537900019153e-02  1.4646708727377855e-01  5.9045464379857367e-02  7.1209833859076060e-02  1.0522500310782898e-01  9.5206659263978709e-03  2.0038466544625003e-01  2.0277359850560062e-01  2.0027804281637329e-01  1.9866060908804040e-01  1.9658376892712173e-01  7.6491010229711070e-03  1.7809043457256868e-02  6.0792630237341194e-03  6.0843768899780286e-03  7.1911847764122286e-03  6.9945214508115418e-03  7.3329723200766242e-03  5.1245601990204302e-02  5.3302200017033126e-02  2.1117461703986797e-02  1.0628940385617804e-01  3.5344382008934555e-02  4.3780408344405074e-02  1.2536809719563677e-01  1.9845649928942596e-01  1.4444029511739442e-01  1.8921709738155520e-01  1.8770877621565363e-01  9.7602188822799987e-02  6.8408400865791572e-02  8.0613123673409906e-02  3.7603846867255354e-02  2.6643610476566028e-02  3.0925714999102138e-02  3.0733284692834789e-02  1.8305292779130322e-01  8.6608392812343588e-02  7.6319779800225918e-02  7.4039089108697886e-02  7.3793066886848627e-02  7.4304222811220400e-02  7.1877100285878223e-02  7.1471018966303188e-02  1.9457548459543844e-01  1.1839529899438763e-02  1.4154875107792683e-01  9.6563851083163635e-02  1.0000367057299586e-01  8.3877623564253101e-02  1.5556954204641130e-02  9.2489633033058294e-02  8.0973951563826918e-02  8.4888261242472285e-02  6.6093550026492018e-02  1.8624673946104398e-01  7.4671836904804563e-03  1.2227556845940537e-02  1.7697784878456141e-01  6.1518942040520788e-03  1.9879500952122191e-02  1.7509601170907708e-02  2.0176070848115308e-02  2.0845208625591038e-02  2.1751800359737526e-02  2.1362027966827200e-02  2.2167579642769095e-02  2.2135607483802073e-02  2.9505013255006183e-02  4.7883191225146391e-03  1.0921239011595866e-02  1.0757742955232082e-02  2.0284009890773579e-02  3.5057521460235816e-02  3.6534274697770118e-02  6.8208129225874034e-02  7.6432450556702253e-02  2.0078482015037112e-02  7.5745369827354192e-02  3.1271817432162306e-02  3.5609476378080304e-02  2.6579136319256194e-02  2.4268519564759186e-01  2.1318469412811561e-01  3.5871368971043122e-02  2.6686088454679585e-01  9.0154149669630493e-02  8.8327129683780300e-02  8.7907797809572183e-02  8.8509611146959835e-02  8.9675896953307410e-02  8.8761895616247977e-02  8.8981933016044901e-02  9.7599362640816700e-02  1.1912871097925394e-01  1.1839294526398522e-01  7.8133423851762973e-02  8.9179883260136747e-02  9.4067099222087919e-02  9.4721971921173334e-02  9.3435108613408147e-02  7.8399362363342995e-02  1.1812370663827597e-01  7.0298726842822234e-02  1.2947730384837025e-01  1.4259617870301552e-01  1.4251239215110995e-01  1.2668376198291800e-01  1.2587582955755197e-01  1.0519871541093670e-01  1.4310721810962393e-01  6.4422081494567116e-02  1.3584807520794220e-01  1.0379408871116748e-01  1.0472030474194982e-01  1.0415203179823275e-01  1.5918742007344064e-01  1.1934910875288371e-01  1.0960764865568520e-01  1.0840763135350753e-01  9.8196560718057893e-02  9.6992756587285858e-02  8.5474169962464944e-02  1.2301088701503811e-01  1.1029350052187276e-01  8.0626949792191996e-02  6.9020329555633017e-02  7.0116848596817757e-02  6.8025461510196880e-02  5.6602745489721426e-02  1.2387676479680967e-01  1.2171337850019222e-01  9.3085520995399226e-02  1.1807022537152835e-01  1.0958006554552110e-01  1.1644326902393805e-01  1.0798711114318207e-01  1.1483959576898053e-01  1.0585698052452946e-01  9.9949081840442378e-02  9.2221335191290693e-02  1.1161107495688569e-01  5.2993447383039093e-02  1.9134231181081976e-01  1.2231693234290285e-01  1.3491196783808609e-01  5.5595312036979247e-02  1.3281792487259142e-01  1.3273039348450275e-01  2.9273669805695020e-02  1.9982285251063985e-02  6.4814993018520506e-02  7.5238611731600027e-02  6.4860146126652737e-02  7.5153561638879721e-02  4.2584821030034616e-02  3.7468939077810876e-02  3.6961184698631223e-02  2.6334516237818715e-02  1.2287862569918517e-01  2.5828916680074244e-02  1.1316727659392016e-01  1.0470292263830346e-01  1.1163693433520250e-01  1.0326196780750334e-01  3.2551552389715840e-02  1.2529394553723722e-01  1.1011288279665947e-01  1.0174459206433890e-01  1.0859518170168325e-01  9.9775711588030336e-02  2.7437829374283098e-02  2.7617953824372397e-02  7.7041446866092503e-02  7.6410999267245969e-02  7.7688515076400178e-02  7.7221687725635493e-02  6.8571316579535496e-02  6.4885703276540557e-02  7.5073327276114057e-02  6.4901182713019992e-02  7.4980371598806009e-02  1.0702308797088955e-01  9.8211604385354104e-02  1.0551638966418782e-01  9.7295365504718456e-02  1.0414248029213310e-01  9.5979521222241293e-02  8.8963935099637639e-02  1.0986320701609570e-01  1.7219852834773487e-02  9.3179691803743886e-02  8.4189154935231200e-02  1.0274682042845469e-01  9.4080297584630934e-02  1.0127219042958822e-01  9.2263303757772405e-02  9.9821835757039984e-02  9.0838058062212138e-02  7.3936295799502547e-02  1.1090792034895008e-01  8.3900141584178550e-02  1.1025949190882681e-01  9.8451017198372667e-02  8.9585515251124126e-02  9.7136564351483198e-02  8.8329963730338967e-02  9.5851076157255855e-02  8.7162333235378406e-02  6.4901376138652281e-02  7.4875058403963038e-02  6.4886517941556657e-02  7.4757461138785675e-02  2.2789484334729933e-02  9.4601758303063180e-02  8.5973750540074306e-02  9.3374450609075149e-02  8.4869979791248856e-02  1.2195515933536899e-01  5.9750486050459607e-02  5.9675917661221031e-02  5.9803323726695938e-02  1.1772358916883703e-01  9.4369398394600346e-02  7.2628622142490329e-02  7.0358604850298240e-02  7.2252844809675393e-02  6.9888994593826040e-02  9.2183418697194028e-02  8.3549118615503973e-02  6.4858090022775677e-02  7.4644737970186836e-02  6.4818609305579811e-02  7.4497872833739875e-02  3.6708488037712123e-02  8.4465951421606039e-02  1.2365012776875743e-01  3.8226279915688499e-02  8.3781210287260210e-02  8.0699330295328803e-02  3.9696340330144408e-02  7.8295945839060938e-02  7.7988506746296399e-02  7.8865447205812622e-02  7.8712158680112415e-02  6.4761974635994798e-02  7.4331636204639312e-02  6.4687602266197797e-02  7.4166735181091500e-02  6.4604881914349016e-02  7.3991252806532376e-02  1.5447462177166959e-02  1.2537634617397334e-01  1.3329365875633806e-01  8.0289457307225809e-02  4.1111347599449094e-02  7.6086055346575227e-02  9.0985866688983744e-02  8.1749103154449096e-02  4.2466018678458325e-02  1.3760340625341550e-02  4.8003929880562686e-02  5.1027754285523023e-02  7.1880238696347493e-02  6.9428239454537521e-02  7.1511171224089481e-02  6.8976301565497791e-02  7.6888051846738859e-02  4.5065276853775236e-03  4.5213810387388200e-03  1.2177930362084767e-02  4.5556611607068725e-02  7.0618569322333166e-02  7.0531524078952176e-02  7.0685274329477701e-02  8.4061389044404800e-02  4.6667476067954995e-02  7.9219843152649100e-02  6.4511697382969663e-02  7.3804330900567469e-02  6.4404295362621863e-02  7.3608653200376989e-02  7.7949539274283774e-02  1.2413672439328002e-01  1.1825599744837137e-01  1.1823864009641849e-01  4.7700934515949658e-02  1.3426024022060776e-01  7.9398667521469707e-02  7.9395349224724160e-02  7.9896890738709259e-02  8.0040766979391637e-02  8.0361776612160693e-02  8.0648780549924012e-02  8.0158853092883856e-02  8.0298722335155656e-02  8.0000062130668487e-02  4.9945025855680253e-02  1.2481459591822115e-01  1.3082652926743338e-01  7.1145603842551558e-02  6.8521649036555568e-02  7.0782586622081187e-02  6.8085512829432079e-02  7.0425218290560379e-02  6.7668561113079992e-02  6.4285249718834453e-02  7.3402386676214237e-02  6.4153741075962639e-02  7.3185131693461691e-02  6.4006957433985642e-02  7.2960154373195640e-02  1.0717879539364060e-02  5.1704978547769273e-02  4.4918803813936026e-03  1.3102848017728122e-01  1.3619699542355046e-01  1.3659839783886860e-01  1.3570846865652650e-01  1.0805166456768192e-01  8.7200232418752938e-02  8.6870999596063078e-02  8.7521123602657416e-02  7.6892665605775706e-02  6.4999601871478588e-02  6.3855801068221030e-02  7.2725338349364635e-02  6.3692415969088201e-02  7.2484365141849680e-02  9.2723782545029970e-02  9.2309651922256111e-02  9.3131506012859674e-02  8.0795440139646985e-02  8.1219160519659592e-02  8.1199135101194919e-02  8.1756531100826507e-02  8.1573685732748771e-02  8.2261997688928779e-02  7.0072134369694158e-02  6.7248352813367412e-02  6.9722471325063082e-02  6.6835131162140904e-02  5.2514226709221991e-02  7.5653880447026742e-02  4.7157673717154812e-02  4.7621293481501945e-02  1.6595477346226059e-02  2.4027656255301826e-02  1.9796766651325796e-02  6.3514009626499765e-02  7.2238910189670533e-02  6.3338470972381058e-02  7.1973935898457950e-02  6.3142302309849102e-02  7.1704879679504813e-02  1.8468113243584269e-02  2.3498836418188805e-02  1.8530685663686305e-02  2.3874729492711921e-02  1.8313768041494129e-02  2.4179719608204132e-02  7.7932760538521745e-03  6.2938156858314165e-02  7.1435196042180529e-02  6.2733024371779272e-02  7.1148190476480966e-02  6.9376513364750120e-02  6.6430771155455620e-02  6.9035092969724543e-02  6.6033334907426827e-02  6.8700076123628356e-02  6.5643274547003916e-02  6.2500681273712902e-02  6.8332045770239089e-02  6.6452261381587802e-02  8.5893582103271221e-02  8.4711325865773499e-02  8.5448134397695219e-02  8.4366757136920434e-02  8.4977499079972998e-02  8.3992836618650396e-02  8.3318935921990203e-02  8.1920650582293419e-02  8.2739020861006804e-02  8.2243573268526299e-02  8.3176348863798086e-02  8.5514491390705216e-02  5.8362783670569483e-02  6.3758109290997997e-02  8.6254133112426370e-02  6.3475599519164814e-03  7.1025794352122029e-02  8.2539786203703849e-02  6.8365649853438168e-02  6.5258621283342574e-02  6.8029392251033466e-02  6.4883036156605969e-02  2.0258141495079326e-01  2.0400747122773993e-01  2.0008520078455583e-01  2.0191772099576069e-01  8.7166833897947799e-02  5.5722603773383513e-02  6.7708730530516362e-02  6.4514805568373745e-02  6.7385475371598946e-02  6.4152444721324905e-02  6.7076431875320711e-02  6.3798238061425594e-02  7.0861654044291025e-02  6.6758667239364050e-02  6.3448673951493686e-02  6.6454676008903910e-02  6.3106699248678469e-02  5.9818359295537568e-02  6.6156126059499332e-02  6.2771338830936801e-02  6.5857395607583802e-02  6.2441273561110164e-02  6.5562857953310030e-02  6.2115085799280323e-02  6.5272451335118276e-02  6.1798170134246752e-02  1.2183459789862308e-01  6.4986171324710906e-02  6.1485406502799961e-02  6.4694954728864301e-02  6.1176437008133730e-02  6.4424150841396882e-02  6.0875228465215696e-02  6.4142163967700935e-02  6.0577141517750580e-02  6.3875200347958308e-02  6.0285533153805478e-02  6.3613281583424663e-02  5.9999288415810564e-02  6.3349982926096157e-02  5.9716877103080553e-02  6.3090320198110311e-02  3.7064288713645734e-02  3.7198191892474308e-02  5.6601606612182052e-03  9.3124577987938162e-02  9.3095237868845146e-02  6.9694538731322905e-02  8.9373361796709058e-02  8.4282660719118774e-02  9.5748106040754219e-02  8.3052397803963965e-02  9.4508763935466270e-02  8.1819778852019853e-02  9.3269385555052486e-02  8.0554038224923408e-02  9.2029887960792964e-02  7.9363515002790846e-02  9.0806582900299193e-02  7.8156253038814724e-02  8.9588321443338753e-02  7.6951705472329102e-02  8.8377192521740547e-02  7.5752547243977023e-02  8.7173880935714460e-02  7.4524260729190675e-02  8.5972599681520323e-02  7.3371064551322737e-02  8.4788374055594778e-02  7.2202643296142191e-02  8.3609428173356495e-02  7.1038002481164375e-02  8.2438367880560692e-02  6.9879806048147683e-02  8.1275884649143704e-02  6.8694567676624199e-02  8.0115782044022851e-02  6.7583626151170445e-02  7.8973364888861267e-02  6.6459031255076295e-02  7.7837731468511265e-02  6.5339202819459707e-02  7.6710556582036168e-02  6.4227919073036516e-02  7.5591935001740190e-02  6.3091642865597097e-02  7.4477697847178032e-02  6.2027850546207179e-02  7.3382030448006105e-02  6.0981360639354977e-02  7.2304295528438353e-02  5.9917424175033276e-02  6.4286554200556831e-02  6.4677193565102931e-02  6.3454852084924698e-02  7.1561737952438087e-02  1.1476227790832719e-01  1.0475745337689411e-01  1.1603514988046459e-01  1.0606415171232873e-01  1.1732721797614878e-01  1.0738301408057489e-01  1.1863192874685055e-01  1.0871188505042910e-01  1.1999320881321257e-01  1.1005811288067556e-01  1.2127597698456936e-01  1.1139662975755417e-01  1.2259951836752635e-01  1.1274943851811432e-01  7.3489748449072634e-02  1.0530850170888004e-01  9.3529457704766644e-02  1.2393382520952584e-01  1.1411147839756620e-01  1.2528143945363002e-01  1.1548410659893898e-01  1.2668743717685210e-01  1.1687528996716966e-01  4.8954570623102454e-02  4.8947296397709575e-02  5.7164033119863053e-02  6.8453975544976287e-02  1.2801539181706992e-01  1.1825993258133083e-01  1.2938502045880321e-01  1.1966146347479636e-01  7.9221159613596909e-02  7.5543064468364091e-02  1.3076745491665367e-01  1.2107224584413098e-01  1.3216562896052134e-01  1.2249611256615506e-01  1.3362449997185827e-01  1.2394077639389502e-01  5.7067498154076017e-02  1.3500695979554789e-01  1.2538054083100500e-01  1.3643370935124108e-01  1.2684078459778200e-01  1.1763813944186013e-01  1.3787565228821275e-01  1.2831392920674173e-01  1.3933712408959098e-01  1.2980114407909624e-01  1.4086246585157225e-01  1.3130879426734188e-01  6.1740392972038885e-02  1.4231289636828881e-01  1.3281647669800112e-01  1.4381047412121176e-01  1.3434953589671467e-01  1.4533176336921733e-01  1.3589390012500585e-01  1.4687115179463200e-01  1.3745891199091420e-01  1.4842927323066077e-01  1.3904665130225202e-01  1.5000997947213207e-01  1.4065264066169539e-01  1.5159999111358965e-01  1.5765867857532073e-01  1.4228061735770606e-01  1.5325019684937463e-01  1.4392556968876671e-01  1.5487886278952925e-01  1.4559080343738748e-01  1.5653325284876746e-01  1.4727935933820627e-01  1.5825463865451253e-01  1.6223060278893486e-01  1.4899821752924552e-01  1.5996069725960074e-01  1.5073956666085306e-01  1.6169607689972912e-01  1.6700658628223380e-01  1.5251392821181661e-01  1.6350466471185943e-01  1.5431101174373735e-01  1.6530227289662450e-01  1.5613935559863260e-01  1.6719730371452832e-01  1.5802032171214689e-01  1.6908872922893553e-01  1.5991415777351312e-01  1.7100606414045133e-01  1.7564001531384146e-01  1.6184142066029369e-01  1.7291866204101614e-01  1.6380388058307715e-01  1.7491062471881913e-01  1.6581320828809598e-01  1.7700918230703389e-01  1.6788181061353594e-01  5.9879799015785426e-02  6.0021155855980834e-02  4.4099640688311209e-02  7.0085512059959526e-02  7.0248803974904392e-02  5.8850744406299005e-02  4.7701615046314184e-02  4.6603307007503578e-02  2.7791293542694717e-02  4.8838198448992454e-02  2.8347462417731516e-02  2.8676962878620271e-02  7.7935283275670980e-02  7.8266171388254507e-02  1.8333118198749238e-02  2.4633382796625771e-02  4.5405968981725178e-02  4.6589469366648720e-02  3.9223027374011329e-02  3.5808218890010242e-02  3.9733205038297789e-02  3.6339883441164136e-02  8.4433127221089754e-02  8.4650599619526853e-02  4.0260681748675232e-02  3.6888708190778732e-02  4.0805254175424854e-02  3.7454873785512405e-02  8.2801218013198688e-02  4.1366465422147704e-02  3.8039082632108777e-02  4.1945846610418114e-02  3.8642363034048686e-02  4.2559702446378828e-02  3.9268472769421268e-02  6.5905612895824972e-02  4.3163673194557564e-02  3.9910725199192101e-02  4.3798304695734369e-02  4.0575708483584806e-02  4.4456096178095511e-02  4.1264075635412623e-02  4.5136495488751822e-02  4.1976208915265260e-02  4.5855948197159102e-02  4.2716120702825350e-02  4.6572427760931498e-02  4.3478072130316944e-02  4.7324945198915669e-02  4.4268636835314311e-02  4.8106653836056598e-02  4.5089403368322178e-02  4.8917836805020862e-02  4.5939575401884702e-02  4.9773792227679296e-02  4.6828283037566851e-02  5.0636854788539500e-02  4.7746926740659001e-02  5.1544052720344340e-02  4.8703435480395060e-02  5.2489298325528184e-02  4.9700187349512190e-02  5.3474286657750281e-02  5.0739135040081894e-02  5.4514545180113054e-02  5.1826744249513300e-02  5.5605775553727650e-02  5.2958898375114354e-02  5.6720530846762686e-02  2.0405432297883791e-01  5.9086667559419992e-02  1.3930015963698952e-01  7.4615604334508673e-02  9.2337188850265636e-02  7.8657223077072735e-02  8.4484753747755992e-02  5.4598501700942013e-02  4.8867396194383676e-02  6.4665117966687002e-02  6.3153126309944879e-02  4.2840056555996993e-02  6.7934167739401544e-02  7.4887559001788478e-02  8.0720187649503825e-02  7.8146041172378417e-02  2.6185770042597450e-01  8.1348942840927932e-02  6.0160571752375849e-03  2.9364306771457954e-01  1.3041739762762136e-01  2.8713733641911360e-01  2.8405451055072733e-01  6.1744116978668148e-02  6.7529002125188031e-02  6.8985846408970819e-02  7.1803613941897215e-02  7.0145858035673803e-02  7.2809589416308940e-02  7.0977154137392529e-02  5.0310557278243080e-02  7.0148958879406711e-02  2.0555888690673364e-02  2.0072510669255292e-02  4.7873244682557291e-02  1.5470789701748930e-01  1.1983028451342354e-02  8.0630716141685085e-02  8.7735893176576360e-02  1.7205628954876945e-01  1.8109666552568135e-01  3.6313431048273656e-02  6.4089222208530153e-02  1.3816794901561824e-01  1.3657125340862164e-01  3.7501142065124796e-02  1.9760744644843564e-01  1.9980905986338782e-01  1.9510342496753952e-01  1.9768033821010958e-01  1.1593142686321384e-01  8.1751089621357631e-02  7.8408233106913749e-02  1.0087086671509111e-01  8.9791218421403099e-02  2.6197670862407516e-02  7.1774808055875966e-02  5.3044422735285916e-02  7.0933253361560145e-02  8.6134748372663647e-02  8.6305988857951016e-02  3.5624350718666251e-02  7.4878896018974864e-02  8.5853610242692405e-02  2.2509067725511470e-01  2.2931586032714688e-01  1.8303379075435047e-01  4.5283564874630665e-02  5.7857272900963028e-02  2.1644530658436651e-02  1.1927667121793314e-01  1.6306652218657194e-01  4.0245689699915899e-01  6.0405212760916843e-03  1.4433782367505296e-02  4.7271688552816687e-02  1.3059881954741243e-01  8.9485351576006109e-02  7.8360016061407703e-02  3.0363186889278831e-01  7.5692104335027918e-02  9.3517870803935435e-02  9.3518358345187139e-02  9.3914672647596648e-02  9.3944782780434971e-02  8.4475369123707317e-02  5.7277892390661687e-02  1.4131455495472170e-02  1.3956720859232147e-01  1.4088803481144685e-01  1.9262129622033095e-01  1.9553387008183507e-01  1.9011578015127081e-01  1.9337178971525962e-01  1.8762310161840029e-01  1.9119868476792468e-01  1.1447774506415879e-02  6.8700915453790423e-02  4.4872539972530656e-02  5.8150404837372750e-02  1.3834544033570934e-01  1.6679066764604195e-02  1.6163913971159845e-02  1.7286987924116065e-02  4.3950750282276817e-02  5.6072439852814779e-02  2.1162634152926164e-02  7.4678194094148248e-02  1.5606876118322258e-01  8.6500267524788108e-02  1.4913027090904965e-02  1.4774228669078389e-02  1.5185965386905911e-02  2.1720942156730413e-02  8.2731815579959261e-02  1.2283045348285523e-01  7.5407901313643430e-02  7.5344329670186019e-02  6.4090194568334230e-02  6.5867237426052119e-02  8.3461977376795352e-02  7.1905362350270619e-02  5.7884697490263433e-02  6.2844505600045245e-02  3.1397506763937577e-01  8.9438170356194502e-02  1.1286275538435583e-01  3.4799138952720569e-02  1.2226739632912120e-01  9.1663242873355810e-02  3.1480913170705206e-02  8.9255130329333021e-02  5.2347833567097879e-02  4.2534681292749295e-02  7.9318077210716070e-02  7.7785533394924986e-02  7.8191676045871503e-02  7.8865883380261778e-02  7.8593831725648045e-02  7.9825658041018252e-02  9.9941666161809023e-02  5.4096029289374244e-02  7.2439153299007547e-02  6.5469245266071674e-02  7.0498391195660495e-02  6.0951507342176206e-02  1.1002345754921918e-01  4.5410754992129612e-03  1.2139287773456032e-02  1.9207960789835066e-01  1.4094632885263436e-01  9.1186571989019860e-02  9.2874623735228326e-02  9.0355554704475816e-02  9.2977839438598484e-02  9.0400589374457163e-02  9.3091943411851008e-02  9.0440968459901391e-02  9.3180606108510339e-02  1.3166755797640756e-01  7.8447541718201341e-02  7.2290004798441665e-02  6.5665960265489584e-02  6.5247999972787629e-02  7.5988251281000299e-02  1.1925283332919967e-01  1.8505339377035940e-01  1.8899762112504012e-01  1.8261841728082656e-01  1.8679594481500680e-01  1.8014706718855683e-01  1.8458861884788025e-01  1.1088468711953969e-01  4.0586422396072817e-02  2.7569181273307944e-02  1.7471741141850450e-02  7.8385620594771055e-02  7.3517353276088410e-02  7.7742676645259995e-02  7.2263966460480986e-02  3.0663278528601617e-01  1.8445795890950755e-02  2.5015130781766641e-02  2.8604177444031675e-01  3.8050565241613966e-02  2.9181761981859247e-02  4.5877703384417066e-02  6.5187218241479591e-02  2.0119067732253545e-01  7.1659389375553828e-02  9.2593162044801711e-02  5.7657041403789917e-02  1.3589973170326420e-02  1.8613358999121823e-01  1.9496981965450712e-02  9.4327609635675519e-02  9.4375785411297736e-02  9.4733236236332327e-02  9.4814677761110119e-02  9.5135928959974178e-02  9.5255435672532640e-02  9.5550362011364465e-02  9.5699399317972916e-02  9.5972833044920547e-02  9.6147701563351784e-02  9.6400295448517886e-02  9.6601027284528448e-02  9.6833606163826122e-02  9.7058861768202512e-02  9.7273017399277059e-02  9.7522519322855508e-02  9.7712404140328404e-02  9.7992537353035300e-02  9.8159820597273600e-02  9.8467436447245052e-02  9.8619255821220914e-02  9.8945110867504987e-02  9.9089210348420137e-02  9.9428011619412171e-02  9.9568049393952487e-02  9.9916978059894065e-02  1.0005086327215321e-01  1.0041308993592145e-01  9.4975261816767881e-02  1.0053863942000513e-01  1.0091679167728278e-01  1.0103448168954486e-01  1.0142352666825295e-01  5.5639932726089122e-02  4.7067459613240999e-02  1.5794193782592440e-02  8.0218541648009789e-02  5.8244853970448374e-02  5.7869836590711952e-02  1.5210053068948368e-01  1.4076787446105840e-01  9.3115682573219408e-02  8.3569928435224289e-02  8.4292278810326138e-02  5.9438950317014773e-02  6.2818654221284534e-02  7.9190806687299012e-02  3.7761251919001614e-02  3.7471070766520100e-02  8.5780351254393969e-02  8.6541452182278877e-02  5.0710213596392578e-02  6.4555905515424838e-02  5.0867006445363051e-02  8.5727428335569913e-02  6.0891960035648347e-02  6.9460189843033260e-02  1.7795125798019014e-02  4.5313769552162153e-02  4.1020054139025736e-02  9.3436197514613725e-02  6.6124244293818482e-02  9.5359095009983977e-02  9.7915391451014133e-02  4.7318124658049805e-02  4.7546737585457854e-02  7.2155154646832503e-02  9.6671966761412431e-02  9.6060970673588431e-02  1.3863513250441983e-01  4.5086956721383777e-02  4.7956219249115896e-02  9.8131830106242143e-02  1.3642499088035298e-01  6.4637504919342142e-02  6.9632860774801575e-02  4.3608395316850630e-02  7.2528303172805744e-02  7.4546219889869356e-02  6.7319214244238673e-02  7.7606136269902246e-02  8.0203944068009625e-02  2.3001876437341664e-02  1.1738059943804456e-01  2.7767105587653676e-02  8.3579387539849004e-02  4.8851622914995174e-02  8.4386934790831383e-02  3.2357577313261519e-02  8.4945667150001722e-02  9.6147636088333391e-02  8.5561401268606813e-02  7.0223958093105984e-02  7.6033962480988967e-02  5.4213703943092384e-02  8.5745513104633436e-02  3.8525407901421907e-02  5.9840113051909880e-02  6.8311557435844689e-02  3.8011619081748153e-02  6.5668490875256405e-02  8.4958498641188304e-02  7.1657974590195614e-02  6.2387859532259615e-02  1.2308358101277934e-01  5.8898302461737301e-02  8.3632466701929753e-02  6.6583802267470418e-02  1.9545804923829700e-02  9.6926619777247501e-03  2.7943326737126521e-02  2.9414426091365936e-02  1.2929391767557577e-01  1.3566715837460780e-01  2.9458172596766419e-02  8.2363464198733916e-02  4.2005130877312773e-02  1.4224984532896379e-01  9.1348984213713513e-02  9.1925917971490967e-02  9.0777829614468730e-02  4.4167852237734659e-02  2.4126846744175312e-02  1.2680304659394556e-01  1.4781026827791879e-01  2.3926066806931917e-01  2.4725473015345154e-01  3.2574337715131262e-02  1.2594020789562568e-01  1.2548104404798213e-01  8.7414861178339784e-03  1.4909182071973109e-01  3.8019963935571263e-02  9.8721459789933436e-03  5.6339581083180802e-02  8.0930254626607231e-02  1.2792475295113270e-02  9.4790978485598212e-02  7.9322145120853255e-02  2.1515958871196679e-02  2.4928152492649638e-02  3.4398097439770244e-02  5.3429619572205475e-02  8.8501181444905305e-02  1.0259728209062874e-01  1.0559051703154260e-01  1.0791515415643628e-01  7.3933780344523248e-02  7.4125149997546783e-02  6.6686240742021979e-02  2.2693585448880388e-01  8.3461269016953058e-03  1.5421322449459774e-02  1.5607565715972733e-02  2.3112469369885508e-02  2.3484768290796283e-02  2.1923684756113983e-02  5.6878523027790784e-02  1.3527042638365133e-01  7.0109483061925368e-02  5.9949496291317711e-02  1.9223316356711359e-01  1.0383253253344793e-01  1.0569310479319924e-01  1.0583017742464998e-01  1.0639306088545651e-01  1.0634066215523257e-01  1.0695267819876147e-01  1.0698942330061778e-01  1.0752121145091070e-01  1.0763787857317868e-01  1.0809304733210050e-01  1.0829488957764864e-01  1.0866243014294688e-01  1.0895661080502936e-01  1.0923220023108167e-01  1.0962137536846697e-01  1.0980500702063337e-01  1.1029142386371961e-01  3.8555947934496078e-02  4.7109403863226991e-02  4.8277404605388707e-02  5.6305544538685963e-02  5.5159323209936398e-02  8.0480264815383659e-02  7.0426590240954018e-02  1.2991205889625388e-02  9.3301971227409564e-03  8.3841093561973695e-02  1.0013267425718825e-01  8.9212444962962878e-02  7.9926712004532996e-02  9.5151869055759383e-02  8.6519691471262997e-02  9.9507603034151848e-02  9.1881034598784939e-02  5.9541574902304772e-02  4.8810736765460674e-02  8.9376102876531624e-02  8.0394280639077248e-02  7.0357581272245368e-02  9.5117789991659416e-02  6.7357690130535469e-02  5.3349517426137631e-03  1.0105171906794984e-01  2.0211158190756574e-02  2.1575712516043812e-02  2.0001440105264470e-03  6.6869450177335565e-03  1.0897069683661853e-01  1.1414669134984259e-02  4.9551971554699162e-03  9.9739937710479190e-02  9.6314030514574364e-02  9.4906825995734162e-02  3.8278437089020248e-02  3.8374969000659169e-02  3.8190085055068893e-02  2.9769315876403128e-02  3.1331928567122191e-02  4.5010591564798828e-02  1.0453696878076713e-01  7.1796130454121102e-02  6.1109443554325182e-02  1.8016771681701887e-02  1.6344412369355667e-02  1.0765458168298038e-01  7.8519887368434391e-02  1.9677739905264793e-01  2.4117280315362744e-01  7.7239101611702762e-02  8.7775077172536561e-02  1.3357778282113938e-01  1.6250116169048795e-01  5.8684935811982988e-02  5.4368192155665754e-02  6.6328538024864089e-02  1.2618518815985792e-02  5.9830496935750689e-02  9.5008708882770798e-02  1.1299757616025467e-01  9.1616913155925808e-02  7.0943965411454715e-02  6.8744301220648979e-02  2.7553616915116118e-02  1.4235366641128058e-01  2.4683855964283477e-01  2.5109962716448753e-01  9.1954457261822428e-02  4.6779567331537937e-02  1.0731499098234362e-01  1.0653555895944554e-01  9.0073069121131430e-02  1.9206515752930881e-01  7.3582961955981338e-02  1.2641123290528552e-02  2.7291755861483018e-02  2.3393884475365362e-01  1.7786379178331072e-01  1.0034933541704633e-01  2.5004851592086635e-02  2.0892056621425931e-02  1.0630469500643779e-01  1.1170120702768317e-01  2.5213159450234074e-01  5.2232561029583235e-02  4.7956340051586881e-02  2.3099660342234613e-01  2.0911828367004112e-01  7.7442877810989130e-02  7.2931243005233237e-02  9.1194897795456378e-02  4.5832615036724249e-02  1.1121665045585494e-01  1.8329690569237103e-01  4.5383585811754168e-02  4.9691277800616156e-02  7.7273800725066608e-02  8.0654971501022341e-02  8.2079940653770209e-02  4.6254813586241179e-02  6.8718765022247774e-02  2.0588783800807486e-01  1.8693355125092195e-01  2.1859321491725076e-01  2.1570174520281774e-01  1.4915144782390197e-01  2.9639356801148681e-02  3.8162440139783885e-02  1.0805913736214917e-01  7.6495622118906717e-02  5.7619406652432759e-02  8.4560706025943788e-02  1.4306919105075561e-01  6.2848783784638304e-03  2.9183887431615492e-02  1.0586217473617352e-02  7.3570038971783880e-02  7.1078761774309121e-02  2.1353606782605677e-01  1.8013127654302397e-01  4.1949798298089848e-02  4.6193425264274134e-02  2.1828519631606504e-02  1.8333351872272533e-02  8.9785018487118243e-02  8.7613304311198001e-02  9.1150437151894401e-02  2.1995681490915884e-02  2.0810959032619009e-02  2.2094793465565924e-02  2.1810524005444431e-02  2.1058701802320536e-02  8.5596613713199501e-02  8.3135469446913912e-02  7.1825592796699839e-02  6.8362355474008679e-02  7.5347230012485861e-02  7.8354060135313569e-02  1.2028735080577738e-01  1.2090301164851325e-01  1.2249027351330059e-01  1.1097277572297215e-01  1.1123422294232148e-01  1.2102884649556231e-01  1.3005656201560380e-02  1.3403218373142661e-02  1.1516696279528527e-02  4.8394139713419460e-03  1.1263232745601535e-05  2.2219303505786974e-02  1.1092486170615184e-02  2.9736959757342304e-02  9.8407958703659648e-02  6.7006888717805344e-02  5.4756482684498245e-02  1.8416209738317948e-02  1.1705951774119971e-01  1.2299136494552605e-01  1.1734213287307375e-01  1.1196002485915373e-01  1.1803030322654039e-01  8.6045419471173043e-02  8.5764871466045681e-02  8.2418808408377259e-02  8.9902351919001380e-02  6.9842553542738023e-02  1.1059332639410101e-01  1.0401021879233785e-01  1.0641703072070899e-01  1.0742712011671121e-01  1.0514612150751385e-01  7.0075316544102761e-02  7.2328312474999948e-02  1.0341913557264037e-01  1.0247572951661102e-01  4.0143595417256352e-02  1.0513290263375492e-01  1.6521141313324859e-02  2.5984744521961613e-02  9.1504288173435158e-02  8.1017987492902774e-02  1.2266450757664846e-01  8.9130144868339228e-02  8.8596918430078081e-02  8.2878163219295475e-02  8.2222389604817883e-02  1.1207066062760876e-01  9.9594542343470399e-02  5.9702925105767364e-02  4.0833516122987912e-02  7.0066305690732300e-02  1.3354100899810026e-02  1.7860077585199332e-02  7.9827349168606801e-02  1.2559250219971249e-01  1.1926732221462676e-01  1.2714743968085343e-01  1.2638684470055131e-01  1.2386239230268811e-01  5.4351359448255927e-02  1.1141600927036498e-01  1.2372003487509430e-01  5.5302036592745275e-02  5.5226336026434959e-02  1.1802369535084690e-01  1.1060817468192848e-01  8.0652356875096101e-02  1.1826463405515557e-01  1.1814324571916678e-02  8.9351169071677349e-03  5.4125371331804915e-02  7.2612145952478058e-02  1.3469076867996627e-01  9.0452838988532111e-02  9.3179144247895015e-02  1.5220059995503771e-01  1.4665869483803459e-01  7.8811050117096187e-02  7.1251618516386325e-02  7.1105490274157440e-02  7.1420239516667469e-02  1.7753949588863577e-01  1.8235747327713772e-01  1.7492395052187712e-01  1.8010835676423662e-01  1.8672912233521996e-01  6.4451764230522429e-02  7.5341391871674365e-02  5.3616641753895113e-02  5.2684921215539880e-02  8.5259439472053208e-02  5.7150910500810566e-02  4.8971462174253799e-02  5.7869161781946073e-02  7.1248651110597971e-02  4.5832209169620025e-02  5.4073419442558904e-02  3.2383923782184720e-01  1.0651299655618866e-01  1.1606174175913282e-01  1.0835724544561542e-01  1.1785626768106151e-01  1.1012714726435097e-01  1.1965836969771379e-01  1.1195356393714326e-01  1.2148099687807917e-01  1.1377057429526001e-01  1.2332131214708450e-01  1.1564428425142027e-01  1.2518703725447641e-01  1.1751237651877877e-01  1.2706893245005196e-01  1.1935340049448660e-01  1.2896016139739591e-01  1.2136718049918337e-01  1.3088618137793498e-01  1.2332529967042521e-01  1.3282164931147436e-01  1.2533286185540077e-01  1.3477717660307770e-01  1.2731992191692806e-01  1.3674220056954517e-01  1.2936867279918257e-01  1.3872341099895155e-01  1.3140475890802419e-01  1.4071286928877080e-01  1.3349594073092375e-01  1.4271701713941431e-01  1.3559165593071568e-01  1.3546271057670595e-01  1.4831844436129574e-01  1.4473278017780136e-01  1.3764447189253531e-01  6.9902186998720126e-02  6.7603323676559787e-02  7.7450667181427249e-02  7.3152820827671709e-03  1.0898169685878631e-02  3.1682444213525640e-01  2.8838996157165736e-01  1.0511056640753338e-01  1.0558111293811871e-01  5.6944732965591348e-02  6.4411150053207689e-02  6.4919809644939278e-02  6.6267264669516518e-02  2.9754801153833055e-01  6.2614524350455017e-02  6.2720102665574942e-02  6.1464176490818222e-02  8.2530938541355223e-02  4.5281889651454889e-02  8.4755379595703034e-02  6.0915209862570679e-02  1.0154572172634278e-01  1.0194320756957323e-01  1.0202646239852969e-01  1.0246933127695941e-01  1.0257377711880401e-01  1.0295278410125477e-01  8.7514381955687517e-02  7.5165852402939159e-02  1.1035831827649685e-01  1.1096488579811022e-01  1.1092383390046370e-01  1.1163288436317245e-01  1.1040624569540411e-01  5.8569411367237201e-02  1.3785883841177188e-01  1.3567075167982648e-01  7.6518456367685492e-02  2.8024553543773825e-02  2.4015569464278075e-02  6.9543991603412209e-02  6.8295714904757804e-02  4.8258295675831779e-02  5.3846905316050395e-02  1.5536622434673483e-02  6.2802472175451193e-02  6.5432679546149439e-02  6.5202020330469138e-02  1.2448314727162178e-01  1.2689905353910166e-01  6.5574988677825505e-02  8.0562056179883088e-02  1.7484403633392687e-01  7.6278010703075216e-02  1.1593163225667637e-01  5.0710649114158880e-02  7.1440340814699479e-02  1.7241993577529752e-01  1.7786238002016730e-01  1.6992487312491145e-01  1.7560173442976029e-01  1.3973252913385489e-01  1.1759404615948107e-01  4.1041850137282045e-02  4.5778453340156650e-02  7.2717562734281094e-02  8.4005528570355564e-02  8.4116997394264884e-02  6.2838863130542336e-02  9.6768549886552827e-02  6.7511608108998256e-02  8.8952066859215223e-02  8.9669365784767585e-02  1.1201007998418525e-01  1.1251857834205248e-01  1.0299313243162603e-01  9.7994203468136462e-02  1.0288339470351006e-01  9.8043042651785817e-02  1.3137282601396238e-01  9.3594543888322182e-02  1.3502412881743717e-01  1.3331618703196252e-01  1.9907908158905144e-01  2.0147101625429528e-01  1.6337574985669501e-01  1.8193090818621932e-01  8.8044685211485132e-02  8.2976569459963345e-02  5.8657750174773836e-02  6.3486079522133088e-02  7.4520076928593443e-02  7.8252926904264455e-02  3.4390611720586967e-02  9.7392894778052810e-02  9.1663813451820633e-02  4.3276441270662908e-02  7.9021723388276358e-02  9.6330749042477973e-02  6.4062315132714640e-02  1.4633923585429928e-01  1.1233089036019875e-01  1.1129805232672262e-01  1.4117558567041863e-01  1.4032130260296929e-01  6.9782073406609954e-02  6.3499733967763705e-02  6.3606356632954622e-02  7.7007131551084351e-02  7.0779039531331217e-02  6.3910908708013955e-02  1.2071032724284977e-01  7.9380779024891809e-02  1.6778869430261711e-01  1.7338724911161169e-01  1.6510619953384886e-01  1.7111395759544490e-01  1.6284665013748867e-01  1.6888672652422337e-01  6.8331716904714984e-02  6.1881326234042959e-02  1.4107617536713724e-01  1.3675431825667303e-01  6.7062435667697609e-02  4.8313265218161774e-02  6.1387328917386304e-02  1.0823609403427924e-01  1.9399076063882303e-01  6.5363709064353306e-02  2.0388949485089972e-01  1.6438474764840802e-01  2.0407414244395761e-01  1.6514326594893308e-01  2.0561284907448296e-01  1.6599601572930486e-01  2.0797035362029556e-01  1.6692940528630343e-01  2.1072517798144136e-01  1.6794096088253671e-01  2.1114209614716023e-01  1.6867428721705158e-01  2.1281355425465862e-01  1.6945417718131647e-01  2.1453607919650558e-01  1.7027554084482877e-01  2.1595959562402983e-01  1.7105647764263435e-01  2.1812939458378822e-01  1.7188642640982596e-01  2.1950539454429871e-01  1.7263309202899538e-01  2.2085779190313551e-01  1.7334888452949077e-01  2.2246406751096259e-01  1.7406805047258264e-01  2.2384538316340777e-01  1.7480500479315483e-01  2.2508691534569092e-01  1.7551079411518855e-01  2.2776302743508350e-01  1.7632516245313101e-01  2.2960007411292510e-01  1.7709090690470966e-01  2.3142668684454334e-01  1.7800383738117559e-01  2.3282909594192774e-01  1.7883536217270257e-01  2.3086834365779133e-01  1.7899352424990070e-01  2.4117194143852330e-01  1.8097339730032372e-01  2.3436683968401054e-01  1.8120416456344710e-01  2.3565407635220542e-01  1.8194121604859045e-01  2.3709382933204198e-01  1.8288708309159860e-01  2.3837883753675870e-01  1.8393783821433116e-01  2.3967370658897619e-01  1.8502631396514477e-01  2.4100509792765196e-01  1.8616333875055677e-01  2.4230752954075041e-01  3.0933607134470381e-01  1.8736118048083944e-01  2.4355390548852840e-01  1.8859665192913619e-01  2.4480686554197931e-01  3.1123096136998352e-01  1.8986674781361570e-01  2.4601585064474496e-01  1.9117346184922279e-01  2.4715427830351083e-01  1.9251042829930390e-01  2.4823767691468057e-01  1.9386413121836157e-01  2.4924827696201887e-01  1.9521949482563847e-01  2.5021403173332252e-01  1.9657758869214270e-01  2.5107608827142752e-01  3.1157781130146278e-01  1.9793266048597136e-01  2.5183374455707408e-01  1.9926656667747122e-01  2.5252031282634713e-01  2.0057678799632528e-01  2.5309196832782022e-01  2.0185368224374858e-01  2.5357504768082645e-01  3.0828302593751278e-01  3.0718156982365469e-01  2.5396099889905649e-01  3.0594548321847193e-01  2.5422790673814916e-01  3.0469197028533446e-01  2.5438076890029859e-01  3.0320354086058060e-01  2.5446796061185512e-01  3.0161766837960330e-01  2.5441578680375232e-01  3.0008552250030324e-01  2.5425347415517752e-01  2.9832771207658770e-01  2.5403134236989272e-01  2.9647200739942725e-01  2.5370803079678506e-01  2.9457856695522838e-01  2.5327888887234340e-01  2.0646587634538710e-01  2.1073796126210143e-01  2.0840199514246188e-01  2.9265213384753824e-01  2.1136256917108145e-01  3.0154209876577664e-01  3.0953311645231335e-01  2.9399787839207769e-01  3.1014884721665192e-01  1.4047189904856491e-01  1.4167786875866095e-01  1.3912098858812449e-01  1.4456929502815816e-01  1.3709803520834615e-01  1.4893494732584089e-01  1.5244675332615626e-01  2.0426700432362380e-01  2.7989292289822015e-01  3.4234805694620674e-01  3.2719059677969220e-01  3.2435420471472581e-01  3.3489031057684615e-01  2.8087324861580568e-02  1.5506571519878831e-01  7.2333323311905728e-02  7.1268956243116147e-02  8.0286501167466079e-02  8.4391523382093131e-02  6.3340809690436456e-02  2.8487977878553455e-01  2.7057230058047987e-01  7.9492902548259858e-02  3.6030257010130284e-01  8.2261002805478212e-02  1.7397433066176704e-01  2.0120652239888775e-02  1.8854215850943649e-02  7.2365209583300005e-02  9.4964400902758844e-02  8.3741725290462712e-03  1.6399149382076320e-02  9.1164254431565492e-02  7.3100703973502879e-02  7.0176047056394575e-02  1.6076310378677736e-01  6.8834769544722341e-02  4.3865303837329284e-02  4.1448699527571915e-02  7.1974005374685610e-02  7.8382270927016162e-02  2.4774363135644441e-02  2.4177698076211878e-02  2.5731773419016678e-02  1.0551938309779098e-02  4.1766915920728877e-02  1.1854042059704595e-01  1.6386385218171451e-01  7.9409140099176018e-02  2.6437924501300675e-01  4.7587655560430518e-03  2.1654674333548556e-02  9.7200292049740324e-03  6.1026633986508372e-02  7.9846803510850883e-02  8.8145812813005056e-02  6.4652925586807700e-02  6.6670366096971440e-02  1.1153976988000017e-01  1.1231087949317305e-01  1.1206812059098592e-01  1.1298677730305140e-01  1.1263626250280377e-01  1.1365978126293046e-01  6.7119361200752056e-02  7.4271811339081603e-02  6.8152699679939158e-02  7.9393638150499199e-02  7.8471915401685605e-02  8.4789195798107578e-02  9.1680811404166368e-02  7.8063324782845861e-02  8.4819314807267232e-02  1.5303493102833035e-01  1.4565115403265265e-02  1.8126998114697323e-02  9.5574785423165845e-02  1.0878310456142459e-01  1.0353934671909652e-01  1.0277544173982758e-01  7.8641347244641988e-02  3.2212780223719234e-01  1.1290168528065847e-01  6.7116166001823088e-02  1.0311644153688346e-01  3.0349958403749294e-01  1.5397590434005745e-01  9.0590790373641358e-02  2.7467770053995277e-01  1.0738686531945363e-01  1.6001021345254313e-01  1.6658935912458875e-01  1.5755651001272156e-01  1.6432004993021720e-01  1.7315534749205796e-01  1.1930829310138319e-01  1.8141159819918745e-01  1.1518054674211449e-01  8.0357795231522450e-02  7.8773584477294656e-02  1.6059755125679540e-01  9.1788249692335122e-02  3.5367304573200131e-01  6.1926707134656873e-02  9.4247613851611595e-02  6.4051140022732336e-02  4.5965682662161292e-02  2.1746667564401204e-01  4.3124012614679387e-02  5.8042835348819884e-02  4.2712061386338679e-02  5.8057027231393520e-02  6.5076267203955721e-02  6.4837523381890208e-02  1.3048501719356120e-01  9.3379751655167181e-02  1.0272019141266006e-01  9.8110363643243242e-02  1.0338510673863952e-01  9.7832842983039028e-02  8.3470576491848261e-02  8.8073067732102953e-02  1.8894811699695677e-01  2.6402934229646440e-02  6.5723587891304877e-02  7.4391334752593019e-02  6.1508631231976883e-02  4.8974017921969617e-03  1.2829528604617078e-02  3.1221920432248434e-01  4.3554868959802609e-02  2.0548962665916486e-02  9.0102776950569674e-02  7.1507246257799514e-02  9.0036554020474655e-02  1.2932699266369582e-01  1.2720810455943010e-01  8.1646695535529848e-02  8.0492314398172587e-02  6.2079102029918391e-02  1.5511817589314617e-01  1.6206190253917521e-01  1.5269149037503024e-01  1.5979748191722221e-01  3.6806291025089331e-02  3.4235902080765684e-02  7.1913464280112652e-02  7.8315534250901556e-02  3.0832922173727871e-02  1.5898534114884247e-01  1.6506528345204875e-02  6.8676491309662718e-02  5.1789311593798869e-02  3.3541678298809513e-01  2.0782003096749924e-02  6.6939612404029514e-02  1.5594528651370651e-01  8.2300298808632807e-02  1.0500400810150708e-01  9.8084844129243759e-02  6.2697626841480600e-02  6.1085244231457746e-02  2.5246166966682770e-01  2.4953257162371573e-01  2.4465747777964855e-01  2.4665417570878223e-01  2.4218799232114727e-01  2.4384427276249296e-01  2.3976179877998180e-01  2.4112386103765990e-01  2.3742779846899956e-01  2.3331646922449598e-01  2.3829566834988880e-01  2.3504362213796703e-01  2.3564973147614615e-01  2.3282390847303519e-01  2.2754223341398527e-01  2.3306105512847139e-01  1.0667912765297698e-01  1.6188552099786316e-01  2.1479252394665191e-01  2.1555888760637121e-01  2.2339000208987589e-02  3.8340896794069407e-01  2.2607263170882602e-01  1.1616387071781140e-01  1.6655091482167300e-01  7.6954533586911442e-02  6.9981413269703391e-02  7.5769553818696905e-02  6.7852820252281149e-02  7.5160348367082200e-02  6.6798455465491707e-02  5.5678856749314186e-02  7.3976772513584740e-02  6.6014043524307398e-02  2.4491748437050767e-01  3.9384491806363997e-02  5.4610760999889700e-02  5.5145453894719101e-02  5.5624909578730265e-02  2.3608606270505511e-02  7.6990492159723992e-02  2.7200504040567272e-02  2.8517374890062494e-02  2.5785861344320898e-02  1.9248918896465633e-01  1.1148431656183741e-01  1.0372204381055182e-01  1.3540577208322790e-01  1.3617105541744959e-01  1.3494831263477566e-01  8.2672041067325480e-02  1.5088053597088286e-01  1.5762399874168267e-01  1.4815532344073143e-01  1.5534583157816750e-01  1.4609737494516026e-01  1.5315992798435701e-01  3.2578858990149048e-02  3.7033183334032611e-02  8.3167286030963891e-02  8.5438600246691393e-02  5.8343924383447890e-02  8.9858347291521413e-03  9.8193444218586556e-02  1.5109742164562021e-02  1.0673667529999268e-02  7.1638095536654773e-03  6.9622618503390075e-03  6.9681043170630647e-02  4.4386803117000898e-02  1.1673262722673962e-01  3.6344752672486313e-01  2.7828523549952480e-02  6.4643355510547243e-02  4.5894036820889508e-02  6.5415519174658571e-02  4.3666115074184587e-02  4.3554221439125865e-02  4.7702582562629853e-02  1.3123435098978187e-01  5.3731841614919673e-02  5.2013087838269821e-02  1.0171418285292939e-01  2.7251877940932111e-02  1.5789001427873742e-01  1.4754834121420851e-01  1.1261855258653644e-01  1.2124317199936233e-01  1.0388500858236058e-01  1.0345797071168519e-01  3.7018243214697211e-02  2.3203590743484583e-02  1.2486254267321163e-01  1.8483290239067540e-01  1.8072184480603626e-01  4.2479609753566633e-01  8.1131889534562046e-02  1.0406883066598029e-01  6.1597211118217171e-02  5.0335926887949092e-02  1.1668609754984993e-01  3.4924210872894706e-01  1.1540843041204212e-01  5.8408122156909645e-02  6.2504144027637917e-02  1.1219911738397478e-01  1.1077893205639887e-01  2.2404547345821907e-01  8.5152766270413072e-02  6.4373508471588986e-02  1.1284161747584631e-01  6.0149858851156042e-02  9.7158751955530726e-02  9.8780132553574054e-02  2.9717850363792336e-01  6.8019422574002619e-02  1.1314233666756947e-01  1.1433334475165510e-01  1.1367829786167649e-01  1.1500443950792565e-01  1.1428767514189982e-01  5.6280164544749524e-02  5.6302775612660796e-02  2.1452251613050633e-02  4.3288238075592830e-02  3.4897133024976310e-02  8.7722968306450141e-02  5.9037554568596454e-02  2.3180608974262057e-01  1.4368666097825675e-01  9.0912545664770111e-02  7.0762012740995986e-02  7.8229793829224625e-02  6.0555106841143805e-02  8.7955614316283931e-02  1.5073658450279609e-01  7.8914747135919935e-02  1.4662842789079730e-01  6.5515649748414867e-02  1.4172208901147351e-01  1.1342441881092091e-01  1.5236769166549377e-01  1.3816351312571393e-01  1.2923960377782751e-01  1.3003992483143756e-01  1.9121596259909845e-01  1.7479296287129428e-01  1.4313406370030629e-01  1.5086317524457299e-01  1.5898893798880903e-01  1.4078896801928953e-01  1.4862843959394154e-01  1.4543997678711201e-01  2.1831451324827103e-01  1.4526063175188477e-02  1.8288864637634933e-02  9.5812344574088187e-02  6.5363403556774904e-02  9.9137913410067752e-02  8.9060444186162366e-02  8.8590241518313823e-02  2.0538070096058635e-02  2.0142330295240655e-02  6.5872890871485970e-02  9.3710337013797912e-02  9.6436542590418201e-02  9.5771747579976682e-02  9.8319108857840135e-02  9.8894435644152012e-02  1.1129288337183132e-01  3.8366925357960935e-02  2.7811134021351668e-02  6.6777604482908703e-02  2.6879240943747068e-01  1.8080379744984547e-02  2.5168335165450448e-02  1.7647537897529073e-02  2.5492274428477346e-02  1.7089817885611629e-02  2.6040119969679601e-02  1.3653225046392775e-01  7.7595381607313746e-02  1.3075558472459470e-01  8.5224548828395308e-02  8.5668981904515745e-02  8.5801858889107879e-02  2.1533401062736041e-01  2.1733293787668478e-01  8.8335449051512901e-02  7.6856198217743310e-02  6.9385212060311147e-02  1.7287360568651024e-02  7.3898663892232999e-02  7.5820987877640023e-02  7.0444603790944721e-02  2.4076590107343906e-01  5.0365425273315216e-02  5.0549857325108000e-02  6.4971826417124623e-02  2.3630393005412215e-01  8.6929886155681979e-02  2.1259766061611898e-01  2.1490093606029650e-01  1.0261023245617583e-01  2.7191890338585906e-01  8.1981827229470589e-02  6.6737952829392030e-02  1.0523764142071414e-01  7.0779716040849802e-02  1.7276334534715790e-01  1.4648352600923975e-01  1.1198260019979209e-02  2.2886581819240612e-01  1.3846260456878712e-01  1.4641926860607077e-01  1.3615166193022712e-01  1.4421961784624160e-01  7.8256182976936400e-02  8.2227125773198892e-02  8.9362907801154648e-02  1.8911038732253754e-01  5.9855144084233189e-02  2.9819733010183549e-02  2.6716188882290392e-02  3.1111941282966189e-02  2.7681142042937121e-02  3.2349243905420606e-02  2.8653219714585884e-02  5.7709404154106796e-02  1.3068430087416869e-01  8.3731378298711856e-02  8.4722897528652641e-02  8.3802727612463768e-02  7.8353591255847246e-02  7.8820755677924126e-02  2.0747877933092573e-01  5.4175419268065898e-02  2.7541671741092032e-02  2.6271842469612637e-02  9.8936664198506247e-02  1.0012492939406237e-01  7.7564695634718475e-02  8.4460265535486412e-02  2.2292638435701416e-02  2.7978486496721747e-02  8.9423764492038774e-02  6.6517850547004015e-02  7.9638698138222941e-02  7.4735035602392683e-02  6.6264200487790900e-02  7.4271625739942962e-02  6.4616953976930069e-02  4.4444415412085624e-02  3.9376807422203952e-02  4.4214427059349172e-02  3.9801219840883806e-02  4.4723639786071405e-02  4.0279608105384168e-02  4.5947532766245414e-02  4.0888877242728570e-02  3.5899370351547145e-02  4.5789718925981576e-02  4.1203376830355867e-02  4.5289693782082523e-02  1.0979145330471143e-01  7.8786049284788218e-02  4.9601565707663310e-02  5.2793427540425419e-01  9.0290014168662169e-02  2.8898451500629102e-01  5.3770181277079776e-02  8.0011134933620942e-02  7.9009162755636908e-02  7.3698023924774564e-02  6.3179953946349413e-02  7.3092999676104400e-02  4.7305446225084716e-02  6.3434130822727045e-02  2.3402635396607287e-02  2.6943609447793077e-02  3.2844869893790783e-02  2.0970973646413402e-01  2.1244915533793593e-01  2.0695824626894641e-01  4.0822458641466774e-02  5.7292990098146465e-02  3.9542894834517846e-02  5.6102916831210527e-02  2.2129301204035872e-02  1.1761454748821767e-01  7.9452083094487563e-02  7.9382364407721895e-02  1.7266316695295972e-01  6.9329634004096030e-02  8.9709110626749869e-02  9.6756602781807366e-02  9.4565261392384248e-02  7.9880431387453196e-02  5.6383422515754893e-02  2.4717658504142737e-01  8.5008714337931057e-02  7.3814239471375567e-02  1.3389448902512449e-01  1.4203174804602486e-01  1.3155693243382469e-01  8.1236916335328604e-03  7.3934015691888580e-02  1.1411312086423041e-01  1.1566459494482613e-01  1.1473939340855922e-01  1.1633123879271805e-01  1.1513894925295884e-01  8.2773764232220104e-02  5.0445981362594106e-01  4.5427459857595959e-01  4.4810822126799049e-01  4.3287571721141543e-01  4.4377654802444977e-01  4.3664945068525352e-01  4.1882927711607054e-01  3.9754651666387447e-01  4.0163541608734482e-01  3.9321233554643875e-01  3.9474242878067767e-01  3.1983053276143134e-02  2.1776396302781158e-02  1.3495690534297443e-02  2.4263276989542568e-01  1.8112761831936056e-01  1.7982104671683605e-01  1.5989059083988016e-01  1.7787572020884526e-01  2.5644592384283937e-01  1.7189897011799660e-01  2.8356292687826651e-02  1.9696552071066943e-02  1.2071000907441776e-01  3.3420444446131004e-01  1.8719423424891235e-01  2.7811325135598564e-01  3.1692355627004276e-01  3.5841956687124588e-01  1.9668507047182535e-01  1.4056289378823691e-02  3.7055908861660769e-01  5.1429704327129788e-01  2.9999131462486833e-01  3.1606986008241461e-01  1.4951749748031870e-01  1.3881001260995826e-01  1.5894594305134430e-01  3.2826442316095855e-01  2.7896762282203785e-01  5.7972490260989473e-01  4.2392582730809375e-01  5.0197404855185235e-01  1.9726871328189177e-02  1.8775419577996492e-02  1.1225573122835007e-01  8.6713961374653259e-02  1.1419749814661363e-01  1.0976235157617502e-01  1.1115227425451926e-01  1.0461286137860125e-01  1.0648564435500806e-01  7.5929365712081823e-02  1.0664561173646316e-01  9.8023265457331671e-02  8.4523881122462827e-02  8.3461235430058053e-02  8.3115528427120652e-02  8.3740658161640169e-02  8.2829081209719976e-02  8.2632920093557174e-02  8.2732992425341809e-02  8.2397573851569261e-02  8.2315953558710089e-02  8.2133829995186855e-02  8.1898640440443274e-02  8.1847728987732460e-02  8.1506925846959968e-02  8.1566662638767995e-02  8.1100515258829720e-02  8.2305513443262451e-02  8.1533791659997898e-02  8.1327159314532313e-02  8.0705850732361667e-02  8.0310885390207420e-02  8.2904887569796179e-02  8.2904780293549502e-02  8.2717867617819699e-02  7.6837290506745662e-02  7.8281213262465787e-02  9.8824229613682327e-02  9.4816836358208353e-02  9.4584001159232517e-02  9.3772283547279428e-02  2.4675882718271402e-01  2.8245735513525488e-01  6.7820250954064923e-02  7.5409405493973127e-03  8.7365328457133043e-04  2.4000481773828065e-03  8.6521779147509026e-02  3.8748852431370405e-02  4.7826764023441888e-02  9.1118966893404249e-02  7.2939483515415932e-02  7.2094018228588477e-02  5.3503868844999941e-02  5.3989528698619157e-02  7.2052571192264450e-02  8.0496420610253056e-02  8.0091372490974075e-02  7.7403418864128576e-02  8.3649731365649238e-02  9.7465525401410860e-02  8.9398088864195216e-02  2.2882529081511951e-01  1.9988742339131937e-01  8.0567082296314804e-02  8.9855224148497295e-02  8.3966200478912428e-02  9.8480242360833595e-02  2.7045028617710007e-02  2.7191372026240123e-02  1.6926896911034137e-02  1.3243936678833602e-02  5.5977933003917801e-01  3.0037563138736185e-02  9.7265028029875356e-03  1.5673347283294361e-02  1.4384405413967093e-02  8.7826031675930352e-02  5.7000218566895265e-02  8.9353181758744186e-03  1.5992868039740826e-02  9.1505957481239110e-03  4.6746767913585716e-02  4.4641604187154633e-02  1.0625790568107464e-01  7.2315369782613964e-02  2.0955520267523529e-02  2.2975995903279256e-02  1.4264504648322792e-02  9.5312977422933279e-02  8.4288604262400299e-02  8.6562756845411218e-02  7.4672291187093148e-02  5.8552461310218157e-02  8.5697593413868234e-02  8.5400836830950927e-02  6.0308649606168094e-02  2.5483252499194038e-02  4.2317114588393163e-03  8.6515111076719220e-02  4.1506832855924475e-01  9.8793901179184310e-02  9.5808255562650296e-02  9.5580203157429572e-02  9.2086417225423559e-02  9.2707934120749999e-02  9.2925906380603177e-02  2.8411899249742945e-01  4.8303903691712183e-02  8.6511392587380054e-02  7.9890578659038591e-02  7.8312251020854803e-02  7.0137080581922626e-02  7.4432054609781154e-02  5.2015013583748840e-02  5.7551436706595037e-02  6.3300965597411440e-02  6.9235802878239008e-02  8.0491112100478490e-02  1.2548600883840372e-01  1.3174734136423105e-01  1.3921353814658349e-01  1.3926338664215412e-01  1.3819840196982464e-01  1.3817886090400288e-02  1.4487367772203064e-01  5.4675716635420757e-02  1.1368778499786786e-01  4.4549155978957290e-02  5.9288848020776462e-02  1.5183906674837547e-01  8.7771778602157541e-02  1.9817143131805687e-01  2.7132220524078099e-02  2.2989502443362321e-02  9.5880868896426358e-02  9.7927944284150567e-02  7.3080604397863583e-02  7.6384186384882813e-02  7.1317756576725483e-02  7.4412173813054289e-02  7.6094533637918002e-02  7.3691300084237646e-02  8.3994562116353796e-02  8.6279217560426155e-02  9.9000553620103293e-02  9.4235850672018506e-02  9.3726215241168351e-02  9.7937597441218160e-02  8.9136503064806819e-02  1.0919461741623780e-01  1.0185546897320966e-01  1.0295228688890311e-01  1.0104478239298381e-01  9.5230804258465279e-02  6.3388693041930289e-02  6.7400792971533521e-02  6.6607354756588438e-02  6.6145728096998743e-02  7.0115244874846994e-02  8.4375760317643489e-02  4.6122054795606063e-02  9.3381886708619605e-02  8.1914192652081219e-02  7.5040362566988789e-02  6.9087475313757987e-02  7.2720857839058864e-02  6.7311029260175917e-02  9.6796387205934961e-02  2.9871793818731080e-02  3.5622244575063369e-02  2.6161801283533338e-02  7.5256807050522970e-02  8.5035668605091749e-02  8.6033414866954455e-02  7.7895235720912864e-02  7.8324278414141649e-02  6.7858835959376709e-02  8.5817837031573224e-02  7.3066909155735438e-02  1.9272360840646602e-01  8.5425181061565089e-02  8.3694284254892157e-02  8.4075568188227520e-02  8.2854348724593199e-02  7.0833105886152575e-02  5.5083047977109709e-02  6.1063271693298053e-02  8.2512632302133487e-02  8.3170941867651546e-02  8.3029390202919204e-02  7.7077664451519493e-02  1.8717412293444555e-01  6.7811841608789780e-02  7.9256431126555879e-02  8.9194188214677117e-02  5.6890703506571057e-02  6.3003852056769158e-02  5.0877044494105926e-02  6.6364867850935400e-02  7.2814770778375462e-02  8.3601273294878209e-02  8.3920299307379168e-02  8.2814636166678848e-02  8.3058953486852521e-02  3.9214664138343971e-02  6.1080904778611542e-02  3.9028805557519634e-02  8.3337201951437220e-02  8.8714053888362412e-02  9.0810413566091625e-02  7.5120751598209939e-02  9.8776254907700492e-02  5.5366010340626430e-02  6.7697558553005494e-02  2.9718618387895124e-02  8.8213339864353618e-02  8.3737645759967116e-02  8.5817468991895574e-02  1.3681879234938546e-01  5.9033510259784136e-02  3.9999937188960812e-02  3.2343385732465729e-02  4.8469793983074085e-02  3.2679765072385680e-02  3.2988329819160944e-02  7.3275163869480242e-02  7.4153071441553073e-02  7.2261158264777789e-02  6.5394490410355624e-02  7.4337904110929137e-02  8.1522910418729402e-02  9.3027196313519370e-02  3.7510147897283817e-02  2.0648704998784426e-01  6.6424932988795898e-02  6.1879892817125214e-02  6.4733884683325818e-02  6.4294673751005602e-02  6.7504727305286033e-02  6.7203366233108588e-02  7.0929913976543413e-02  6.3971740082836070e-02  6.7439595901565758e-02  6.3669764541449153e-02  1.1000213976356493e-01  8.1598960927565800e-02  4.3722252424252893e-02  3.9825202259333579e-02  5.5493770664983351e-02  4.7167791925895645e-02  3.8978658707985024e-02  3.8942854901107209e-02  4.7302879256205570e-02  3.9097946964780313e-02  4.7438834596032563e-02  5.5384860479673843e-02  3.9422083835729864e-02  4.7607470858394230e-02  2.8648249328268396e-02  4.0092527298480819e-02  4.7913604678302260e-02  6.7195811304909300e-02  6.8301744122762742e-02  6.6744081948360179e-02  8.2949558157075512e-02  1.5837145223764715e-01  4.5168434503603926e-03  4.3872690090145566e-04  5.1093191302472640e-02  1.3735478337512048e-02  5.5232329293485441e-02  6.3260636614285021e-02  2.6266199498338909e-02  3.6410605035238498e-02  6.1147460140371111e-02  6.0365326237655753e-02  7.5528408065466707e-02  5.9616287669916133e-02  3.8470034654793414e-02  2.8984897494875994e-01  5.4621524203584529e-02  5.7875219475173101e-02  5.7226501518142563e-02  5.6602435684189066e-02  4.2640350181446192e-02  4.2175443539082903e-02  5.6001494559577321e-02  7.3095486219178329e-02  7.1603837132345027e-02  6.8560260208801738e-02  6.7133550115169541e-02  1.1212635811885365e-02  5.9146698896009438e-02  6.2543235636547304e-02  4.8984083768333755e-02  4.3619555889035169e-02  7.4372193310085127e-02  7.5325238877116674e-02  4.7625435094467164e-02  1.3900900458466795e-02  7.8535620480953722e-02  4.4677741570691341e-02  8.6090819342109257e-02  8.7596233186137018e-02  7.4090740556592316e-02  9.6053208400139242e-02  2.1265499530472043e-01  2.2076729653566896e-01  2.1892677429531554e-01  2.2720010438139485e-01  4.0349436830168686e-02  6.2936577278661546e-02  9.0132541925371318e-02  7.1168871760881380e-02  7.0547112169551063e-02  5.2393155573162292e-02  5.1482386680536570e-02  7.0303053257077600e-02  5.1363267938017945e-02  7.0178631869042926e-02  5.0715267185096495e-02  3.3043607899557008e-02  5.7539997723129115e-02  2.7152565335495954e-01  2.7601727883824823e-01  2.6550041426977222e-01  2.6326051331131561e-01  8.1719280208543951e-02  8.1853133617640988e-02  6.7843069677509762e-02  8.2095601037320873e-02  3.9134035091168196e-02  1.8803777510995122e-02  2.2416358631186791e-02  7.9779999451629308e-02  8.4439667030257626e-02  8.4029421065525176e-02  7.5722425306994967e-02  8.2897552745720110e-02  2.9197873770274868e-01  1.3622253753553829e-01  1.2798625247129122e-01  8.1523974232672200e-02  8.6694765670374999e-02  2.4947486912590067e-02  2.9658454539575309e-02  8.6083535809451023e-02  3.4170019838140275e-02  3.5952712143985627e-02  8.0389887425296819e-02  9.5512116881776132e-02  7.9985450980573761e-02  7.1284846866462331e-02  7.5819602998485405e-02  4.0186148458219016e-02  8.5491059091274288e-02  8.5397235048232156e-02  9.4314562046098491e-02  8.5656101321571559e-02  8.5731630342280971e-02  7.0692023924988009e-02  7.2844684579341415e-02  7.1330949872289731e-02  7.3372017099845782e-02  7.1983438459312502e-02  7.3909666762656173e-02  7.2663367394438794e-02  7.4459893196081400e-02  7.3359861205975263e-02  7.5022212013889852e-02  7.4080650159275896e-02  7.5597578004833021e-02  7.4831018664125296e-02  7.6188861527736726e-02  7.5600301261143449e-02  7.6795249934405868e-02  7.6401974652330465e-02  7.7420548232715505e-02  7.7235355761199762e-02  7.8067414585588815e-02  7.8109276533933514e-02  7.8738439145420641e-02  7.8199106872668164e-02  7.2931337065924501e-02  7.9023629878261642e-02  7.9439546322432969e-02  7.9989551215928600e-02  8.0176111322061483e-02  7.8701336014121187e-02  8.5395636418292092e-02  4.1821497471503676e-02  8.1012236574309893e-02  8.0955276838456436e-02  7.9552778615046282e-02  8.2104133966656376e-02  8.1787774293479790e-02  1.3457517310000511e-01  1.3445988771354919e-01  1.3672527416947255e-01  1.3646722919370191e-01  1.3698670808062138e-01  1.3537253978406838e-01  1.3751246426461997e-01  8.1106961585802245e-02  8.3008932642186048e-02  8.2316420056346318e-02  6.7439458743358577e-02  1.8727415815835238e-01  2.6424796473545245e-02  2.2262583673357105e-02  2.1976794803029335e-02  1.7837083816584689e-02  2.1982909719740235e-02  6.6163588774926257e-02  7.7259120686754737e-02  7.7638870339733046e-02  2.9715202438701221e-02  7.1079032690526109e-02  7.0284414017134922e-02  9.5399502607009370e-02  9.0463855109932143e-02  8.2177750787697998e-02  6.8019836005597453e-02  7.3802591382670632e-02  5.5020843569931414e-02  6.2088482219527348e-02  4.8168502814685391e-02  7.7946812217731337e-02  6.9760639513074610e-02  6.8921291232832013e-02  4.9994154197124108e-02  8.6638079598186118e-02  6.9706499876861824e-02  3.3896613236128019e-02  4.3820157734659040e-02  8.8992166380303633e-02  4.5794874784196610e-02  8.7045293204516243e-03  8.8046563802295173e-03  4.7916176688562344e-02  8.9282185966989974e-02  7.0216250593056556e-02  7.0215468752497942e-02  5.1215280807314127e-02  5.0398607163575700e-02  4.8463202030334891e-02  7.0847992171871502e-02  3.2290290387031156e-02  3.1947960587278550e-02  6.8678946997435833e-02  8.3277645507333423e-02  8.2696547963204234e-02  2.0671368796079631e-01  6.8826870853092494e-03  8.8803490746866033e-03  8.8577218158182125e-04  3.9526394390941355e-02  2.4742350204134900e-02  2.0728877213290125e-02  9.7478938770574369e-02  9.2816789810959754e-02  9.6865691720234362e-02  3.0337005021480321e-02  2.9168095353884222e-02  2.4756708263694693e-02  3.1570567826696268e-02  2.8040035139974745e-02  2.3647248994590690e-02  2.6936770598056405e-02  2.2580355322337393e-02  2.5907772256459554e-02  2.1558045621738992e-02  1.9239835354365697e-02  2.4915657345336066e-02  2.0576640129417227e-02  2.3943344801004313e-02  1.9627832792570955e-02  2.3017940104846646e-02  1.8718417288802656e-02  2.2128228638155181e-02  1.7839448884575553e-02  2.1265761172528673e-02  1.6992468722199450e-02  1.4399712823548280e-02  2.0439168551156888e-02  1.6179435070199647e-02  1.9634170253760116e-02  1.5394247231474542e-02  1.8872307266767228e-02  1.4636157985689270e-02  1.8129648902013375e-02  1.3905280808578240e-02  1.0363471295988837e-02  1.7411770091533375e-02  1.3195190595604868e-02  1.6717626850674381e-02  1.2507437611559480e-02  1.6047948894985599e-02  1.1838662246304652e-02  8.2925333834951431e-03  1.5402615890980386e-02  1.1188588883526838e-02  1.4776247935500102e-02  1.0559320799112728e-02  1.4162840238866542e-02  9.9490800861929008e-03  1.3577553200564594e-02  9.3660822660696363e-03  2.5517381050403253e-02  3.0206726671359947e-02  7.4771577936768863e-02  1.0004848808053653e-01  9.6236399791909011e-02  1.1210896595633807e-01  2.2602220621408792e-01  2.1724227883505701e-01  1.3020497250416511e-02  8.8180561027994767e-03  5.3321185547641837e-03  8.2871154430122582e-03  4.1118383234971367e-03  8.5810689656471748e-02  7.9337358506337205e-02  7.7289656402554280e-02  7.6938608157062383e-02  4.5988094117233883e-02  4.3458265211088450e-03  8.2643850857488238e-02  4.2596593363211761e-02  8.9911151929661856e-02  7.1184523981608044e-02  7.8827119081430530e-02  4.9244653625861098e-02  2.3208244578628735e-02  5.4279595515081047e-01  8.2311212158550015e-02  9.4430610131687784e-02  7.6371132694446037e-02  7.5416877673797747e-02  8.9703667327906217e-02  3.1316266248459179e-02  3.0788991894672914e-02  3.1821659281777596e-02  2.3830360189579555e-02  3.2325769854318308e-02  2.4153537230973080e-02  3.2780720858931432e-02  2.4449361181106438e-02  3.3233774748680243e-02  2.4725205148967783e-02  3.3642612857474906e-02  2.4975480770313016e-02  1.6277341402011373e-02  3.4043885775891090e-02  2.5204452153241741e-02  3.4423287951444871e-02  2.5410877352811577e-02  3.4773058594237224e-02  2.5595594578902012e-02  3.5084977560496826e-02  2.5745930468736591e-02  3.5383401084625191e-02  4.1597917935779806e-02  2.1392994876139915e-01  6.9759696513799721e-02  4.5278757068659458e-03  2.6242572026742968e-02  3.0947492212036434e-02  2.7810854655182779e-02  3.2558158990231047e-02  2.9452304956278461e-02  3.4244828386793560e-02  1.0933003347599657e-01  4.8634786777055031e-02  6.0088521651239721e-02  4.8667847850511613e-02  6.0114241740514496e-02  4.8844703643384176e-02  6.0142618667698995e-02  4.8868089897870774e-02  6.0137082007399985e-02  7.0657251512890304e-02  4.8974837989939388e-02  6.0128184800370410e-02  4.9052418700975660e-02  6.0102502765741056e-02  4.9049665839347778e-02  7.0469534341353807e-02  6.4238095817399893e-02  3.5925451522815885e-02  7.1751707419407854e-02  8.2304688851563751e-02  3.6914191888492168e-02  2.6308895615786577e-02  5.7327137840358512e-02  5.7617769042114561e-02  4.7752737941982218e-02  5.7904110945480765e-02  4.7941426175986505e-02  5.8153961348783555e-02  4.8109294442703565e-02  5.8385437304969055e-02  4.8259062063894492e-02  3.7459857865875246e-02  5.8631004911477901e-02  4.8397029678909707e-02  5.8852184966112650e-02  4.8517299135322191e-02  5.9103581834145234e-02  4.8686276335116907e-02  8.1476385108450403e-03  6.7370438869303634e-02  6.8296451584947335e-02  3.1164107816020949e-02  3.6016390245310691e-02  3.2960886055182451e-02  3.7880894142385942e-02  5.4657198509576767e-02  5.7059374473986700e-02  6.5667879027769036e-02  6.0634718404866055e-02  5.9476497001076767e-02  6.1727702918482286e-02  6.5219109333741435e-02  3.4848896375562592e-02  3.9839344807160948e-02  3.6832245856835900e-02  4.1900712302726628e-02  3.8917134451588155e-02  4.4066938770275232e-02  4.1108995238902435e-02  3.8139188771533022e-02  4.3417415266023635e-02  1.1918081435900622e-01  3.6512979707896009e-01  4.8873687445033939e-02  4.8958618954381014e-02  9.2874592407294829e-02  8.9688981084015726e-02  9.1707887253178216e-02  8.1573879915696187e-02  1.1587136971814262e-01  1.1194271742372133e-01  9.1055652428637751e-02  3.8511151271921208e-02  4.4980644005785150e-02  9.8831978927156616e-02  9.5876529059230081e-02  3.3080519856796102e-02  8.5134284073177829e-02  3.6759623489469186e-02  1.1424102962099865e-02  9.8079626838552605e-02  2.6511002706834794e-02  8.1271094691256401e-02  3.8765721099988201e-02  9.2734714252167824e-02  1.0814359499646956e-01  8.6737174751111534e-02  8.8887928423841508e-02  9.0209572143478300e-02  8.8459641855985913e-02  3.5706905661410611e-02  9.7474480709903305e-03  8.6901404858185899e-02  6.7357933864144832e-03  1.6520073563565621e-02  3.9793958175219343e-02  5.9560279253827272e-02  5.9319573591441507e-02  3.5944636747827087e-02  1.1665941057524283e-01  9.3834915615815431e-02  9.0222263930611793e-02  9.3249389152186876e-02  8.3900666054493409e-02  4.9556888210578812e-02  5.2084511980460262e-02  5.1885742905438965e-02  6.8739767347862843e-02  1.9658676679104051e-02  9.2017090646616936e-02  9.7856742148740461e-02  7.0729626585219986e-03  1.0667318922123295e-01  8.5587544743863514e-02  7.8687171998435765e-02  7.7753455951701758e-02  7.0437088859700236e-02  7.6840900801572493e-02  6.8926366712663292e-02  9.5571403267503505e-02  9.2678046973223377e-02  8.7356311525789446e-02  1.2629363531192256e-01  2.9372721322774270e-01  1.6435295275824557e-02  1.8458989415976918e-02  1.5181684413410432e-02  6.8031370982166550e-02  7.8544332651254517e-02  6.8264050997439971e-02  7.8788958900348038e-02  6.8581248862604513e-02  7.9030807375136819e-02  6.8777858478619530e-02  7.9242324133166883e-02  8.8243298966053749e-02  6.9036662020857564e-02  7.9446062866308467e-02  6.9296867976703300e-02  7.9637720911724122e-02  6.9407290661181703e-02  8.8812253085213594e-02  8.5405176187486831e-02  7.0070740505312340e-02  7.2161051073579660e-02  2.4681815564098049e-02  6.9664890687940240e-02  6.9566985378320359e-02  9.0667602644794565e-02  8.7456392300459651e-02  5.9977707938014227e-02  3.5398830086454419e-02  5.5053042628084609e-02  7.3102311084638938e-02  7.3863187293359403e-02  5.5273445865797285e-02  2.6185925788660431e-02  2.2973235092714628e-01  7.0550371742753443e-02  7.5355996148810014e-02  7.9639276980732962e-02  1.2186102783996950e-02  1.6376676924901894e-02  1.5979715694063271e-02  2.0163393956078392e-02  1.9760500886824014e-02  2.0570157299133789e-02  2.4386307667229809e-02  1.5568039309500121e-02  1.9387153962555172e-02  2.3647316956444495e-02  2.3342937477271876e-02  1.9036625202251384e-02  7.9144973975573699e-02  1.0523826456304466e-01  6.9497296859320531e-02  7.0190847910615570e-02  5.9153999897168234e-02  5.9180531888590050e-02  4.6932957879177631e-02  1.8949060532969613e-02  7.9998327589981280e-02  6.0021565281410144e-02  5.7501412757826484e-02  8.3999108138719220e-02  2.6088784236190599e-02  7.5847109079394931e-02  7.6315339195497489e-02  1.6226934620603477e-02  6.8100404546101515e-02  1.5080541112529389e-01  8.0437193733304643e-02  6.1817709548666090e-02  2.0241648347105800e-02  2.8094224690871294e-01  4.6071195718842349e-02  3.8952334036951572e-02  4.8197020625524466e-02  4.3413511944974913e-02  4.6297331108345989e-02  7.8343176070650056e-02  7.9767206697294660e-02  7.2654109547311288e-02  6.8428678282320354e-02  6.8580546109990870e-02  6.4336239134542492e-02  6.3933016559779482e-02  6.4910790985897665e-02  6.0973572095545485e-02  6.8753757785735628e-02  6.5336898742639343e-02  6.8964534895182741e-02  6.5798613866522596e-02  6.2417143205368959e-02  6.1819168130158433e-02  8.7131605148091928e-02  6.2297031086037180e-02  5.5686213552408409e-02  7.2728713880188964e-02  6.8210342145465647e-02  6.8251961421939580e-02  6.3862571187973546e-02  5.9906860965865304e-02  5.9513926511672907e-02  5.6447487261313115e-02  5.5193930216044303e-02  5.9263004375110402e-02  5.7397449325369221e-02  5.9210035480097387e-02  1.7735482105006382e-02  1.1897694795392393e-02  1.5488723771078389e-01  2.1623169777557100e-02  6.9952764473677570e-02  8.5109478501977212e-02  1.1754693531503681e-01  6.9831860145764452e-02  2.2021246808360321e-02  5.5959162199586326e-02  5.8217983590644187e-02  4.7070187413841412e-02  6.3647709705580757e-02  5.8817503659333803e-02  5.3784609677536385e-02  2.6005562513296474e-02  2.0715392789594417e-02  1.9875694279744189e-02  1.5493479475336273e-02  1.9280366015572457e-02  2.2511793482945536e-02  1.8162346231978314e-02  2.1448059579951689e-02  1.6955992229164229e-02  2.4784133671866618e-02  6.4455365240835186e-02  8.9022476015634594e-02  7.0633812446599276e-02  6.7652603040341847e-02  7.5865740148969227e-02  1.8937692471996472e-02  2.3875786963973980e-02  2.4592385733257321e-02  2.9612791851387741e-02  2.5348355031969510e-02  3.0588826431292914e-02  2.6121209554961673e-02  3.1582311382768506e-02  2.6933767171742524e-02  3.2727870150334258e-02  2.7809648588302583e-02  3.3826541813151645e-02  2.8707113205735792e-02  3.5086365753801786e-02  2.9674170367532973e-02  3.6269188620954504e-02  3.0667112890591871e-02  3.8331108282512710e-02  3.1766326006714439e-02  2.4326964571987516e-02  2.5115091502970432e-02  3.2747785032165584e-02  2.5898158880431291e-02  3.3864467634335899e-02  4.1020346914470145e-02  4.1699695744030860e-02  3.4652383421531048e-02  1.7993415101071886e-02  2.6618020470288880e-02  2.7506504278869755e-02  3.5855305050734892e-02  2.8510522040880736e-02  3.7529423797004684e-02  4.4941698588301368e-02  4.2242053382597712e-02  2.9699711290587918e-02  3.2957548309191176e-02  2.3331417156334560e-02  3.2903631962809446e-02  2.0073372473654937e-02  2.0403530597553073e-02  7.6137671040512847e-02  5.9155139746822618e-03  7.5340609182853874e-02  5.5932862826445585e-02  4.9855700178255892e-02  2.1043051097272170e-02  6.2911343927387328e-02  5.7097280733148660e-02  7.7182566718343046e-02  7.6730477281232987e-02  8.5902691483531371e-02  7.6154676503046581e-02  8.5284233025020084e-02  9.4068381054072350e-02  9.3358585249131043e-02  8.4558332159215877e-02  9.2679875423866381e-02  1.0129381808110188e-01  8.4054116144352833e-02  9.4673116890363659e-02  3.7254062117394328e-02  1.6509126646626807e-01  9.2796275244905635e-02  3.7564760248059631e-02  3.7575336983831732e-02  3.7575063568828566e-02  2.5527871016362932e-02  2.2192824929610739e-02  1.9346700150639728e-01  6.2578128161591362e-02  1.3316822302622346e-02  3.5283864785444298e-02  3.6296460204089796e-02  5.4889226828619589e-02  5.3287934929592509e-02  5.5312108425386461e-02  3.7195051347857319e-02  5.6329049943606560e-02  7.3358612138667859e-02  3.8194965391190702e-02  5.7247422634109896e-02  7.3807806080315994e-02  1.3574034367847315e-01  5.2282988071956159e-02  6.2815059158159714e-02  5.7402008572086154e-02  5.2731376891681225e-02  5.9352754167779333e-02  5.4331627631489104e-02  9.8732389404606685e-02  6.1387944717604344e-02  1.6913880099959802e-01  3.8699870316177012e-02  4.2805966543779439e-02  4.3096039345670127e-02  4.2494394461553148e-02  4.6886560515209452e-02  4.6551003496964810e-02  4.2151055721666511e-02  4.6210957592251294e-02  4.1809853123721687e-02  4.5901124536667677e-02  4.1469676300180301e-02  4.5638626358621551e-02  4.1125280648210305e-02  4.5250336665514118e-02  4.0750303242821313e-02  4.4485798968869512e-02  4.9569882389465060e-02  7.7408482144785754e-02  1.1933199852742059e-02  6.5882488106500849e-03  6.4730058322197467e-03  1.4227509228054807e-02  6.7128490449971578e-03  1.3930771158948701e-02  6.3665226054756769e-03  1.3670741397729539e-02  2.4337623201136478e-02  2.4655830641805453e-02  6.2655580427810982e-03  1.3456826016495962e-02  2.3753436813331356e-02  2.3482145322948591e-02  1.3240229278371124e-02  3.0988900950364391e-02  7.1213162932183244e-02  6.7174206204018011e-02  1.1833528340608640e-02  6.8439559688121985e-03  6.9860088084998107e-03  1.5121546932591486e-02  1.5420352372429188e-02  2.5688629915938385e-02  7.1399031191115084e-03  1.5757439874191828e-02  2.5328948817602413e-02  1.4784267797325527e-02  1.4480691588403344e-02  7.3072285837149408e-03  1.6116377561109372e-02  2.6455338746218214e-02  1.5926538824505072e-02  7.5773965500153542e-02  6.9622531034853732e-02  5.6161006546307485e-02  5.1987054942141092e-02  5.2301377026115245e-02  5.1771655343649435e-02  4.7953241509382273e-02  4.8230498842355536e-02  5.2656414069290974e-02  4.8554932208634619e-02  4.4169110980015698e-02  5.2993105518874414e-02  4.8898076105943059e-02  5.3325028259344938e-02  4.9225624440115412e-02  4.4809449216644828e-02  5.3664018914085961e-02  7.2070117305187587e-02  7.2729974375651235e-02  7.0523602339291322e-02  2.3094613366594349e-02  2.7192477283098937e-01  8.2096898743031249e-02  8.1429514649398668e-02  8.0610762533437602e-02  7.9600900990276321e-02  7.0629248772547143e-02  7.7905904219962199e-02  3.6611774427076541e-02  7.3537563111068474e-02  3.7541476208930960e-02  7.6947180886440800e-02  9.0693617421552492e-02  1.1345792981032024e-01  1.3640666873099100e-01  1.3706319318359023e-01  1.1428753861866604e-01  7.4552945029960821e-02  1.0218554061512124e-01  3.4208795494876092e-02  5.2050699884522454e-02  3.3156477717508202e-02  5.1315874764686402e-02  7.1183417979575392e-02  7.0791568709252753e-02  5.0072885268989675e-02  6.2998926479858483e-02  6.5613092475516513e-02  6.3597654877280016e-02  6.1898382655003928e-02  6.4173701032427186e-02  3.1395982974996531e-02  4.9126541083442381e-02  4.8173719164375607e-02  6.8551237273119958e-02  6.7421675246001303e-02  4.6884632064413394e-02  6.5066572137141565e-02  8.0104820137689756e-02  6.0120739955120073e-02  7.3202238742888226e-02  5.3974250605204381e-02  8.9416693986891199e-02  8.5155087049990884e-03  9.9976268881817418e-02  1.4277458782006125e-01  1.1182022286671670e-01  6.1638463285523214e-02  1.9001676903056944e-02  2.0841062169106535e-02  3.9194493303439652e-02  4.0419186344677151e-02  5.8926556333541713e-02  5.9497326694451742e-02  4.1334818951345151e-02  6.0340270199774337e-02  7.5748957848666851e-02  2.4320979255380706e-02  4.1943531993966082e-02  5.9380216746081432e-02  2.9179549266135606e-02  2.7842564965034670e-02  1.6851413917721363e-02  1.8252419285271944e-02  3.8607545313185505e-02  3.9655241142360839e-02  5.8585150238707626e-02  5.8673151504801853e-02  4.0538987212609352e-02  5.9517616812841956e-02  7.6364795804358301e-02  5.6456745680471487e-02  4.1551511387644263e-02  6.1682261394982202e-02  6.2492207350753615e-02  5.7884225394723876e-02  9.8656492555688591e-02  5.7611115065928357e-02  3.5295489044507231e-02  1.7907422422323271e-01  3.7560033873871315e-02  2.4966039411557624e-02  4.2826594553062841e-02  4.3839308641353499e-02  6.7982630909835057e-02  6.4466148550103672e-02  8.6410744266797471e-02  6.2581934966819464e-02  8.4876355983612747e-02  7.8163258302663158e-02  5.7206117550853933e-02  2.5844481739945743e-02  8.0284978336279969e-02  7.8965279226291221e-02  6.9069915506742144e-02  6.7456206370180849e-02  5.9569628787624347e-02  5.7900114734428104e-02  7.0423573073483778e-02  6.5932275314437613e-02  5.6200207451531044e-02  4.9237151152984750e-02  4.7197567993797554e-02  5.3513043775288531e-02  4.6038976879032086e-02  7.9204796650516121e-02  7.3869296721170152e-02  7.4388345043818527e-02  7.2900158232006768e-02  7.3569826597277829e-02  7.1981070222646507e-02  7.5266770091089411e-02  1.0382052208453774e-01  1.1040050451274108e-01  1.1056069778708426e-01  1.1010298917978646e-01  1.1004484260100998e-01  1.0373708295015055e-01  3.9816044132922418e-02  7.7469103286756699e-02  2.5866658995855541e-02  9.6759771374326689e-02  9.5033654001760767e-02  9.5633766921880664e-02  9.2516909083825913e-02  9.6263097788735999e-02  9.3149672009724765e-02  9.3803363411703852e-02  8.9311770921940689e-02  8.8696959038595299e-02  8.9945308936133686e-02  9.4443021157806617e-02  9.0497617642779485e-02  8.5837725300707365e-02  9.1041044621712197e-02  7.9964836297808484e-02  7.9192989281183290e-02  7.7927619880664434e-02  7.1615885794367964e-02  7.4895455207616812e-02  6.9713045519785063e-02  7.1278005134362110e-02  6.6247507596961630e-02  6.8073573891967012e-02  1.5667330442426922e-01  3.8474288002222023e-02  7.5544202876632771e-02  1.3909977737906512e-01  6.3689823218855593e-02  3.4669811454520222e-02  1.2054866816272403e-01  5.7121797719981722e-02  3.8042304098625454e-02  8.9681211487608617e-02  7.0512139654322348e-02  7.0103012811303836e-02  7.0679674496441594e-02  7.1621077070895572e-02  9.0230300390548995e-02  9.0860198221758198e-02  3.2012865494973480e-02  8.9492242092945890e-03  9.6399165678475226e-03  1.8294024327360353e-01  1.8889586105722296e-04  3.0348936499672704e-03  3.5586045384510619e-03  7.3901062436846337e-03  7.7521175804106009e-03  6.3980061686599560e-02  1.0094613106385404e-01  6.4779872531685503e-02  2.7203265603016717e-02  6.4251693143056787e-02  2.5863394903914005e-01  2.5542891213118163e-01  2.5378185591188807e-01  4.8718389067886232e-02  5.6532876291821861e-02  5.6904988076405885e-02  5.6486293920307788e-02  6.3826175920375899e-02  9.7961499436906907e-02  6.4109627384727724e-02  4.2688602815132849e-02  8.5255487781331254e-02  1.5414941371408764e-01  1.8454697619075522e-01  1.3594385300667962e-02  9.7577456116444729e-03  1.4159077174202339e-02  1.0462054304501169e-02  1.4760431203461464e-02  1.1076712816236185e-02  6.3177688976374319e-03  1.5337491227819947e-02  1.1471715611414341e-02  1.5862260994094740e-02  1.2185945267301858e-02  1.6425315060591934e-02  1.2497685438588655e-02  8.0115591885519671e-03  1.6915192787680909e-02  1.3346250406444335e-02  1.7476973042055102e-02  1.2826783857438228e-02  1.7810307365003542e-02  1.3929126448827659e-02  1.8364890239735265e-02  1.4598695598850492e-02  1.8880437404004254e-02  1.5322850363028091e-02  9.8650174213775511e-03  1.9367959315645229e-02  2.0861984174106118e-02  1.9249574505936690e-02  2.0399638312819035e-01  2.0043691297233224e-01  1.7997078816302633e-02  2.0998651356523981e-01  3.7305656154506935e-02  3.3994988378965897e-02  2.6466275283698160e-01  7.0410287778395614e-03  1.1040253314424257e-02  1.0645929221359580e-02  1.0158485061101070e-01  6.6075602139102685e-02  2.9035343132371083e-01  7.0725941766183908e-02  4.3664267176100453e-02  1.0953009013928897e-01  2.9325613435697027e-02  9.5635297877946862e-02  9.5151604598418107e-02  9.2260034153612377e-02  9.7072635860724801e-02  3.2885778091156559e-02  7.3547084802470575e-02  1.1117297898168786e-02  6.9405798268648393e-03  6.8148646102027102e-02  2.2442819527767031e-02  2.1407613438543849e-01  3.9782316672950270e-02  3.0206481801982876e-02  4.9246698917209467e-02  4.9830169838958507e-02  6.8644468224282315e-02  6.6829966785213274e-02  8.6269398594238725e-02  6.8939773380610317e-02  5.0488041369524964e-02  6.9653223589664123e-02  5.1111353148734030e-02  6.9736115009662911e-02  4.8855273602354962e-02  1.0147690592942894e-01  2.9897956097717723e-02  1.2329142876133392e-01  1.8315871199651151e-02  4.7031715003789276e-02  6.3893536636138074e-02  6.3010801283494830e-02  8.0263091704296727e-02  4.7926739769467645e-02  6.7565571940692140e-02  4.8735217537357961e-02  8.8957977429206386e-02  7.0251938711024697e-02  6.6196509205604728e-02  6.8241959319698231e-02  6.2549214007070197e-02  6.2475374016844498e-02  5.6710916572431130e-02  5.6433502873020229e-02  5.1062778564543151e-02  5.0543852181376407e-02  5.6236480269833446e-02  5.0135678918279782e-02  5.6043256243343789e-02  4.9620960641184993e-02  5.5853054419549110e-02  4.9053799343371847e-02  5.5675765415694252e-02  4.8638385706106201e-02  5.5549412350185172e-02  6.2550936569100157e-02  4.3348967906305783e-02  5.0916739461291813e-02  4.8301133598251431e-02  5.5439253229263442e-02  4.0753673943323770e-02  3.1514329759455388e-02  6.2441810965620362e-02  6.2665746644876036e-02  5.6984512698502937e-02  2.6645568204979347e-01  7.6348316623906690e-02  2.0665297994186954e-01  1.1196918735790056e-02  7.6877159678946311e-03  7.9008440541180058e-03  1.6921691457918674e-02  1.7298795719909187e-02  2.7735962278733175e-02  8.1302889125857061e-03  1.7715358126333836e-02  2.7292190092952279e-02  7.4918541785865579e-03  8.3793062093021533e-03  1.8154730845076308e-02  2.8672497624476243e-02  8.9640782933819621e-02  3.8758914145518228e-02  1.4694585038519653e-01  1.3687429093628292e-01  1.3705549181760882e-01  1.4688769768388379e-01  1.3739630196070354e-01  1.3780697743411527e-01  1.2731558529155532e-01  1.4681147958447746e-01  1.3776231753951654e-01  1.4674693161965402e-01  1.3807784004549822e-01  1.3843893595475645e-01  1.2820053774797333e-01  1.3438317882679798e-01  1.4405220654724726e-01  8.6245829104171258e-03  1.0148659967312754e-01  1.0198884586485250e-01  1.0071764489709979e-01  1.0248765964465548e-01  2.9629209951708028e-02  4.8197089943962997e-02  4.9566254306422544e-02  6.8909947876972591e-02  6.9865595172117392e-02  5.0543700029107068e-02  6.7782382461462384e-02  3.1670607829946823e-02  3.2653219303671148e-02  5.1636104101022727e-02  3.3710007006200582e-02  5.3015335829805839e-02  7.1467343184740781e-02  1.1495663890272850e-01  5.1472723885479077e-02  4.7443656876339217e-02  5.0235550982819968e-02  1.2743539241290383e-01  6.9695498005454146e-02  2.1563761130143282e-02  5.3938667871064265e-02  4.6335554632159617e-02  4.2257694303157685e-02  1.8857575403352318e-02  2.3498917268152140e-02  7.3429906764897315e-02  4.0321227398465921e-02  7.7689844250254858e-03  6.8114565560747284e-02  3.5318067805180479e-02  5.3140274893852389e-02  5.2768724451191171e-02  5.3743409694206663e-02  7.1547731999794778e-02  7.1094584227716584e-02  5.2060255575689711e-02  3.5862789065972948e-02  5.4712358881550176e-02  7.2465913188117209e-02  7.2974956160730867e-02  5.4598668360696073e-02  3.3536268187637261e-02  5.1446913859602095e-02  1.5259910684395955e-01  1.6192304877033704e-02  4.5278499272744958e-02  6.2258669202990537e-02  6.1780070322731785e-02  7.5768108976006526e-02  6.2499858633320915e-02  4.5685058513457395e-02  4.4316474784807706e-02  6.1825787946644950e-02  4.3989739852046725e-02  6.1074292616903239e-02  6.0742731418319693e-02  7.5016406888692322e-02  4.3254003928592730e-02  6.0294485129590403e-02  4.3120657891874747e-02  6.0504845592909667e-02  5.9988929218987033e-02  7.5413031255485430e-02  7.5273084081582453e-02  4.2235509902435457e-02  5.9576216304693855e-02  6.9491401597013933e-02  9.1740860569548055e-02  9.2789027972814922e-02  1.1516229618150467e-01  9.3812740341195619e-02  1.1610315600273520e-01  1.3828921703951008e-01  1.3885661541485703e-01  9.4820492232563100e-02  7.1663110522462395e-02  6.6780091943704670e-02  6.6245576435929376e-02  9.6083948661976240e-02  2.6632760311729387e-02  3.1242955667835397e-02  3.0951001822744410e-02  3.6118838079709052e-02  3.5814008577536527e-02  4.1279937115110486e-02  4.0971904749402516e-02  3.5598129606760391e-02  4.0749402147954659e-02  4.1659292051046487e-02  3.1618186581836023e-02  8.9099883202331503e-02  9.4424428679275516e-02  8.4979819454119379e-02  8.5637505794412608e-02  9.5538188047017011e-02  8.6269512831614728e-02  8.6882464923338482e-02  7.7389726092559660e-02  9.6584736883120789e-02  8.7484934349642107e-02  8.8051954178042693e-02  8.9581092668581816e-02  7.0105546388279039e-02  7.0106249448117150e-02  7.0099424271938604e-02  5.0100498039845114e-02  5.0401246898988172e-02  7.0268136364963082e-02  8.9578955926436665e-02  6.9558382974798216e-02  6.9518347461276858e-02  4.9221110170415194e-02  8.9464295966162205e-02  6.9331517066961432e-02  8.9423976534771854e-02  6.9176421011939382e-02  6.9969724537422687e-02  5.0859216458527250e-02  5.2642049221236768e-02  6.9042011641387388e-02  6.0742350543222204e-02  3.9963780854210318e-02  5.8673675811995805e-02  5.0030291533729607e-02  2.9753876058287564e-02  4.9086572461405097e-02  8.9410603160255744e-02  8.9524594100774763e-02  8.9592411479688744e-02  7.0423401812086700e-02  7.0687616773150538e-02  7.0332650983653461e-02  5.1242436043940534e-02  8.9635643416549698e-02  8.9698209420769337e-02  7.0398560475320601e-02  7.0732549477053458e-02  5.2888523663165210e-02  8.9707911587409636e-02  7.1132146648784339e-02  8.9797766046793848e-02  7.0586524478979423e-02  7.1032829985382739e-02  5.4193527180178953e-02  8.9764087421338068e-02  7.3702726145919314e-02  9.0012060773418251e-02  8.9647628357084785e-02  6.8229274472339826e-02  7.0340759085929835e-02  8.9657811097132833e-02  7.0169282189773391e-02  7.0593241992261344e-02  4.9675907146142305e-02  5.0266441216051901e-02  8.9687975457786270e-02  7.0662236717611418e-02  8.9714287206935278e-02  7.0196939707255920e-02  7.0898355613476099e-02  5.0158512449053949e-02  5.1463253491853655e-02  8.9740245799788398e-02  7.0587662529149275e-02  9.0843088409364572e-02  8.9951266702657906e-02  8.5544263535148740e-02  8.0029266285661690e-02  7.9816672334058827e-02  7.4729610712274824e-02  7.4464209316341734e-02  7.4978559576725112e-02  7.9597438766387502e-02  7.4210206240248447e-02  7.9371304534780404e-02  7.3923048213214132e-02  6.8690034289348653e-02  7.3629759497451749e-02  7.9125080600227840e-02  7.8886749735229786e-02  8.4514317823076085e-02  7.8649645440539470e-02  8.4878424790500145e-02  1.9576600458350851e-01  1.4682355026971500e-01  9.4739092409940009e-02  8.5408621935577619e-02  1.0213330069323845e-01  4.2112814411840199e-02  5.9644166826095059e-02  5.9316757009665474e-02  7.4748023713537878e-02  7.4659731504797794e-02  4.1315271763769361e-02  5.9046741165365062e-02  7.2960305772308762e-02  1.6880709746533398e-01  1.7132176769825005e-01  1.7280443003462403e-01  2.7428464965871761e-02  1.2579978249141319e-01  1.4537882596706947e-01  1.4420368453570914e-01  1.6796591412943856e-01  2.9650175392403281e-02  6.8476380153072225e-02  8.5222731662401754e-02  3.7360577497583244e-02  1.0241726848290147e-01  9.8495006202933819e-02  9.7239354027092231e-02  9.7607972873698878e-02  6.5317527243064041e-02  4.7257701693910983e-02  4.7965862546836102e-02  3.0491472814006878e-02  3.1079933534165109e-02  1.4163517009035733e-02  1.4743228076115399e-02  3.1648875353882271e-02  1.5317527313987386e-02  3.2198951803559604e-02  1.5883712881656263e-02  1.3579399235671282e-02  4.6530490467538016e-02  7.5163115475704104e-03  3.2730851309082418e-02  1.6432826134109658e-02  6.6203009245788570e-03  1.4283426792049017e-02  1.5875462039913371e-02  1.4803124903729509e-02  1.7570963862212730e-02  1.1794832429390002e-01  1.3006794426009563e-01  5.0791852653816028e-02  2.2411716918297989e-01  2.1857973010930724e-02  2.3762841188756895e-01  2.0034983313782073e-01  2.9879156786940614e-02  2.9216507435023090e-02  1.0469812584981827e-01  8.1843333063881085e-02  7.5080691276497538e-02  7.4778702545005959e-02  1.9917190530342696e-01  1.5897555974769984e-02  1.4835382491071480e-02  1.8193557457879664e-02  1.0361874848635684e-02  8.9424154272862329e-03  9.2534340940667852e-03  1.9118193289020178e-02  1.9569299990894039e-02  3.0203243969837815e-02  9.5845930209749290e-03  2.0063065993073254e-02  2.9675046813727408e-02  8.6520127222328904e-03  9.9406466607960854e-03  2.0579352498507841e-02  3.1309911565928064e-02  1.8609272825995008e-02  9.0419982277500505e-02  6.1516797331226176e-02  6.1964780765854641e-02  9.9077412327677472e-02  9.1438675281508938e-02  8.3209924470448365e-02  8.2763061158869486e-02  9.0983788917745403e-02  8.3878436385691882e-02  7.7629396056296707e-02  8.4074831144678105e-02  7.7477082125953001e-02  7.7709657921220518e-02  7.0452478121488152e-02  6.4441516326232184e-02  7.9186475437307349e-03  8.3788659917569813e-03  7.0459995446606777e-02  7.5225552767552578e-02  7.5469660830470936e-02  9.1327006749087183e-02  8.3395202507154403e-02  9.1645154517754401e-02  4.9654324222049379e-02  1.6177662979279438e-02  2.7297156335223397e-02  1.1682252189292310e-01  2.1993126830935833e-01  6.7882784987789574e-02  1.0453133086124558e-01  1.7518877185822769e-02  1.2127427614651631e-01  1.0971279507810874e-01  6.6853062675670719e-02  1.0268695753762597e-01  1.0571154801923857e-01  4.7760102014322327e-03  4.5015351342822141e-02  1.0903034538950838e-01  1.0792890159730491e-01  1.0090889714779476e-02  1.3535164269235780e-02  7.4820231817043822e-02  1.0416890704970574e-01  1.1142464322201959e-01  1.1148810659145805e-01  2.6632001278235555e-02  5.5341193066833688e-02  1.5297625937209557e-02  1.2830346081345525e-02  5.3500731320945426e-02  7.2884705754784937e-02  9.5771933208938884e-02  6.8823353888865235e-02  7.3969019812674952e-02  2.3656086770899715e-02  3.2905261413446706e-02  3.3952790535122707e-02  4.3423499273903918e-02  4.2354917273566176e-02  4.4459212654792836e-02  3.4978919164231480e-02  4.5591343151480050e-02  9.0801091750121136e-03  9.1010293097901398e-03  1.1672665262333572e-02  6.2631714706782277e-02  6.1651012200576359e-02  9.1964858136782054e-02  1.5174401902947843e-01  1.4579634450364123e-01  1.0595144161855938e-01  1.0220481912638359e-02  1.1216146370894820e-02  2.7061705104256515e-02  5.8184683315808707e-02  3.4067039271167256e-02  9.3596513141178020e-02  6.7585278753540090e-02  7.5505473030501452e-02  4.4543674900931772e-02  4.4863180653662182e-02  8.4411390442631101e-02  7.8060661495629680e-02  7.8266680996779817e-02  8.4857629333825041e-02  7.6122528361477398e-02  1.8157441119299542e-02  6.9214228796026123e-02  6.2901919319294952e-02  9.2281531739231801e-02  3.2044088944799751e-02  1.2541230679795592e-01  9.4951399655127753e-03  1.0731271449663933e-02  1.1160085047014498e-02  2.1701769657010418e-02  2.2228176201313343e-02  3.3097952886885974e-02  1.1609289794330733e-02  2.2799428738196660e-02  3.2483861366124578e-02  1.2086311300593381e-02  2.3431120942074002e-02  3.4374408425290444e-02  3.5094481281275271e-02  2.4059405107871464e-02  3.5699363868270814e-02  2.4677095662445459e-02  3.6374651456134666e-02  4.6677852224596146e-02  2.5314758075402271e-02  3.7124397939251721e-02  4.8091917520364499e-02  4.8848914468807916e-02  3.7820283000749182e-02  1.3123135041027249e-02  1.0325835242168726e-02  2.1111699082790970e-02  2.5913382600351614e-02  2.6765518648123106e-02  3.6814447638656808e-02  3.7716693789964749e-02  2.7553778083339531e-02  3.8612480471025494e-02  2.8401647189921324e-02  3.9519869045978061e-02  3.5851939843564322e-02  1.6493807575477529e-02  2.0243859759698779e-01  1.1006610054985712e-01  1.0220985250658583e-01  2.6087888864256271e-02  1.0926361904697593e-01  1.0888841442311117e-01  8.3954980837321502e-02  7.8164032636601960e-02  7.7898628778739473e-02  7.7625962442004592e-02  7.2123911715808023e-02  7.1787828749510882e-02  7.7341637595929338e-02  7.1444080893237644e-02  7.2443273401089900e-02  7.2769380318034302e-02  6.1997571200660906e-02  1.1043934633894248e-01  1.0273654784575481e-01  1.4819401937053597e-01  1.4456335353353406e-01  1.4428358433845923e-01  1.4489554890801615e-01  1.3927959678759219e-01  1.4924661675858858e-01  1.4516584180848013e-01  1.4972743470069980e-01  1.4521008136901570e-01  1.3928831033061884e-01  3.6399719080795263e-02  3.6849819142640600e-02  4.1001472454092802e-02  5.9010457000011854e-02  5.8769745406338621e-02  7.4088382731291799e-02  7.4208331763904692e-02  8.5154073272348651e-03  2.1770050749198522e-02  2.1013634470265680e-02  3.3311313193500509e-02  3.2292760793906569e-02  3.4091233621471408e-02  2.0259012603755778e-02  3.1388368646492595e-02  4.6481920654089910e-02  4.2909646165623955e-02  3.0438094499957120e-02  4.5979924256022049e-02  5.5678019031092527e-02  4.3243728183441410e-02  2.9482101474690010e-02  2.2484040143140344e-02  2.3323933309569323e-02  3.5073441831791910e-02  3.5893963902771289e-02  4.9102799293523763e-02  2.4029428288548704e-02  3.7238966778385563e-02  5.4319999457035861e-02  3.2286570870135270e-02  1.0132469279115530e-01  1.0195443800306903e-01  1.1697266442842612e-01  6.6860765174523037e-02  5.2824304571414925e-02  1.3843685632861519e-01  1.4654282717294664e-01  1.4379016380402346e-01  1.4401082476891053e-01  1.3914410902683422e-01  1.4001923962177984e-01  9.2851488143341293e-02  9.7266976938501244e-03  2.0160116158813381e-02  1.1015072176433255e-01  1.0526468219247699e-01  1.0368362591206633e-01  1.1682120917361346e-02  2.5808635344224225e-02  2.6662115403082897e-02  3.9791372520020234e-02  4.2042000976119411e-02  2.7952622526471082e-02  4.3443960777997497e-02  5.8649839391136140e-02  4.5724580833775251e-02  2.9895615681606837e-02  3.3195454770982374e-02  1.7658239804949297e-02  1.6385695498142987e-02  3.1060843398509019e-02  2.9534223200662849e-02  1.5872243894840293e-02  2.9347519030737988e-02  4.5906308898547937e-02  3.8268045476017691e-02  4.1150425359444971e-02  3.7979524771008077e-02  1.0323083561818404e-01  1.0298610133932132e-01  1.0348428148553696e-01  1.0160334528207522e-01  1.0204679082204879e-01  1.0115961995003099e-01  9.0664118761059703e-02  2.1172680137864754e-02  1.1541657359960565e-02  1.1601427166289811e-02  5.2051433969302089e-03  1.1493625316232886e-02  5.2710335086023387e-03  1.1819061767306452e-02  1.1718407818094733e-02  1.1676528926358769e-02  5.3384564302847342e-03  1.1742266821478130e-02  5.4079095974345660e-03  1.2001683972370216e-02  1.3898966400433629e-01  1.6551793803828410e-01  1.6710091748966074e-01  1.6851982358278286e-01  5.4225981168684149e-02  2.1459852996237191e-02  5.9324411712434029e-02  6.8888132857899437e-02  5.1651118506969122e-02  4.6842468516645454e-02  4.2536869914709889e-02  3.8558283255388189e-02  4.7286988000021388e-02  5.2226965556279439e-02  1.0968647922865393e-02  1.9859406778645554e-02  1.9272410707746344e-02  1.3351934375569991e-02  1.3015244268959288e-02  9.1328724723580192e-03  9.0363629384069537e-03  1.3681106653306295e-02  1.6231551456921922e-01  1.6304814483864144e-01  1.6437298907700118e-01  1.0965151988846393e-01  1.0163338948150501e-01  1.0943469079380862e-01  1.0100494521388827e-01  9.3161907245243009e-02  6.8688372758847161e-03  1.0740311472273242e-01  8.3090362284750877e-02  7.7045722283356821e-02  7.1105587011364713e-02  6.3042774631970097e-02  6.3531189767491683e-02  8.4891466233037144e-02  7.2357245273981532e-02  7.2198118656433136e-02  7.2511307975890602e-02  5.9789262718281465e-02  5.8873384739821746e-02  7.2190925319647409e-02  5.6167058010166256e-02  4.1960798985800345e-02  7.1710362532632119e-02  5.8020388051778587e-02  5.9375189450008067e-02  5.9865497584720442e-02  7.2722327884066254e-02  6.0176883097334460e-02  7.2938978931810963e-02  8.3920639723264426e-02  7.3112019800604722e-02  8.3535610382084027e-02  7.1978743365552517e-02  6.1093670012419596e-02  8.4582962452271204e-02  8.1405756179988409e-02  8.6324299775143318e-02  7.1622650170877364e-02  7.1551683628581317e-02  5.7082993333268529e-02  7.1719583521392877e-02  5.6427506882259046e-02  7.1521408186508109e-02  5.6669081519556831e-02  4.1478627700962549e-02  7.1536415801188705e-02  5.6176748719525056e-02  5.7963813902830813e-02  5.7690858866199166e-02  7.1960367263736141e-02  3.9650136466123392e-02  8.6148950547006178e-02  8.7124705944036943e-02  7.1461098748768243e-02  5.5479490107729498e-02  3.9805200366256101e-02  7.1483755314685329e-02  5.6357200621337936e-02  8.7567553464922218e-02  8.7900835335221847e-02  7.0979658455287822e-02  7.1433828922112932e-02  7.0589254912723373e-02  5.3311047540398088e-02  8.8180058460346253e-02  3.4844312873141860e-02  1.8390517764126178e-02  7.4102694343721284e-02  9.9574803353661631e-02  1.0095668783211634e-01  1.2062229983880915e-01  1.2205459312573071e-01  3.5366767269254820e-02  2.6977721948844759e-02  9.3413586936852075e-02  8.4802993650340594e-02  9.3732373458056323e-02  8.5355759150676655e-02  1.2195435265441684e-01  1.6326459992938655e-01  1.4684950544734002e-01  1.3617090624736483e-01  1.2468997724802676e-01  1.2378835170214909e-01  1.1434339104537899e-01  1.3357223352376210e-01  1.2286272353925289e-01  1.2202052507428301e-01  1.1325753783193140e-01  1.3118683130545794e-01  1.2117038094746907e-01  1.2039679735026126e-01  1.1225227306464278e-01  1.2901004860760668e-01  1.1961700382402729e-01  1.1891168766086094e-01  1.1151245857704248e-01  1.2573581421527913e-01  1.2674090318380410e-01  1.1566673192523662e-01  1.3905879305289703e-01  1.2784672382096643e-01  1.4060223430643742e-01  1.2899744070627234e-01  1.3021423140334754e-01  1.1824118401676662e-01  1.1875296363025180e-01  1.3144994602539620e-01  1.1960117624648901e-01  1.0768311447197088e-01  1.3285517224633989e-01  1.1931055723964401e-01  1.1720356722734018e-01  1.0725391179411994e-01  1.4389579868150737e-01  1.4746517071732784e-01  1.2702410285094121e-01  1.1894728096674670e-01  1.1362504271934976e-01  1.0806223763386967e-01  1.0850153768875452e-01  1.0273882996264917e-01  1.0258844145749971e-01  1.2124211917542747e-01  1.5827035598885547e-01  1.4323618236511190e-01  1.4531419866542417e-01  1.1446062653036325e-01  3.8768771866431809e-02  2.8915953928437158e-02  2.8922481321104969e-02  3.8058700107066801e-02  6.9529378639726802e-02  1.1937859596865534e-01  1.2058167052212132e-01  1.1956511984173838e-01  1.2019398060196175e-01  1.2135910683760104e-01  1.2081430381689209e-01  1.2212537074053897e-01  1.2120961802405909e-01  1.2142367717872526e-01  1.2288798725153428e-01  1.2202402099118213e-01  1.2363765700740860e-01  1.2260757896279260e-01  1.2437998247801094e-01  1.2316800928745589e-01  1.2510860134231497e-01  1.2354365649063696e-01  1.2582168673485028e-01  1.2392659561408789e-01  1.2651723538732074e-01  1.1750942022002510e-01  1.2439940005657553e-01  1.2719733883015932e-01  1.2487033723970199e-01  1.2786124618441438e-01  1.2535110660952695e-01  1.2851244293081765e-01  1.1852299387426272e-01  1.1928775432307409e-01  1.1911239118206134e-01  1.1965531044518245e-01  1.2575987891270199e-01  1.2914131361067163e-01  1.2080523716555630e-01  1.2928177485714051e-01  1.2754110201070526e-01  1.2576001296035982e-01  1.2395173194242916e-01  1.4180578839962166e-01  6.3139145539518812e-02  9.9244892261035458e-02  1.1942843345635384e-01  7.0045213680938259e-02  4.1682561981966029e-02  4.2455927182158390e-02  4.7838059897725431e-02  4.2262789852991527e-02  1.1758769121186713e-01  2.0953353967694214e-02  9.9462749408739837e-02  1.2653696498367908e-01  4.7688948666990624e-03  1.9822893943556172e-02  2.0575367477863652e-02  3.4719924802125338e-02  3.2380366856998938e-02  3.9363463452583312e-02  2.1370567611994431e-02  5.2290283719566309e-02  3.5897741073293160e-02  5.2635400979806096e-02  3.3012310622314432e-02  4.4324607295590367e-02  2.6774988058401870e-02  1.1096583389466796e-01  1.1821432185335537e-01  3.7391819159067259e-02  4.4808824321511835e-02  5.4356296636348125e-02  8.9547839279083261e-02  3.4301576662751063e-02  1.6753470797150068e-02  2.8778123232422306e-02  2.9519973366707326e-02  4.0945417770407819e-02  4.1713106975722149e-02  4.0108909072264783e-02  5.2854928065679825e-02  3.0271292732042071e-02  4.2531079526178892e-02  3.1043337096290067e-02  4.3369493553607662e-02  5.4533747527615965e-02  3.0695993498037526e-02  1.4365904792843687e-01  1.4228919512328925e-01  1.4180285233191547e-01  1.4115496577734682e-01  1.0179960773519488e-01  1.0470086284430069e-01  1.0424978207671895e-01  1.0644455043402667e-01  1.0594838847970890e-01  1.0380319259352791e-01  1.0545355604921738e-01  1.0595100211127313e-01  1.0496420755265394e-01  1.1072806020769492e-01  1.2473777777171673e-01  1.4308049221855060e-01  1.4181019354745308e-01  1.6360629868100146e-01  2.2814664550051864e-02  2.2139865410724487e-02  1.4052510218013986e-01  1.3945204709133566e-01  1.3898505751692972e-01  1.3996243669170852e-01  1.3922576328243996e-01  1.3852269370775849e-01  1.3859217704300736e-01  4.7062725030448789e-02  3.7331051301621523e-02  3.7338456209689466e-02  2.7023386886394718e-02  2.7567419175192492e-02  1.9009371204098145e-02  3.0356967819166414e-02  2.2931269248637892e-02  3.4323115244725109e-02  2.7419053714343174e-02  3.8781374318521161e-02  3.1505038461883066e-02  1.5085099964995057e-02  5.4068826873624923e-02  4.3784139705998489e-02  1.4307290595272973e-01  2.0307916186805917e-02  3.2653324269519002e-02  3.3478353865347331e-02  4.5147629691934574e-02  4.5986664670512850e-02  5.7226776601679380e-02  3.4312478236654897e-02  4.6876758768193208e-02  5.6323881123242631e-02  3.5167226415018384e-02  4.7787043830088215e-02  5.9032401904325169e-02  3.1834419219523222e-02  4.4223444210815137e-02  7.8232404698972899e-02  8.2836278483555709e-02  8.2324916475369228e-02  7.7553453199797192e-03  1.2651332785049292e-02  1.3318469636107597e-02  2.8880165966303242e-02  2.9552033724081096e-02  1.3967196198494703e-02  3.0206662390784910e-02  1.4580774023195835e-02  3.0584356248630842e-02  1.4835965277550274e-02  2.8231327007944240e-02  4.7060222236700693e-02  7.7801025170727211e-03  9.5128706864955073e-02  1.9166792026531300e-02  7.8971567964195733e-03  8.0229741004032695e-03  1.6354328336064254e-02  1.6507201961918950e-02  3.1737785235018731e-02  3.0939321208981834e-02  7.9335708909894880e-03  2.0291202611804851e-02  7.8769992087362652e-03  2.4927472676246031e-02  2.4240206648240566e-02  3.6941369629975823e-02  3.7846779239830694e-02  4.9707249456120838e-02  5.0612452782287126e-02  6.1938875350696039e-02  3.8759104290295436e-02  5.1569803392812072e-02  6.0969855401247268e-02  3.9691778421636632e-02  5.2763758944524841e-02  6.3996793138401564e-02  3.6040313436266486e-02  4.8711585811387632e-02  4.8341128647750323e-02  3.7377381553834958e-02  3.7266074195671975e-02  2.6845709768328094e-02  2.6522710170070789e-02  3.7572809637364160e-02  1.4841537578428748e-02  1.5458239514077004e-02  2.7345350289044078e-02  2.6653809260230359e-02  3.8560897041320180e-02  3.9315305146715489e-02  5.0381645152998769e-02  2.8047520950198610e-02  1.7822925368877481e-02  8.3335471349301905e-03  8.4288482822672556e-03  1.8312697875726716e-02  1.9103777202692254e-02  1.8281063529264799e-02  3.7179957059882890e-02  8.5612876841218589e-03  8.0316142880549560e-03  2.7330578498453325e-02  1.4601630556394869e-02  8.8780740108762250e-03  8.6706950474615511e-03  1.5025069415253150e-02  9.5908398255824243e-02  1.2678494574618090e-01  3.8439669072606035e-02  2.6534416013716356e-02  2.6705838823829185e-02  1.4245374108032654e-02  1.5157134424326224e-02  8.0853480085036709e-03  8.2977231603725589e-03  2.6512512116802965e-02  1.4977612013651295e-02  2.6494973997199973e-02  1.3686375559533358e-02  1.3763210036185119e-02  7.5745788894100051e-03  3.7987421173107792e-02  2.8455851412772355e-02  4.0708330691543268e-02  1.2240513667838723e-01  1.2163194300562392e-01  1.2205313759754076e-01  1.1973777921903415e-01  1.2013442946379008e-01  1.2246892260449697e-01  1.2120487019083495e-01  1.2391761860665348e-01  1.1821336742957567e-01  1.1817977455164913e-01  1.1190965108928171e-01  1.2368694373523856e-01  1.1813790450526020e-01  1.1808706294495706e-01  1.1195529231845652e-01  1.2342883507999540e-01  1.2150201780417202e-01  1.2032882109241159e-01  1.1988108869807640e-01  1.2058132162923332e-01  1.2011140093278189e-01  1.1896900301858808e-01  1.1850182970136135e-01  1.1917187921548579e-01  9.4443197176497073e-02  8.9327911573904337e-02  1.0273865251328297e-01  1.0979866574707903e-01  1.0887966671389285e-01  1.0800570891934419e-01  1.1467195233496255e-01  1.0090252954014342e-01  1.0711077961086486e-01  1.1309375984022775e-01  1.1234117459861381e-01  1.1671143944201876e-01  1.1139098668730663e-01  1.1456208414726768e-01  1.1166948098923990e-01  1.1296821633793086e-01  1.0770615886183156e-01  1.0942103354029327e-01  1.0590051375534461e-01  1.1423431323155332e-01  1.1134776474170355e-01  1.0563671016325465e-01  1.0134432347660643e-01  1.1780008538383392e-01  1.1394882676030783e-01  1.1900733593806861e-01  1.1079182983473884e-01  1.0620970865851337e-01  9.9978028533425536e-02  3.3051673657790118e-02  4.5516845391016650e-02  5.7591556211741737e-02  3.1052207194746599e-02  4.7195871707914359e-02  3.4090648576926022e-02  9.2667940184512076e-02  1.0007471594172948e-01  5.0334830970967033e-02  3.7722086959472705e-02  3.8169106054895659e-02  4.8187979445438338e-02  3.5210803200229346e-02  3.5743220716279063e-02  4.6121743395145472e-02  3.2907581848900178e-02  6.5973480250395178e-02  5.0359506113457748e-02  1.4420153907812740e-02  9.6252794816356249e-02  4.3118325180347715e-02  2.9685508276963951e-02  3.0357680096385634e-02  4.4370887182302657e-02  4.4974184638913978e-02  3.1663597569860556e-02  5.5756390666754141e-02  4.1791965017181527e-02  2.8290327343660774e-02  4.0406745099580511e-02  2.6833987251518900e-02  3.8967851829837807e-02  2.5314957584853255e-02  1.0466138544348688e-01  6.6385084550909010e-02  3.7471701227193586e-02  2.3733657221273800e-02  8.4501452989124183e-03  9.1789761374371170e-02  1.3426730296257472e-01  1.3337499969763039e-01  1.3259170950938867e-01  1.3094634135990332e-01  1.3037359540936214e-01  1.3149911413228524e-01  1.3179165850119107e-01  1.2976719961247354e-01  1.3415221275980330e-01  1.3488435411704516e-01  1.3194717902321174e-01  1.3247336674775564e-01  1.3561248324417119e-01  1.3287978636937173e-01  1.2819710831865538e-01  1.3630497542592787e-01  1.3329784291601118e-01  1.3696346682666591e-01  1.3386224883958339e-01  1.3761990296726534e-01  1.3405360066839883e-01  1.3820610075560738e-01  1.3450087194758631e-01  1.3880142331467699e-01  1.2804517064838344e-01  1.3456117907035292e-01  1.3932821714754220e-01  1.3448810675654707e-01  1.3975948886896949e-01  1.4242773729573471e-01  1.4321375948981899e-01  1.4026319424842684e-01  1.4396133616861254e-01  1.4067433239989707e-01  1.3487530957487465e-01  1.3498517933276150e-01  1.4113342719242916e-01  1.4077314518541148e-01  1.3716895233902809e-01  1.4268446138377616e-01  1.3021122434022511e-01  1.3096985871119038e-01  4.0549655789811442e-02  5.2022816653509267e-02  1.4480555077909882e-01  1.4469078622510334e-01  1.4537879631656436e-01  1.4151115778650036e-01  1.4602839235037693e-01  1.4170886759191056e-01  1.3529944701925201e-01  1.3485989329793641e-01  1.4214687041828841e-01  1.4781040995658346e-01  1.4664972336638188e-01  1.4721597041344389e-01  1.4241902762449685e-01  1.4773830356237294e-01  1.4265467349514624e-01  1.3472381783256665e-01  1.4823505316900251e-01  1.4277601876443211e-01  1.4853166155814998e-01  1.4162490934133234e-01  1.3476738049212783e-01  1.3961119872138725e-01  1.4823106871472297e-01  1.4624570246834512e-01  1.5298217821292776e-01  1.5140750947761705e-01  1.4967433331230576e-01  9.5505802759202604e-02  2.8497127028645292e-02  1.4572296225760579e-02  1.5359527736219621e-02  3.0218103832048232e-02  3.1062023428082113e-02  1.7008187101005507e-02  1.7853216709736938e-02  3.2728043250529332e-02  3.3544955383646727e-02  1.9561774153218244e-02  2.0413541559090913e-02  3.5145328119090061e-02  3.5929394957063605e-02  2.2096253395013209e-02  7.2728687223820088e-02  9.0852332692032516e-03  8.5337875854261270e-03  9.5113239896984697e-02  8.2686001332700682e-02  2.6727924317266873e-02  1.3105029933420572e-02  5.1999094663625581e-02  9.4583820206089381e-02  8.0713822740999336e-02  9.4038307258378820e-02  8.3308501438835572e-02  9.5724561187581172e-02  1.0432372951360888e-01  1.3921113624421022e-01  1.3918367453638955e-01  3.6625704593608623e-02  2.8198856100911340e-02  8.0015730295411716e-02  8.5331588919703258e-02  5.6142013700091267e-02  6.9281470110753293e-02  7.7925932253851873e-02  7.7292551029790657e-02  7.6784199865218769e-02  1.7707679044773411e-02  1.1118569915989185e-01  1.1869208535880442e-01  6.3610161709150084e-03  4.3366380589905121e-02  1.3143292630881917e-01  1.3070823321845990e-01  1.3275333172932138e-01  1.3367696897064046e-01  9.3016654944058086e-02  7.8211969793807706e-02  9.2254239213333963e-02  1.2455715603498169e-01  1.2104183741363092e-01  1.2127319380310921e-01  1.2513235491509606e-01  1.2541106122660059e-01  1.2425521012842861e-01  8.0339773373671500e-02  1.0046624341770495e-01  1.2891710272292890e-02  5.3908689849502270e-02  9.5506967688109734e-02  8.5777506845227558e-02  9.5571311486051802e-02  1.2378939562153449e-01  1.2831409350892189e-01  1.2708050969923418e-01  1.2962167937792729e-01  1.2870638511097848e-01  1.2912983802703532e-01  1.2715381464616507e-01  1.2799212109692407e-01  1.2510361072735970e-01  1.2636200791442045e-01  1.2257712217292954e-01  1.2290137797328930e-01  1.0268728669320283e-01  9.8589286109690866e-02  9.9131002645073546e-02  9.4011676634575700e-02  1.0200489912261336e-01  1.0791499666574531e-01  4.7361994293423186e-02  9.1963069617968796e-02  8.4228538346511797e-02  1.1217844938981411e-01  1.1349976801921444e-01  1.1306016118558332e-01  6.2770082920733397e-02  9.0940106934472742e-02  7.5240663333659294e-02  9.0072260073747440e-02  1.0107940187824152e-01  4.7718881331045938e-02  4.7490508248027252e-02  5.8086198835056689e-02  6.8103428661143758e-02  7.6700238640242432e-02  8.4785869157227231e-02  6.4209053172390451e-03  1.6718336905786092e-02  1.6474980876582182e-02  8.8339554126742655e-03  8.9632306190197859e-03  1.6249473368501584e-02  9.0924928542291013e-03  1.6018583588737322e-02  9.1184985217768726e-03  8.6934963839501774e-03  1.9093455827483681e-02  9.7927149625795587e-02  7.9714545066905867e-02  2.8817884177192676e-02  1.5880573188401734e-02  9.1458608552676939e-03  1.8122056750600645e-02  1.5901611606823199e-02  9.1765978227824115e-03  2.8717866044243270e-02  3.9223505597929552e-02  3.8945036920461876e-02  2.6972570547403492e-02  5.2293343815615331e-02  1.2607579487947632e-01  1.6120096981676202e-01  1.5726822671861251e-01  1.5768872230490993e-01  1.5046040432859931e-01  1.5039659655464149e-01  1.5039823439468825e-01  1.4133256096872354e-01  1.4158923374596041e-01  1.5029919470198677e-01  1.4172327085750608e-01  1.5014248332548691e-01  1.4160397558160573e-01  1.4994503022618832e-01  1.5570984413705094e-01  1.4174188732559687e-01  1.3061421562744469e-01  1.5511967403282065e-01  1.5805730441867250e-01  1.5034522916558057e-01  2.2014237043563548e-02  3.7762574459131275e-02  2.1171477656450749e-02  1.1484121639898608e-01  5.1392251842699119e-02  3.9020860512426356e-02  5.1058088243935706e-02  1.1891339037673816e-02  1.0236798333223722e-01  1.0298970957789252e-01  9.7891906944011509e-02  9.8472826641379602e-02  9.1801424064715240e-02  9.2378318245006225e-02  9.1145365404774387e-02  8.4220096023336188e-02  9.9043972493043600e-02  9.2947977156945458e-02  9.9615844228193140e-02  9.3510962088094854e-02  8.5873865522003379e-02  8.6395144705793611e-02  9.4067991373274429e-02  9.7255124791848863e-02  8.4773809913325671e-02  4.6649002233689320e-02  4.1210823204494429e-02  1.1319528532107911e-01  1.1394389181243325e-01  1.1442367088666140e-01  1.1338889442951558e-01  9.6130523697181891e-02  8.5751105246814355e-02  9.6165796279924859e-02  8.2858815012771522e-02  9.8389551058467348e-02  3.6052769150036426e-02  9.8375501279102634e-02  9.4770069977039934e-02  9.4141829303132737e-02  4.9536249616366490e-02  3.6768503301749043e-02  4.9105432400779261e-02  8.3558036119014911e-02  8.8775589280916389e-02  8.7973904957041757e-02  9.4781784703992220e-02  9.4014368990146341e-02  1.0053209902411973e-01  9.5557602284770421e-02  8.6398560595910251e-02  8.5625383050662432e-02  9.3254238085387409e-02  9.7178912841750800e-02  4.9729677798562827e-02  8.4928228788844290e-02  9.6669046076428067e-02  9.0508746899768941e-02  7.1233850338366086e-02  9.6289668692525476e-02  7.2383375268842420e-02  7.2994152534726658e-02  6.7546915884268977e-02  1.0226073150029807e-01  1.1214177035672114e-01  9.6295872507652119e-02  8.5200765657022740e-02  9.6216713635687318e-02  8.4821227539891894e-02  8.9567921577204210e-02  1.0634801391167836e-01  1.0128129836747125e-01  1.0073616188484368e-01  9.4620615917559048e-02  9.5161483111734030e-02  8.7453135456663056e-02  8.8018075408632948e-02  9.5692155612320848e-02  8.8536987038044399e-02  7.9894845340022363e-02  8.0390884030211912e-02  8.9047093625280904e-02  1.0580487757972747e-01  1.0334961232065661e-01  9.7218537430361074e-02  9.7703164211314142e-02  9.0038132967208848e-02  9.0516958395620156e-02  8.1839763637382587e-02  8.1364378714614494e-02  9.8174742540654725e-02  9.6721449305423576e-02  1.0285059974208734e-01  1.0476870782090117e-01  9.6219716373773148e-02  9.6065939757432883e-02  1.3901482524510880e-01  9.7434609836722127e-02  1.0070955941939576e-01  3.1023189563960697e-02  1.0232132149435104e-01  9.6006955603906513e-02  1.1974219880806003e-01  2.4920583958038488e-02  1.1834378816153063e-02  2.3999172378713528e-02  1.0819940660066172e-02  1.7115216435948599e-01  1.2258743385561124e-01  1.3364889433352051e-01  1.1570531696857267e-01  1.0925617391616246e-01  1.0927572295428892e-01  1.1311563419197709e-01  1.0794842673106465e-01  8.0510072469158672e-02  4.3660601534897703e-02  7.4653000928664337e-02  6.6031667869527827e-02  1.1485237001317018e-01  1.1493388121260099e-01  1.1430082611460939e-01  1.6711945276483617e-01  8.6717102401914201e-02  7.1817001786363702e-02  1.2368104680769031e-01  1.2407390017505776e-01  1.1892165482969773e-01  1.4646815361226687e-01  1.1203161806623672e-01  8.9587134446562619e-02  1.9972597303442272e-01  1.0268334076010953e-01  1.2222501684516754e-01  1.2293959228396749e-01  1.4218364610930465e-01  1.4258863729813206e-01  1.6088023176479876e-01  1.6090668545281914e-01  1.4273423762411214e-01  1.5971087678957824e-01  1.6632554922311016e-01  1.5964358765241760e-01  1.5892299747851757e-01  1.5113854932018461e-01  1.5062523632211902e-01  1.5872039348541825e-01  1.5047586703097049e-01  1.5842358833283129e-01  1.4066552657479764e-01  4.2792210554900303e-02  1.5463726254536164e-01  8.9547814896562619e-02  1.7383936355008472e-01  1.7586227509305380e-01  1.7733582274210996e-01  1.2236950284228333e-01  1.0779430008690288e-01  8.3612243705445302e-02  1.4048411825171164e-01  1.6103861353592672e-01  1.4597568571385160e-02  7.2685193592699801e-02  8.2101956544562690e-02  7.1725364093497182e-02  7.9951277101383361e-02  6.9953001268807879e-02  7.7814404681381344e-02  6.8184788745669744e-02  7.5439759227819425e-02  5.9377294063506308e-02  6.2868285174707092e-02  6.2879385336185006e-02  6.6289107850054804e-02  6.5905259988191592e-02  5.6054492543294164e-02  6.0618841036099262e-02  5.6151496061876187e-02  6.4014468235537136e-02  5.7713705843485383e-02  1.4113327042985771e-01  5.4804153715489183e-02  5.5615361667569765e-02  1.2127889805376903e-01  1.1455849241134691e-01  1.3630932836866991e-01  1.5335140106039019e-01  1.5853586033390882e-01  1.2516495157508842e-01  7.7249209062841093e-02  8.7351930415505402e-02  7.9602141859176870e-02  8.9072477725981272e-02  9.1862476041520036e-02  8.2212888504535897e-02  8.3279767077594449e-02  9.3291021767652443e-02  5.8557284406603301e-02  5.4859432128495471e-02  5.5424659401419898e-02  5.6464787705328860e-02  6.0901276727491342e-02  5.8623201279324445e-02  6.2473290263357267e-02  5.9891722508368272e-02  9.0698017786819633e-03  4.6246805165476558e-02  4.0615784406407847e-02  4.8719130833548729e-02  1.4765812352071944e-01  1.0375946645412494e-01  1.1500001587318094e-01  1.1044189397152848e-01  1.1117092408906834e-01  1.0874770260485930e-01  1.0964289979450680e-01  1.2373457123670720e-01  8.4445063146081828e-02  8.4028058234522127e-02  1.0239237436009768e-01  1.0578275050654812e-01  1.0154642340775670e-01  1.0904732939292557e-01  1.5258790062416767e-02  1.8101739099908498e-01  1.6614493583080500e-01  2.1789390983421342e-01  4.1134318376309841e-02  2.1122952154709984e-01  1.6789453535669646e-01  1.5895730725675261e-01  1.5859093776021294e-01  1.4707231793171985e-01  1.4617580482523884e-01  1.3277654573776562e-01  1.2870262283426903e-01  1.4505130125227142e-01  1.3351691429869111e-01  1.1616431886129763e-01  1.5769015516580348e-01  1.2349181550449438e-01  1.2402628417941731e-01  1.4328607838975022e-01  1.2507925201487213e-01  1.4511400454524859e-01  1.6383047365206613e-01  1.4819236152536541e-01  1.5145382088687706e-01  1.2881691539245477e-01  1.3740681378557393e-01  1.2732571085675998e-01  1.0690937593231011e-01  1.0426091379738739e-02  8.8500683676555711e-02  1.1725499993025548e-01  1.1726695698569561e-01  1.7514683441166992e-01  1.7686716533825048e-01  1.7712089924570940e-01  1.8484630757298706e-01  9.6198863100396048e-02  1.0045128403054708e-01  8.6874576359190936e-02  1.2803932118301659e-01  1.0363002937153724e-01  7.5457503610308563e-02  1.0517191426596550e-01  7.7759209597003484e-02  1.1487617836021473e-01  1.1640689327401174e-01  5.8052791934153976e-02  1.0348216527893926e-01  3.3812888605321494e-02  9.6807976420529865e-02  2.0871697019010280e-01  2.0933191548559815e-01  1.8374497319063457e-01  1.6836893167762162e-01  1.0060405311978285e-02  7.2691414163223972e-02  3.5816384187137708e-02  4.9175081077184005e-02  1.0716210382579251e-01  7.4290175304671052e-02  6.6850409750496900e-02  5.6851923290580066e-02  1.0874385517648470e-01  9.5790696246402823e-02  1.0094933165241049e-01  9.1053263339257021e-02  9.5573978266333653e-02  8.3562048507315495e-02  3.2912153602114330e-02  3.4218222409815882e-02  1.8273888558724964e-02  1.3305385376560987e-02  1.5158014000619880e-02  1.3437830749454455e-01  1.9875424001345005e-01  1.8859119236411734e-01  1.8768835375915024e-01  1.9042639501585629e-01  1.9046500984482592e-01  2.4319588838103701e-02  7.3775071464978970e-02  1.1664059296903333e-01  1.2695898667012848e-01  6.2340133832575625e-02  1.6861962274322329e-01  1.5747858265089573e-01  1.5698209707066693e-01  1.4382997680923204e-01  1.4291480762036157e-01  1.4450231020329554e-01  1.2759466162420677e-01  1.5787891076315583e-01  1.6861674754404210e-01  1.6432845297524648e-01  1.7674761785000888e-02  1.8835209614752581e-02  1.0954470870782491e-01  5.5202823631656898e-02  3.7732724206775071e-02  5.5571529695995575e-02  9.8210785308184625e-02  7.5719368550050445e-02  7.3965084213068008e-02  8.3027292406584643e-02  5.7410252493535277e-02  6.1683334218873148e-02  6.1457961727129647e-02  1.1068760626732128e-01  5.9939770311155008e-02  1.9120656345944739e-01  1.9410903020239859e-01  5.7120585359564879e-02  6.1361797090164330e-02  6.0878250127532049e-02  5.7817842140635782e-02  5.8065817294482125e-02  6.2043115292524612e-02  5.9391045621411285e-03  1.3621924523747062e-01  1.9401390110376540e-01  2.2624653757261311e-02  7.9258559940910842e-02  2.6758893862887326e-02  1.0628215774422889e-01  7.6906330193045516e-03  1.2961078340448820e-01  6.4077627297733072e-02  4.6772559857667574e-02  4.1966933437533070e-02  2.0848085166184627e-01  1.8541314682297104e-02  2.5049830510480279e-03  7.4021912489224170e-02  6.5809618987025073e-02  8.0750003181489893e-02  7.3621725721078973e-02  7.3238175974848413e-02  6.6997585392948755e-02  7.4008299233052022e-02  8.0133716485243867e-02  7.9809367104311676e-02  7.2823308681710844e-02  7.2402539045457653e-02  7.9460024893410267e-02  7.1927205099223998e-02  6.5519890841447923e-02  7.1414752616760141e-02  7.9047525343830902e-02  1.7248880287543136e-02  5.0172721100940315e-02  1.4671260947719797e-01  2.4005729286870805e-02  4.0879032729664228e-02  2.5898272154842202e-02  2.3277171961047189e-02  1.0840246569532898e-01  7.9537326046762571e-02  4.7683506107994003e-02  9.8038339168855126e-02  1.6656711162029009e-02  9.3825857025987128e-02  1.1665039338591475e-01  6.0600698936372092e-02  9.9835507173611587e-02  1.0469622420984923e-01  6.0452543228502680e-02  4.0742442466062158e-02  4.2889896757355231e-02  1.9748523631214460e-01  1.9869157884527301e-02  4.4947090502864412e-02  1.4971504268032575e-02  1.4091607330064512e-01  8.9575269766824270e-02  1.7741612893078226e-01  1.2142657478296397e-02  1.6801415182990387e-02  1.0415068647490877e-01  1.2199295189866557e-01  9.1960695431402943e-03  1.2575919563580565e-01  8.3549657462655386e-02  9.1953392590137628e-02  2.8376505762642713e-02  1.3482166245829011e-01  1.3433031140296245e-01  5.2995461439385307e-02  4.9117722774428489e-02  4.8833821950098673e-02  4.5188735457016752e-02  4.4908249885722097e-02  4.1184972607673516e-02  4.0919137008228960e-02  3.6985125372248892e-02  3.6788062439610483e-02  3.2691693405780750e-02  3.2465622537580952e-02  3.6727205551145600e-02  3.2073395189736578e-02  3.6448529372525088e-02  3.1593274219135770e-02  3.6358245545268668e-02  3.1149610676194442e-02  3.7338029107073095e-02  4.1255437865799278e-02  2.8385493509529621e-02  2.8647788177895248e-02  2.6058479166172238e-02  3.6593643043348230e-02  3.0683864446498114e-02  3.6341200428613434e-02  3.0122769146401947e-02  3.6331180597672812e-02  2.9633192159335183e-02  4.4553241855320252e-02  2.2859455020045744e-02  3.6982919255722960e-02  2.8931284175854399e-02  2.4638626362998645e-02  2.5139098372325731e-02  2.9091861191188836e-02  2.3252827181859424e-02  4.2260476602890625e-02  3.3085144405607038e-02  3.3657055425787556e-02  3.7831418756990552e-02  4.3660063295902773e-02  4.1485099827832168e-02  2.8749840896104738e-02  4.6019288547808547e-02  3.0566762213798775e-02  4.8242520046050834e-02  5.6341373403629269e-02  2.6246185557071666e-01  1.5646413456581923e-01  1.5578416861389649e-01  1.4206701227462315e-01  1.4100606271667421e-01  1.2585198164349071e-01  1.5515911517957073e-01  1.3934877815210028e-01  1.2253263180543321e-01  1.2340100524680693e-01  1.3909987034583393e-01  1.6835702409294775e-01  1.5428611219202928e-01  1.5361741072237847e-01  1.3761278346077191e-01  1.5409614545940076e-01  1.6781395081339717e-01  9.7535129433212339e-02  3.1901086978904702e-02  7.0732371805960592e-02  7.5707601082590240e-02  1.8502555445344702e-02  2.0082303038511271e-01  5.8124033974755338e-02  5.3967441742761725e-02  4.5902779437582045e-02  1.6772771658213129e-01  9.2881160523468481e-02  8.5638663365265585e-02  1.1870490267468178e-01  1.0267225600637923e-01  1.6125820695516183e-01  1.6047328704513927e-01  5.3150296962473205e-02  3.5075228443523614e-02  5.1163775749456110e-02  3.3363693166123802e-02  4.8033803747784383e-02  1.9551396195493564e-02  2.0984942459369126e-02  1.1456494102357375e-02  5.0792283777007247e-03  1.0606521515677748e-01  1.1944980087832698e-01  1.0684336146969241e-01  1.5917652237945629e-01  1.5790434276180151e-01  1.0430904340839621e-01  8.6146063716632928e-02  1.0708314123773517e-01  3.2073042043992118e-02  3.8984860887254877e-02  3.7399354473243003e-02  4.6891901292253499e-02  4.5124637364159823e-02  3.5110294571281619e-02  5.5843443567654069e-02  5.7469114411560808e-02  6.7990915418760886e-02  7.7998991144082735e-02  3.9391682736049420e-02  5.3847967311751850e-02  9.9069362648001549e-02  5.7927445411271775e-02  4.4017687746008297e-02  4.2906107256965663e-02  5.7503187608721848e-02  6.7893715671206556e-02  8.0642966707551028e-02  5.0159762183117646e-03  1.1488606149416020e-02  1.9664642253721401e-01  1.0955413099011274e-01  7.7316803087056324e-02  1.5374110221852677e-02  6.6058427610997061e-02  6.8123654804080586e-02  6.8386246807602990e-04  2.5977658429188689e-02  1.0444737078982359e-01  7.9962548527908489e-02  8.2034235253727231e-02  8.2099139575651986e-02  8.2153458131585574e-02  1.6606467467760556e-02  8.6502077189394330e-02  9.7769318817083548e-02  3.9004919849654381e-02  4.3364856912894580e-02  1.3476520499575300e-02  2.1627000490939585e-02  1.5679968470824310e-01  7.8450436388580638e-02  5.3004872135516329e-02  1.3099006705600755e-01  1.5929284783597043e-02  7.2171507894688583e-02  9.2064897400092841e-02  1.9367621754164496e-02  6.9957807118832441e-02  8.1984378926448553e-02  9.7021181151433489e-02  8.7237750524622321e-02  7.8686236414538910e-02  2.8890536816155346e-02  9.2428236330721284e-03  1.2259217806830600e-02  1.2292307669575869e-02  6.0807700787075987e-03  5.9939396492741746e-03  1.3021259109778131e-02  1.2849088251730173e-02  5.9121739086362961e-03  2.2988820494028832e-02  1.2643486869408803e-02  5.8378423568572601e-03  8.4416655898130466e-02  8.2246758813258491e-02  7.5940298040708329e-02  7.1258037732696428e-02  7.8981250297847319e-02  1.0507186798880172e-01  1.5861746628791022e-02  1.1981727146389193e-02  9.1272952386509301e-02  8.6271894884021413e-02  7.6167731087994697e-02  7.6390704668538936e-02  4.7671061672706037e-02  1.6616618252726551e-02  9.4754210135185257e-02  7.9912244127274171e-02  8.2195172070337386e-02  7.6477791483454058e-02  8.1358627459058502e-02  1.2312472941855486e-02  1.5677049880579277e-01  1.5612648463311810e-01  1.8362628421966329e-01  1.5543306431815684e-01  1.2939226767883064e-01  2.7805390287431748e-02  8.7535289528773153e-02  1.5050324212242902e-02  1.4555162559285717e-02  1.0396019851965189e-02  1.4073878979777880e-02  9.9088407335365756e-03  6.4144260634274534e-03  1.3603329470984788e-02  9.4386983875873760e-03  1.3149237090222357e-02  8.9881554110351793e-03  5.4956106742150828e-03  5.0070744752910984e-03  8.5262245508542795e-03  1.7230480103850990e-02  1.2695702960763749e-02  1.2253543202485442e-02  1.6341652039316281e-02  1.8163542677668586e-02  9.3862034085133703e-02  1.5171384582326071e-02  1.4748687959385770e-02  1.8548453133592095e-02  1.0916765737911263e-02  1.4309368605934590e-02  2.0837013935225506e-02  2.2569960624549211e-02  1.0107705819236111e-03  1.8554067331285885e-02  9.4634493284193141e-02  7.1743851435184192e-02  1.0127688539276775e-01  9.8739259084196340e-02  9.7757251954460250e-02  3.3497496190829860e-02  1.9152164443589401e-02  1.3998780997261281e-01  1.4112825568209642e-01  2.1148033245958001e-01  1.8324085588317066e-01  1.5389070300627833e-01  9.3985771066156895e-02  1.4248268536267483e-01  4.3169376641720554e-02  1.3840390837786817e-01  1.4337677782202723e-01  3.3720140618399654e-02  1.4695100665388813e-01  9.3079678498135102e-02  1.7914546258887051e-01  8.4793045638253697e-02  4.6577057713208719e-02  1.3611339591598193e-01  6.1323992142261925e-02  6.9367279677508692e-02  6.1049318473573568e-02  6.9037112219276109e-02  7.6495743915542674e-02  6.0767806471348142e-02  6.8701636328142010e-02  6.0479332518754751e-02  6.8360665948336993e-02  7.5734602183689423e-02  6.0183712704368654e-02  6.8014239033597546e-02  5.9881318869003039e-02  6.7662391121076276e-02  5.9572074194765706e-02  6.7305689743686503e-02  7.4957784145747136e-02  5.9256658404701575e-02  6.6961661889252788e-02  7.4194306385026276e-02  7.3790318903161775e-02  6.6589001342684473e-02  2.0651806178860158e-02  9.2183930922861521e-02  1.5644119489198838e-01  7.9297122120550699e-04  5.3026764922464121e-03  4.9560370685392376e-03  8.8423983292249628e-03  8.5162491609282135e-03  4.5843340753059800e-03  1.5784381511596779e-01  1.3512476692357966e-01  9.1300468517415398e-02  1.7037310580491566e-01  1.6908430219764692e-01  5.0785994954135126e-02  5.8939576845598099e-02  5.8609391118931750e-02  6.6207922532464270e-02  5.8273360697791370e-02  6.5829977136160026e-02  5.7932805097662743e-02  6.5449415249250020e-02  7.2954327118869441e-02  5.7587476069154896e-02  4.9657822659076735e-02  6.5079023045518256e-02  7.2156884676130906e-02  7.1735596325038731e-02  4.6726066509778064e-02  1.0050488772979858e-01  4.8436068784229680e-02  6.4763397333472084e-02  6.2774614460172268e-02  1.7161450641869769e-01  2.9130829808084596e-02  2.6996098722321209e-02  3.6902429381101394e-02  7.0887377134726245e-02  1.0573052827711645e-01  6.0419285632428807e-02  7.4135303307584374e-02  3.3747192677200902e-02  3.3237689657116369e-02  7.6691958536765747e-02  1.3304507345192421e-01  9.0428697399290020e-02  7.5712215885346101e-02  8.0462077399236651e-02  3.1202779496739299e-02  2.7359075363257102e-02  4.9536232899222744e-02  1.5304272771043739e-01  8.6361351436615899e-02  4.0582868179329983e-02  9.4593733973726890e-02  9.3480879131263087e-02  1.0287052919852077e-01  3.1865692243630075e-02  1.1762246022896435e-01  1.0571651265691759e-01  1.4437391983984477e-01  1.1086870459294987e-01  8.2256926611011111e-02  7.7379436716850436e-02  7.6987957570736967e-02  7.7081505093531594e-02  8.2738587821021115e-02  3.0974678136289685e-01  2.8224060158984154e-01  7.7032354850082710e-02  8.6281768132689840e-02  8.6738809336432215e-02  8.9041619081983409e-02  1.1286986622178828e-01  2.0778428489714309e-02  3.3480573320665216e-02  4.0261902328219384e-02  5.4787095462779538e-02  5.3326315944207843e-02  6.2394455447359443e-02  8.4754567515281182e-02  8.8140144897994752e-02  8.7654712240088084e-02  9.1018355196056513e-02  8.8640083070919029e-02  7.0303534394144662e-02  8.5099249629553078e-02  8.5312569456257759e-02  1.9763702756551912e-02  1.8419966460413054e-02  1.7061040162170030e-02  3.8592537011520704e-02  9.6537019924605144e-02  1.0041094608492071e-01  1.9812824971153890e-02  3.3859152844239446e-02  3.9449221823445034e-02  2.8319663094131486e-01  7.2318667347394908e-02  7.2754838784723386e-02  7.4591436595421071e-02  7.3230691189615366e-02  7.4896021793109779e-02  7.3669218964763888e-02  7.5207476921428540e-02  7.4147584677901238e-02  7.5539556934776070e-02  7.4649319512042067e-02  7.5891708075452174e-02  7.5156859862477707e-02  7.6250338030364337e-02  7.4131691747910053e-02  7.5584699343001757e-02  7.1777995155331328e-02  7.7318709201589356e-02  7.6910481810428144e-02  7.7546592912646650e-02  7.6578911190165258e-02  7.7108515656019450e-02  1.3410226556034019e-01  6.3877050645399142e-02  7.0867602970265328e-02  8.6784736161556852e-02  8.4101924077699952e-02  5.3967911445299201e-02  7.9827268918164454e-02  8.1950099156051698e-02  7.6823191768919830e-02  9.0786345052596668e-02  7.6789412351051051e-02  2.1864309700924636e-02  5.4371287943376249e-02  1.9304339246247432e-02  2.3261930850534275e-02  2.1190520132094701e-01  1.6240472233416467e-01  1.1510357570840782e-01  1.1793398293388047e-02  1.0523036673800498e-02  1.2574465586066614e-02  7.1455427955734618e-02  6.9720958693301305e-02  7.3465070826918263e-02  7.0760726003524038e-02  7.4296808072908463e-02  7.1663354377126773e-02  7.4997132054824694e-02  7.2405055061137702e-02  7.5545149655621480e-02  7.2963762032933199e-02  7.5921667237842494e-02  7.3319089593347639e-02  7.6109715793707330e-02  7.3453429835930506e-02  7.6094886272805889e-02  7.3352638284161109e-02  7.5866067587519792e-02  7.9583861708280496e-02  7.3005002217887971e-02  7.5415459248344821e-02  7.2404475919534472e-02  7.4738899924687519e-02  7.1547673854140542e-02  7.3836834445985752e-02  7.0435950035615480e-02  7.2713212400294699e-02  6.9077384991174717e-02  7.1376137258090416e-02  6.7482021547202564e-02  6.9838413825890261e-02  6.5665077683541032e-02  6.8115972996696389e-02  6.3646902777884262e-02  6.6228291861289687e-02  6.1450557370573061e-02  6.4197965370526730e-02  5.9102407837829225e-02  6.2049825889680013e-02  6.9865299331727693e-02  5.6631080753706285e-02  5.9810507523907000e-02  5.4066570147342390e-02  5.7507785315912253e-02  6.4129038114543790e-02  5.1439528656151680e-02  5.5169535454130031e-02  4.8782752737444576e-02  5.2822878121033430e-02  4.6127785869866197e-02  5.0494639068254597e-02  5.8088680259267618e-02  4.3500909889442288e-02  4.8210884208785137e-02  4.0925560493576936e-02  4.5994984564004811e-02  3.8427544587250291e-02  4.3866348951972604e-02  3.6034197235056770e-02  4.1841369973854792e-02  5.2388693054070401e-02  3.3766673180686997e-02  3.1003334101984376e-02  5.6926051576506959e-02  6.8870805151674208e-02  6.3961816854212303e-02  7.1462090627980437e-02  7.7262606755552118e-02  1.4192848226917110e-01  1.1545730855283841e-01  4.5123039097716297e-02  9.1321266147308636e-02  8.9403893860981590e-02  8.2124530575681864e-02  2.3027171681696257e-01  1.0680811011528731e-01  6.4207971581691253e-02  1.0020745843322371e-01  7.8882323178617056e-02  2.4228042324524232e-01  1.2686168481681498e-01  1.1728899283786508e-01  1.2024206026461068e-01  1.1371893736000882e-01  5.4753471425598943e-02  2.6010911013185485e-02  2.9779959312430898e-01  3.8461772164369462e-01  3.0157179521808458e-01  3.9865457208336508e-01  3.1584600612917546e-01  4.1109811695913390e-01  3.6563854434785037e-01  3.2389538339729901e-01  6.7888254631028336e-02  1.8189939383899925e-01  3.3734051221379915e-02  3.2562459611344324e-02  2.3160411800901001e-02  3.1540218517889657e-02  2.1962707936114840e-02  3.0664899907386155e-02  2.0934232647643849e-02  2.9934046419342053e-02  2.0064336505630741e-02  2.9344663092251675e-02  1.9340170688831981e-02  2.8892860688658803e-02  1.8749010562454042e-02  9.4695319396714567e-03  8.5945920410967352e-03  1.8279852379988241e-02  4.1148264715141762e-02  4.4546022587396818e-03  4.8182042162496566e-03  4.2156669491292395e-03  1.2415042806687669e-01  1.2448351864165852e-01  9.3401298630772234e-02  6.8961283870724630e-02  6.8806264894432867e-02  7.0735798048090937e-02  6.8323185659978899e-02  7.0401978132825449e-02  6.7787048097026473e-02  7.0075020137927671e-02  6.7244592563113575e-02  5.1872944984430611e-02  5.7440331531137756e-02  5.7582982095863516e-02  6.1162376944587135e-02  6.2251849078170191e-02  6.4280274442943638e-02  6.5940700626240620e-02  6.6798155336631693e-02  6.5406220322863182e-02  6.2897664690204455e-02  7.9773407551478978e-02  8.2257167781701820e-02  8.7569689585714552e-02  7.6960329176298650e-02  8.1178292686636885e-03  1.0997760438004319e-02  1.3972428365153947e-01  7.9780500447433692e-02  7.5002308961593309e-02  1.4052340551676618e-01  1.7673809196776431e-02  2.8345300728134872e-02  2.8307196729395731e-02  2.8487195435789366e-02  8.5663321730510292e-02  8.6967996820766960e-02  8.7591994441963250e-02  1.0358713272423832e-01  3.2977029675663289e-01  3.1465062396849547e-01  7.1953897934944083e-02  6.8809577805194422e-02  1.1473435213176689e-01  1.1656897621845681e-01  7.7634894091831233e-02  1.0027192380786966e-01  9.9929582023927474e-02  1.0232870964407285e-01  2.2280177612293912e-02  1.2246564754187375e-02  1.2283599186448195e-02  5.6186483992065129e-03  5.5438457974222571e-03  5.6892826346992137e-03  1.2010238203799234e-02  1.1889708315429431e-02  5.4775022510202163e-03  1.2312386261093046e-02  5.7622920629257467e-03  1.2291819413093451e-02  1.2322949579203536e-02  1.5373433413661419e-01  1.1775431107702067e-01  2.5276167508138891e-01  1.3996391376474507e-01  1.0075947930426106e-01  7.8880682040990857e-02  2.1007345658670784e-01  2.4676948592568929e-01  7.5815778033170203e-02  2.6734335396200282e-01  1.1216839707553354e-01  1.1183297008633585e-01  1.0848616070920183e-02  2.0081209904847444e-01  1.4790460035276842e-01  1.7923832575263504e-02  7.2735222575845290e-02  6.8122766914572849e-02  7.3688171906197364e-02  5.3872373179826807e-02  4.5119976104846055e-02  4.8067130989276702e-02  5.3683116366082272e-02  8.7804436384549614e-02  2.7917364427686542e-01  7.7918000792067080e-02  7.2690954328678822e-02  6.9455038872407240e-02  6.9199314610809734e-02  6.6269838624395047e-02  6.6741727313718011e-02  3.1490121453598759e-02  2.1149886428831206e-02  4.9836493204887970e-02  2.0583940412999732e-01  1.7708392915788904e-01  8.4734469350317240e-02  8.6392137995268681e-02  8.6055048999595471e-02  8.6746243242809190e-02  8.7116996618434889e-02  1.0327702101206911e-01  1.3845458023890481e-01  3.0971368142883615e-01  3.6859577618078043e-01  4.6879836994049219e-02  9.1870448447251243e-02  1.3943481199517327e-01  1.1673766767553484e-01  6.2618938246475506e-02  4.7021043571125722e-02  4.6680606089720779e-02  8.5807863540529758e-02  6.9694063549687046e-02  5.7693554490359331e-02  9.5454874608927390e-02  9.4078335494260368e-02  7.1792300245433011e-02  1.1993852985158339e-01  2.8873511843747958e-02  8.3116275805558165e-02  7.9634486365808485e-02  7.9407210080773297e-02  5.8048032216038478e-02  1.1488358325579383e-01  1.1668857070876884e-02  5.5537990287109401e-02  3.2196790089593058e-02  4.2636395376295051e-02  2.3758625517047585e-01  2.6937566523633250e-01  2.7493932021137535e-01  8.8063590793108687e-02  8.3945482428538706e-02  8.7185887169666881e-02  3.8242902562768730e-02  3.7768197968826217e-02  3.3827747115120585e-02  3.7309818497199984e-02  4.1226802999461680e-02  3.3366532106791205e-02  3.6864314769598956e-02  3.2918331346321585e-02  3.6431321623207370e-02  4.0358188288540063e-02  3.2482440075049912e-02  3.6009406279987277e-02  3.2058124567570782e-02  3.5613064084998675e-02  3.9550928642114652e-02  3.9156309309438309e-02  3.5201405179659855e-02  1.0805606784111669e-02  5.2641814493659525e-02  1.0632627478960113e-01  7.7641849938214338e-02  9.0862586649746530e-02  6.8141092365233025e-02  7.5227055900291384e-02  1.9012777052489760e-01  4.3417493262326717e-02  6.2387254914236009e-02  6.3673493391476377e-02  4.6412383506383437e-02  5.8939817629791322e-02  1.9544339830746918e-01  9.5841286503386192e-02  9.1740301907577787e-02  5.7221912305930364e-02  3.7755993000664421e-02  8.6787244597689994e-02  8.6301055846011429e-02  8.9469598228338276e-02  5.2454138417228791e-02  6.1414205309896913e-03  1.9658098919622818e-02  8.3131179578057338e-02  7.6444521850398392e-02  7.5562466337522602e-02  1.2968548432851220e-02  1.9786582340525238e-01  5.5056506111804474e-02  7.9103035114718639e-02  2.1580739500586303e-02  1.9692214198173037e-02  8.4662773798078905e-02  8.7543974980874711e-02  7.8849827503339132e-02  6.7957280771525352e-02  4.9684654227504912e-02  5.8550281301772908e-02  9.2629985980942409e-02  5.2714282763631562e-02  5.2047824532236088e-02  6.9217571461385505e-02  8.6734528039135630e-02  4.2109391794085396e-03  2.3025327470644860e-01  3.0992249809424333e-01  3.7436504276747390e-01  3.7513188881860987e-01  2.6990513309409270e-02  1.9237457216198583e-02  1.8793100831038675e-02  9.0142241262874956e-02  9.0582432531157581e-02  1.9507682423935582e-01  4.8188855464928071e-02  1.4192174583228140e-01  1.1150322438199607e-01  5.6758628236472486e-02  5.7788663764000513e-02  5.4265159572824684e-02  5.4526276303971916e-02  5.0711908011730616e-02  5.4012658533620167e-02  5.0173244748266989e-02  1.2627016495442008e-02  1.1774308754386483e-02  1.8536135890493369e-01  7.4596544493592584e-02  7.1449765526209463e-02  5.9345003588574891e-02  1.4138556884690673e-01  1.2761404674304089e-01  7.5882440028713832e-02  6.8739905373748578e-02  3.8445896752464237e-02  3.2204323010136336e-02  1.2826074521636243e-02  6.0828100580699429e-02  2.5253409414913764e-02  1.8247159625119913e-02  2.0539976168567056e-01  1.6213971186199005e-01  1.6357272731163952e-01  1.2578306391735722e-01  1.6499048219369983e-01  1.6070263738351681e-01  1.5926791578671282e-01  2.0308419345730838e-01  3.4448779851970435e-01  6.7951477952910011e-02  7.9900363795396043e-02  4.7854568598056299e-02  9.7585683998772266e-02  2.4860339385415049e-02  2.1833288422507233e-02  1.4346736058419471e-01  3.6603366933991403e-02  2.0737747074499401e-02  2.0776340074011024e-02  1.7287053935212217e-02  2.5873547163317828e-01  2.1833792529316786e-02  4.9797293409016452e-02  1.3641332834351469e-02  8.9997862013888888e-02  4.6198615164356222e-02  4.7554518647254407e-02  5.7628185512543596e-02  5.4372273065602592e-02  8.4721623943907379e-02  6.9220854957365713e-02  1.2936600283843977e-01  1.1625499526574506e-01  9.4053264461938541e-02  4.3820220711318282e-02  5.4097034681756119e-02  3.5604771348865048e-02  1.0748069285012019e-01  1.2060796945370793e-01  1.1969657584069689e-01  7.6439069257987782e-02  9.2105996033544330e-02  9.4274983678721058e-02  7.8393517479807509e-02  8.2058844467142830e-02  4.3243129143484431e-02  3.3450728279709810e-02  8.3224953015331171e-03  1.8189776134331990e-03  2.1890706315166160e-02  2.8182825581419503e-03  1.7414885313371105e-02  2.3862041050755130e-02  1.5984005161287326e-01  1.7343730968003479e-01  8.5067711489727499e-02  7.8278657619073030e-02  6.8084763606402712e-02  8.4308889651710892e-02  4.6434013627029223e-02  4.6300411682717722e-02  5.6287711964415767e-02  3.9445541282517489e-02  4.0420120486135289e-02  2.4951983027714904e-02  2.5715554554727203e-02  5.8596762535472073e-02  4.1408179915485809e-02  1.2391058376104992e-01  6.1872546418024865e-02  6.4078286991353789e-02  7.4180190296055312e-02  1.1388921989213585e-01  1.0690354379577982e-01  6.4571699449941011e-02  5.7312336865006079e-02  8.9206024454376753e-02  3.5282140988399262e-02  6.1896750984592110e-02  1.8344479793866147e-01  8.8078776001585229e-02  4.6841156161890517e-02  6.9671270787407105e-02  1.9457121105054511e-02  9.0855522199474639e-02  7.5234904807411102e-02  1.0134158130547066e-01  8.5147673668997045e-02  1.7942870963865262e-01  2.5591769322028513e-01  2.4333076383083868e-01  2.3925038625592671e-01  8.4787901247069294e-02  8.2204208628648426e-02  8.2230360169589803e-02  8.2170324204514769e-02  8.2129090953300718e-02  9.6324650488229052e-02  4.6200348320676862e-02  2.5367741989954262e-01  5.9621155508617414e-02  9.8942945192977347e-02  1.0178174122244289e-01  2.7758224508245215e-02  1.1514129015931561e-01  1.5568501340074414e-01  1.8377082649241946e-01  5.6555034545457378e-02  5.5945264917365088e-02  4.0657863971953520e-02  3.4073693463779542e-01  3.0664126599898606e-01  1.3167085267232378e-01  1.1207276808316112e-01  3.8708370951625749e-02  5.7538796809224302e-02  1.1423461107694290e-01  8.2885402716474363e-02  1.0550996939710117e-02  3.0235791036870280e-01  3.8209171117575152e-01  1.3644842955750783e-01  1.1950017485984201e-02  1.1482790394213150e-02  5.9889225606739212e-02  5.1886502888148826e-02  4.2030834594286935e-02  2.1878346515254435e-01  6.9241757942516344e-02  1.2439845201899538e-02  2.1541508732374134e-01  8.9193242922217836e-02  3.0394682072383561e-01  3.7779710947273198e-01  3.8876442489517532e-01  8.2857386183481114e-03  1.3228754989801411e-01  1.0572574137526479e-01  1.3367787203304043e-01  2.2305721519935764e-01  2.3792360207579555e-01  8.5675905276873812e-02  8.7504280724232955e-02  7.6660239265838523e-02  2.4829044507381187e-02  3.1783616858436170e-02  4.2755117429851788e-02  4.0287789703510636e-02  4.0653175016578093e-02  8.4622950957595131e-02  5.4310490631153665e-03  1.1450566694518179e-01  7.3775658627746155e-02  9.7453694683248424e-02  1.1677816330500043e-01  9.3713505015389609e-02  1.1362450352647130e-01  7.8409966453620000e-02  3.0695436765681611e-01  1.6826044885102739e-01  3.0219265348174464e-02  1.1776684747180635e-01  7.3085663652300722e-02  3.1936286090413407e-01  1.1965044661718112e-01  2.0340256158804502e-02  1.6319498026570536e-02  2.0010844543801136e-02  1.5952106735628288e-02  1.2269164627242387e-02  7.8911171131994820e-02  8.1965712562140691e-02  8.2026404992733615e-02  8.4820988920864385e-02  9.3529153464574924e-02  7.3792974127486075e-02  2.5721322981804087e-02  2.9706951341717792e-02  3.0093230197366816e-02  3.3700821962967156e-02  3.4057055465059445e-02  3.7651622654992167e-02  3.0467398683933618e-02  3.4427840883115901e-02  3.0850032097290359e-02  3.4805660537263722e-02  3.8374528263186804e-02  3.1241393372518494e-02  3.1644088916391762e-02  2.7249032158412876e-02  1.0401075692763588e-01  8.8963624363785992e-02  2.0746416715427152e-01  1.6638508220457082e-01  1.1613028824570905e-01  9.7445049887811552e-02  1.1440417273051737e-01  6.5721905791215965e-02  8.6031611484593415e-02  7.2553014511203523e-02  8.7074238588892211e-02  6.8391031401479493e-02  7.9009108785889015e-02  1.9373795699473000e-02  7.3367293400573269e-02  2.2360361783459320e-02  2.8958054384016125e-02  1.5335674713843361e-01  1.7280455901815095e-01  1.1664336173916492e-01  1.4072478378047965e-01  8.9971352919193337e-02  8.5048850012087326e-02  4.4984013431162893e-02  1.1423744819530508e-01  1.4527982215530372e-01  9.2339182345598042e-02  1.1713921784319101e-01  7.6061200384278008e-02  1.9761687463411531e-02  9.5704583562670240e-02  4.2336525207786579e-02  8.0504094440610449e-02  2.1264477709260005e-02  1.0808780888902809e-01  1.6829089979450443e-02  8.5343232301254748e-02  1.8310571536787858e-02  9.0870019502126073e-02  8.8741765734721992e-02  8.3903872260130893e-02  1.1416887188238266e-01  8.0579350381827976e-03  8.3319544078829189e-02  1.4634281101657845e-01  8.4711780297839684e-02  4.3519754394634916e-02  5.2021112651437752e-02  2.9777139705978034e-02  2.5360399794964530e-02  1.3136280030044808e-01  1.3202033634531193e-01  1.3393468167949399e-01  1.0848996147200558e-01  9.3132520611990358e-02  9.2021613747374997e-02  8.0992943188272475e-03  1.0258352001637891e-01  1.9528147189396428e-02  8.9782537311234534e-02  2.9670544064112281e-01  3.0947669344920209e-01  2.9986412041492727e-01  7.0754941989886896e-02  2.9378287789409006e-02  3.3940313480295198e-01  1.5506907095503819e-01  2.9926385540065648e-01  9.8256783057513817e-03  4.5449254429228061e-03  1.1650753001895138e-02  9.8191502773016873e-02  1.4380244183139410e-02  9.4727836642211183e-02  9.2639650012716401e-02  8.8133731302711169e-02  4.1919025356165424e-03  2.6318502747016935e-02  4.4234318289485909e-02  1.8324092316493898e-01  1.1159218946164684e-01  3.4394233437849440e-02  1.6080123781955413e-01  3.8451658215874575e-02  3.4527397217512149e-02  1.5018144938462777e-01  1.5895270600455685e-02  1.1637509159582282e-02  1.4498355922986445e-02  1.4576422324443183e-01  1.1128052921493531e-01  4.8953854448240880e-02  1.0478290351589817e-01  1.0674036323766862e-02  2.9647802349276102e-02  2.9353677960032290e-03  3.2151103498477665e-04  4.4746016293447715e-03  5.1428196197018505e-03  4.5551822484606546e-04  2.3715135945261644e-03  8.1921312204058928e-04  1.4145152088127608e-04  4.1729794441376132e-03  2.7029748076147163e-03  7.0863495087641719e-03  8.3869167743332931e-02  4.2525858326388430e-02  7.5385723427734044e-02  1.1516936730781314e-01  1.2369480310289631e-01  1.2267128112611028e-01  9.6461860793890908e-02  1.3661807501910386e-01  1.1515793813845772e-01  5.2012911449743439e-02  9.3286040749537322e-02  1.6209014849636666e-01  9.5541204388801565e-02  9.6003097340341362e-02  6.8949532224271123e-02  1.3601355423821795e-01  3.0723617368538370e-01  3.7833917130018857e-01  3.8527297447946168e-01  1.5393213567738376e-01  1.5201800342759828e-01  6.8562505926511197e-02  7.9121763250597735e-02  6.9846158090967364e-02  7.1320749490242114e-02  4.9346648666502936e-02  7.9460568645351212e-02  5.6203461143632401e-02  6.9176010320519288e-02  1.2247526185582142e-01  5.7068610649906280e-02  5.8060740955884337e-02  2.5428419901094988e-02  5.1997627469750505e-03  4.0573970305032410e-02  5.3050623534678917e-02  1.1721276704673579e-02  1.1731742187943631e-01  1.3984633538146940e-01  2.8492454531190734e-02  3.0930700063182681e-01  4.3251733484623092e-03  1.1588815164342299e-02  8.4402380216152387e-02  5.2094926337824275e-02  5.2322046390983264e-02  3.0899341556056026e-01  3.8176051553051460e-01  5.6552829390255681e-02  5.6246236719907201e-02  4.2112598255295924e-02  1.9657114591013389e-01  1.9374945717805919e-01  2.0317553158221388e-01  1.7509207767578341e-01  9.5343960731278446e-02  1.6455859834506542e-01  1.1445096307872088e-01  1.1464468651436166e-01  4.5843689841102278e-02  6.5504297773845685e-02  7.0171677429986409e-02  8.7698692218509455e-02  8.2630422558582495e-02  1.8402422261630934e-02  5.5089034948917169e-02  1.1565803043482377e-01  1.5003968207925247e-01  3.7749190065255449e-02  7.9491519798623705e-02  1.0801664348252994e-01  1.6611540290435581e-01  7.2238811090558047e-02  3.7118977448349161e-01  2.1883231054604801e-01  5.6297945781110796e-02  3.5772020263714122e-02  3.5138381425121913e-02  1.9868080081298138e-02  8.6233271066565115e-02  6.7818234701925231e-02  6.0767278694985029e-02  9.4535558721500296e-02  8.5636753073590435e-02  7.7975613428491838e-02  3.9487790745964452e-02  1.0930629284989484e-02  8.4822835729993135e-02  2.3627917061253730e-02  1.4312863677405757e-01  6.8616505796936428e-02  1.2076505277983324e-01  5.7461888100049326e-02  2.2821577545876318e-01  5.3643977523047948e-02  8.2081031229505247e-02  2.1591495699424046e-01  6.6211608974311529e-03  7.3121839357181750e-02  1.0428265660188693e-01  6.6590829425839743e-02  5.0051635586246285e-02  1.0225488890461551e-01  1.1063569646032188e-01  2.3162112501046603e-01  1.9239370286307594e-01  2.2488843808711495e-02  8.0364282523313540e-02  1.0518282312270057e-01  2.8976686138985264e-01  2.5145643959130964e-01  1.9101640976262974e-01  8.1942034496992971e-02  8.1899292053621994e-02  5.2092012342690494e-02  1.1056726912487252e-02  4.7424267954301248e-02  1.3807920935527593e-01  8.1697260496250382e-02  7.5540762465118136e-02  7.9083850230772107e-02  3.0315129800694531e-02  8.4678823951813628e-02  8.4179143726086259e-02  9.7629996785622231e-02  1.0321610195937421e-01  1.0305502575687744e-01  7.7919278770198525e-02  1.7262129061423076e-01  2.4373243253338003e-02  1.0787280389575746e-01  1.1402183895296736e-01  1.2010556547422520e-01  8.0388633960788297e-02  1.0124997431762825e-01  9.9638323341384880e-02  2.0535911121556163e-01  1.6452472818858595e-02  2.0822015581068992e-01  3.7450532176688096e-02  2.7389626925582260e-02  1.2861700420481187e-01  2.1626425836949272e-02  8.7050163127564514e-02  2.0416394473611165e-02  5.1552045930111312e-02  3.7629662804168879e-02  1.3506588858982943e-01  1.4598013858962247e-01  3.1870730547144843e-01  3.4192517457268569e-02  6.5668339839616119e-02  1.6180163424440341e-01  2.9657885628494321e-02  3.4703573792977033e-02  6.2494957520435122e-02  1.0256786857370660e-01  3.5386172685647761e-02  2.7195903651807934e-01  2.4148602990206525e-01  1.9276721645969930e-02  1.4105878220328022e-01  1.6192017476145740e-01  6.9621397552886141e-02  6.8312226534359505e-02  6.8549390758278095e-02  3.4090111254156459e-02  8.0301990064937476e-02  5.6154431460379815e-02  6.9378548808586959e-02  7.0156507499850099e-02  1.8155530207860593e-01  1.4309971740949209e-01  1.7485142333003090e-01  1.0503734456894186e-01  9.7273071134889255e-02  9.6791441930070873e-02  6.9019973663840273e-02  1.3212032869053542e-01  1.6897167510232577e-01  9.5491492928798202e-02  5.2375479782474626e-03  7.7923394901234150e-02  1.0386034606334732e-01  5.1771837928639486e-02  7.9645012988900504e-02  1.0051283354103797e-01  1.3392809531520675e-01  1.4313264266107181e-01  2.1749374459732407e-02  3.2762182462177808e-01  6.8728520614375718e-02  9.6236559651109027e-03  1.0181135706925878e-01  1.3706490689723436e-01  1.3631144902268913e-01  5.7172772877253114e-02  6.3554207158229795e-03  6.3938712516952753e-02  7.0234057029735592e-02  9.7278459341742785e-02  2.7311293318316210e-01  1.1869242993805290e-02  8.9783457016544957e-02  8.9586310513827663e-02  2.6673647149599276e-02  2.2701282510656378e-02  2.2363738524688145e-02  7.0262901800891911e-02  8.2294836356721981e-02  5.0236462383867746e-02  4.1325504902372814e-02  4.1110202251841858e-02  8.8941093570219884e-02  9.4530346949803612e-02  1.0611754269206883e-02  1.7692990970310488e-01  1.8045066826744258e-01  9.5372208670133865e-02  7.9315798840939408e-02  2.9223535478510865e-01  4.9619928797886015e-02  2.9939179436923355e-02  2.6471870169795495e-02  1.1623902093169852e-01  4.5620124313482946e-02  1.0368646954516437e-02  1.3800603586980689e-01  8.1837394184807635e-02  6.8830016957030116e-02  1.5359577439313276e-02  2.5019075083608650e-02  1.9553098529646795e-01  7.1670474447135786e-03  3.6945978307515240e-02  1.0050036351572161e-01  2.8147742863397617e-02  2.4985565029492285e-02  2.8063950261286541e-01  5.5052980862205635e-02  5.1754741165087506e-02  6.7239431153139267e-02  1.0108622531855120e-01  9.9880511441344563e-02  6.6267108737427485e-02  8.1593359324205472e-02  7.5685254862659673e-02  6.9988159748334611e-02  1.0941715984507250e-01  5.8578647843116047e-02  6.0800338249966689e-02  2.5701277922085444e-02  2.9168638117767973e-02  6.0580350053870960e-03  7.8947033538452824e-02  9.8582368753367636e-02  3.8479070618083741e-02  2.0610756629454611e-02  7.4929902282472330e-02  4.6049207337004509e-02  1.2189558776437082e-01  8.7582596305616156e-02  8.2552903031228295e-02  1.0483377064653725e-02  9.0155328967357548e-02  2.1254187169302378e-02  4.3491857272173931e-02  1.8992413564700808e-01  2.1067600998398225e-01  8.7357264651926017e-02  1.3558910912119004e-01  9.7337360763768407e-02  8.4574917181959142e-02  3.5784573484888199e-01  4.0053021573866576e-01  3.1761257768676936e-02  3.1096740444416147e-02  6.2262383938476988e-02  3.9579651624595903e-02  9.7445505239220076e-02  2.2162666422628971e-01  7.4409707746012063e-02  5.7318997796384732e-02  2.8686309430192628e-02  1.8977076050333625e-02  1.0452659621872577e-01  1.6032766126179365e-01  9.2982402269382730e-02  7.7851801368848686e-02  9.0796562077018583e-02  8.2958672947241782e-02  1.0996729876178511e-01  5.5802269565955666e-02  4.8739000034575798e-02  2.3483209017486486e-02  6.8609966056953423e-02  2.7652472258688710e-02  2.2182262358781982e-01  4.5238283709411901e-02  1.9658939493839717e-01  2.1352370027668538e-01  1.3875657158582971e-01  1.4393636438030580e-01  7.2825736505869971e-03  8.5895120854632884e-02  4.8488125712559962e-02  7.2036868975781085e-02  7.6736797589357753e-02  4.3339367683978273e-02  8.4920338684508184e-02  7.8658444647725895e-02  9.2543800626298509e-02  3.2204084206440076e-01  9.3108622280786688e-02  1.1397284444284415e-01  8.4590109363386567e-02  1.4662637587297761e-01  6.1707890988100512e-02  1.4656985594624919e-01  1.3463430414117250e-01  8.8138677646059690e-02  4.4212947383240539e-02  9.0142676449603568e-02  6.9243920635363596e-02  4.3571391450132085e-02  4.0976536172862350e-02  7.4508336858268687e-02  1.0964183407350414e-01  1.0150010124170671e-01  1.0468804989429771e-01  6.8666684011472301e-02  7.0637546532633835e-02  4.5188196521814765e-02  6.4688991340612539e-02  1.5987251260703503e-01  7.0132580592848756e-02  2.9047390092696423e-01  4.7229663926543174e-03  6.5827085740572500e-02  1.6104520339404096e-01  1.7688434997058422e-01  1.7598690527659880e-01  4.0766406802005793e-02  2.1675223216588915e-01  2.1294266911925644e-01  2.1990590521591069e-01  4.7213392617037733e-02  1.3913520128694357e-01  5.9419048415929245e-02  2.2088949955765158e-02  4.1996210084369101e-02  1.5013480500339008e-01  7.0263282704683350e-02  2.5095130475576882e-01  8.3571138382142543e-02  2.2695162019980902e-01  2.0326861851936714e-02  9.5246253558278024e-02  9.4754626052655749e-02  9.6839136977788204e-02  5.4420491247893180e-02  3.0772227710027200e-01  3.1973143438690965e-01  1.4212266585769814e-01  3.6045977120441275e-02  7.2130604686093711e-02  8.1061750456327158e-02  1.6596118924077219e-01  8.9871195407609988e-02  1.8838620471805106e-01  8.4103718401041486e-02  9.2559918336966557e-02  9.2074639728063512e-02  1.4214722684007913e-01  1.1687133294514115e-01  1.1122607053084047e-01  3.2360526747337706e-02  2.5099035012206705e-01  1.7511788240258896e-01  7.8178118400958493e-02  1.6403668111898659e-01  1.1289921362720913e-01  7.9997623816810470e-02  2.6769749533746921e-02  1.8073336446023304e-02  6.0182186955237714e-02  8.5542664787895944e-03  2.2595126832579587e-01  1.3225913615953994e-01  8.0164905804305867e-02  1.1874277927912728e-01  2.1385919783666680e-02  8.3776918790917795e-02  1.9326820803141431e-01  5.3796665531652042e-02  2.1247807178700037e-01  1.2078317128189924e-02  2.0156622815073560e-01  8.1662590698751730e-02  9.7836659169762332e-03  9.4141335236014534e-02  2.0804173857866629e-01  5.4727148428217853e-02  8.1662158495409594e-03  1.4905683638598354e-02  4.5877822675940583e-03  3.9495707361278561e-03  5.4358047157908145e-02  1.0024676371273611e-01  8.4948232103126756e-02  9.1708054221984248e-02  9.6557289487545508e-02  8.2740648825375768e-02  1.3848710045154597e-02  2.6189215887049744e-01  1.3324592875789371e-01  1.3265384465819979e-01  5.6051274674590368e-02  2.0480375719263515e-02  3.9030565104010588e-02  7.6123147723482124e-02  8.1918640900686526e-02  1.7467748979272463e-02  8.7722942161605991e-02  7.2783316706429664e-03  7.8701571706615986e-02  1.9837709167523035e-01  9.1414787345102597e-03  1.0926070567167596e-01  4.6930247673406117e-02  1.0486151477238172e-02  7.7576581997289118e-02  7.3638375850074753e-02  2.8827968645505346e-02  4.7518675432873352e-02  2.6005711773392381e-01  1.4289522377889799e-01  7.1292027337741953e-02  6.0911641586413601e-02  3.6305087625720260e-02  9.1393946165618412e-02  5.4176287732846384e-02  8.2205886718178967e-02  9.3397274027742810e-02  9.1164122681348728e-02  2.2848379763820637e-02  8.3460102781336171e-02  5.3598198361383374e-02  1.4969844664146115e-01  6.3733992974902731e-02  1.1186074605731577e-01  5.7293557461582462e-02  6.9257119822064478e-02  4.8101729197154247e-02  5.1974973660453935e-02  2.3536775785787378e-01  7.4076371165293581e-03  4.5780226707650737e-02  2.8380754158734617e-02  8.7591584273713732e-02  2.6496789949516535e-02  8.1860654236232868e-03  1.4022642214157585e-01  9.8245807266722746e-02  9.2415756170689298e-02  7.8116147938298811e-02  2.4287925517052087e-02  1.1251235433031226e-01  1.4912167783199012e-01  1.1858729406140506e-01  7.9702671503405154e-02  8.3745291189442642e-02  8.5432760738048397e-02  2.2125299906820411e-02  3.0867909250491049e-01  1.4820162028845754e-01  1.3756078680712430e-01  3.6842349651066475e-02  4.1198220232507139e-02  4.6530347109503392e-02  1.9534012665067796e-01  2.6349154036944690e-02  8.4201830798915522e-02  6.3336815516714481e-02  1.9263013695478434e-01  2.2664616191126227e-01  7.3148198311267176e-02  1.1787484178212723e-01  6.9273263057411494e-02  6.5672399994117905e-02  5.2257554499209893e-02  8.9133677967286024e-02  4.2041410334923875e-02  8.2248183162012184e-02  5.9450921254758059e-02  1.2674395963130858e-01  2.6397019892653445e-01  2.4762002520488055e-01  1.9077736931635461e-01  3.4410151672114603e-01  3.8100873991152195e-01  3.5472499036537652e-01  4.2407804382220422e-02  1.9479968061126462e-02  7.8730898402756197e-02  1.1962863482436810e-01  9.9236631850475099e-02  7.8669538014603566e-02  6.4759069802837105e-02  1.3782148460819882e-01  6.1432300412351563e-03  3.1390838670827266e-02  2.2320051305951291e-01  3.6746775638359069e-02  1.1474510182106538e-01  1.0332743951799392e-01  1.9254808511022606e-01  1.0080844114528047e-02  1.3785218338069205e-01  7.7996168828628490e-02  1.4468285406684397e-01  4.5195656505860847e-02  2.5211706508678333e-01  5.2880097069840530e-02  3.1000555343430475e-01  7.6607756064879573e-02  7.6058111703869724e-02  8.1221899874203085e-02  6.4383264369288998e-02  7.9659167607224260e-02  1.0354609851757691e-02  1.3574917757965019e-02  1.9764956848666410e-01  7.7380320071570668e-02  9.5760920840622196e-02  7.8721289386607437e-03  1.4925493846950380e-01  2.3427927833673857e-02  2.1738900548184142e-02  2.1158712731297370e-02  3.8936053441708626e-02  1.7602744446695101e-01  1.7932200763614148e-01  2.8185730697909604e-02  9.2688104157149995e-02  3.2917255794047348e-02  8.2336824010170201e-02  2.1003602578298294e-01  1.1298430793626656e-02  7.5384576113129681e-02  1.0277954744560398e-01  9.6605630680175261e-02  7.8124867945026474e-02  1.4432341585300529e-01  1.8087193828688297e-01  8.8712903798545725e-02  2.4207149137660488e-02  7.0502652248496625e-02  7.1952564487061860e-02  4.8650956101512079e-02  5.7585220080697039e-02  8.0880038510784333e-02  8.3931390574915735e-02  9.2807481951462850e-02  2.5688211311498421e-01  6.8798268339348143e-02  1.1551086492499971e-01  6.0716853323026718e-02  2.0925959517146278e-01  6.0496681484523028e-03  1.0497274336586203e-02  1.1430361076751395e-02  5.9997975897915438e-02  6.0218670751214454e-02  1.4599298718914012e-02  2.1329373111203839e-01  2.1175113372044924e-01  2.4651597949838627e-01  1.6356267390014900e-01  7.6173724100804002e-02  3.7852334693202191e-02  1.7181647266073623e-02  3.7105499857898891e-02  1.4545706175099775e-02  3.7756501605954243e-02  7.7836453285359319e-02  2.1591302694494573e-02  4.7377246979470374e-03  2.3085761809913875e-02  8.1234111959822386e-02  9.4444957253400061e-02  1.1067083999110531e-02  1.1658323143706278e-01  8.1208263487165429e-03  1.1436196455512175e-01  2.3344162592025119e-01  3.2856178136794326e-02  2.0779836967171554e-02  1.4172300521533857e-01  1.0876216507847865e-01  3.8036865241491691e-02  7.6736698043590040e-02  5.5358112071783643e-02  7.4234658255424831e-03  2.6486127676993160e-01  2.7137965709967030e-02  4.1615769816350151e-02  1.7694011090590950e-02  7.1499390699437726e-02  1.9956136057717369e-01  1.1572519737492347e-01  7.1596751823519628e-02  1.4095523389232023e-01  2.9278056076790179e-02  7.8625072657799083e-02  1.6557645219367874e-02  5.8626715018507872e-02  7.1774496560151738e-02  1.0406929420961112e-02  6.7496222139279652e-02  1.7868496127842418e-01  4.0685210521417894e-02  3.8109185507629324e-02  1.7426925211942060e-01  2.0366050731544853e-02  4.0864540586226759e-02  2.9408132989845865e-02  1.4986565305334559e-01  7.0405171800976205e-02  7.3444834756899308e-02  1.8625780546921197e-02  2.0086857951830628e-02  2.6977412483501995e-01  1.1144251746063784e-01  6.1823181560533187e-02  4.6186689759577917e-02  4.3915943833494391e-02  2.2367062205558268e-02  2.2387044719582874e-02  2.3204488052708794e-02  2.4082198070759689e-02  6.2767117658739996e-03  1.8482708603653583e-01  1.2442953010458045e-01  1.4607505694069084e-01  8.8423468199258587e-02  7.6148312803629076e-02  4.0662373884534642e-02  7.0467485501358534e-02  1.7944065531225525e-01  7.7786228992887341e-02  8.5735257170406004e-02  1.7864058003251002e-02  1.8508330040962112e-02  1.7500461134837952e-02  6.8029336712639166e-02  1.2199146958577699e-02  6.7503631912061102e-02  1.5121320094401716e-01  4.2997911862804286e-02  9.7940712049634171e-02  1.8403242465406974e-02  1.3155749123981997e-01  4.2231417147241698e-02  4.6904764880568092e-03  5.1049379580556851e-02  3.1634492861971807e-02  1.1290929877540445e-01  7.4636989173202717e-02  5.4642962463283699e-02  1.9861996468417086e-02  7.9130067957865036e-02  6.7409563752190288e-03  1.6775251468805097e-01  3.5484682852011722e-02  1.1695170545901903e-01  4.2028171964198042e-03  5.4225704603254266e-02  2.8725033828550860e-02  7.4605931825416629e-03  4.1551443969332809e-02  5.4647150977998465e-02  8.0549551011378451e-02  7.6095582592365249e-02  4.0824595728976780e-02  4.2050092404729324e-02  2.1348242137760418e-01  8.7843746971544692e-02  2.5214314440413126e-04  4.1148100327112899e-02  1.2123640144176171e-02  1.1749570563969896e-02  2.8917951981495209e-02  4.0639273465980424e-02  2.8346456895255435e-02  4.0847714328230533e-02  4.0585981863819669e-02  2.7789051159989711e-02  7.9493301954427012e-02  3.6279859228209296e-02  2.1336420822999647e-01  3.1781169624756779e-02  2.8591588337651401e-02  1.8132096565389980e-01  2.8573615008267602e-02  2.4996932219771159e-02  7.5963399960929781e-02  1.8788331953344624e-02  2.2912561149966475e-02  7.9698722841693367e-02  7.3368638204547573e-02  7.9732584428367392e-02  2.5353863876133483e-02  8.0233126029509813e-02  2.1294777256612468e-01  7.9353209870515445e-02  7.9928771559658912e-02  1.8075774763529937e-01  8.2454870562954488e-02  7.6195305414270872e-02  2.1265562203248964e-01  7.5959107539051214e-05  8.4324486042022515e-02  8.4580501247569440e-02  5.7235038791665693e-02  7.7921945851354799e-02  8.1007924439480711e-02  2.9531051821398861e-02  7.3192519567529313e-02  3.7958848336584160e-02  8.2143532529718788e-02  7.9244459255087579e-02  7.3037946634245066e-02  7.8709773161652716e-02  7.8827441128743694e-02  4.2333151994782131e-02  3.8816347257812057e-02  7.7978728672792250e-02  1.9238071951749577e-02  7.2897647535033375e-02  7.7053829037115981e-02  6.9778095705737259e-02  7.5941429921375356e-02  7.4651444733150024e-02  8.7757581637470938e-02  7.3197258589550368e-02  7.1595462512559715e-02  7.5136126752635576e-02  7.6654981073898648e-02  6.8028406331344993e-02  6.6108162439752871e-02  7.1915051413084741e-02  7.0257158659775415e-02  4.9358134203756995e-02  6.2116099187744953e-02  6.0094485365569467e-02  6.5360834375262411e-02  6.6958429297552913e-02  5.6121759387143914e-02  2.5920831296347570e-02  5.4215164922070555e-02  6.1007400766365613e-02  8.6954674959931727e-02  6.2368181048907581e-02  5.0660167961382625e-02  4.9044759925868771e-02  3.9935295051097497e-02  8.7317140364969251e-02  8.7316573329407274e-02  8.7693866316174901e-02  8.8084812244406174e-02  8.8488680399067959e-02  8.9339950919969380e-02  8.8907316773177994e-02  9.0671817878066760e-02  9.1129902298749593e-02  9.0243174421033578e-02  8.5113062532486031e-02  9.0713215049731413e-02  8.8053227362879391e-02  8.9211650097567499e-02  9.0645855579936582e-02  8.7190328967154770e-02  8.4755948562011671e-02  9.2704184542975770e-02  9.3226708206565187e-02  9.0488707103427907e-02  9.1667299077775211e-02  9.2195821005032652e-02  8.9972147889525289e-02  9.3285726851632639e-02  9.3841458499157787e-02  9.1561428438670628e-02  7.4646108780464446e-02  2.2080149809002369e-02  2.0972270703073219e-02  3.1826205713944671e-02  2.1578767160277713e-02  8.7085078953230824e-02  4.7132471692489679e-02  8.0750812042708259e-02  8.7392527845458312e-02  1.2614913718294946e-01  1.1645729232013737e-02  2.0580555997012178e-02  4.8419203708257925e-02  1.2148148970011773e-01  8.7043674111183023e-02  4.6471907792361905e-02  2.0401032475162434e-01  1.0002918423819876e-01  8.0616727471137500e-03  3.7319535627013178e-02  1.0008241826597038e-02  9.4151279328396360e-03  1.2230818697930169e-01  1.5468674566252572e-01  1.9906456273353336e-02  2.9733934493675136e-02  9.2502143082025312e-02  7.5161680044661519e-02  3.9810462749545028e-02  5.8827636220871886e-02  4.2199630885838932e-02  8.2696616060467562e-02  1.6284744996826830e-01  1.3226045221436439e-01  1.2498524949687873e-01  7.2370687066858813e-02  8.9811370543497818e-02  1.0167039111459059e-01  1.0545694826078086e-01  9.8307101392516513e-02  1.2104935999500356e-01  1.4648691806088263e-01  1.2329527920176710e-01  1.3380440685942344e-01  1.9431446289344884e-01  1.8691452514258699e-02  1.4770053117716458e-01  8.3558493601321324e-02  7.5481693910042511e-03  2.1012979777834151e-01  1.2308063750538822e-01  5.6067429552447680e-02  8.9485481248119475e-02  1.0990588506322461e-01  7.3870198014041460e-02  6.9422185705649189e-02  8.3159450405722188e-02  1.2009440367063400e-01  8.3565859329754716e-02  1.0181617098434741e-01  9.6427075411755644e-02  2.1663384576069807e-02  1.0469916861116681e-01  1.6923624216566832e-02  1.1811128482929319e-01  1.1699633558618434e-01  1.6307694029244299e-01  1.0386079534929338e-01  1.0987277978177447e-01  1.1492781968448573e-01  2.1529372736380576e-02  1.8127377700017662e-02  3.4046170517630273e-02  1.1507945116293390e-01  1.0564713791875907e-01  1.8345868446288513e-01  5.9786237778035448e-02  5.6521690721226876e-02  3.9621400693254545e-02  4.4672115051854706e-02  6.1844183957643585e-03  6.4092836694744471e-02  7.2113505694394592e-02  4.3882300903451819e-02  3.5783567824127720e-02  3.7704487517056455e-02  5.2596072617482580e-02  5.1420620756225360e-02  5.1456933025500230e-02  3.2619364589365110e-02  7.2164446016150779e-03  5.3328424668467878e-02  4.1473907478864140e-02  5.7931422129444264e-02  6.6092132982999471e-02  5.6122519300930471e-02  6.2062630003180887e-02  4.1795705689600351e-02  5.7581499722570810e-02  6.7973327713927528e-02  7.5825038510717716e-02  1.0315925948762283e-01  4.3112996107250647e-02  1.0300149052894693e-01  1.5824029623051067e-01  1.3092017004302789e-01  1.0418825244286511e-01  2.1211911607082359e-01  5.0689547729182244e-02  5.3327655094580671e-02  3.4728122273135917e-02  7.0208604563904865e-03  1.1158560466906095e-01  6.2438412192530199e-02  1.2835368101424294e-01  7.3821803050606802e-02  2.0916741068909190e-02  6.9625912459718900e-02  1.0745782842128208e-01  1.2588373258896138e-01  3.2397509635283532e-02  1.0521898996146829e-01  1.0881227374839880e-02  7.8530374268160924e-02  5.1425675810681153e-03  1.0995411826732827e-01  1.1406883351382595e-01  1.8011343841035710e-01  8.3870174005406417e-02  1.8324408006327361e-01  6.6564828418972197e-02  9.8449721851289473e-02  1.2029254482704130e-01  5.4223180129025633e-02  9.7514928346183305e-02  7.9305063768169912e-02  1.2212557616640897e-01  1.0622584554861611e-01  3.1089720789759211e-02  8.1978580358664385e-02  8.1496417433593343e-02  7.3187503077425733e-02  7.3968420223418443e-02  1.0343589550403560e-01  1.2370023902563883e-01  1.0677448308769671e-01  2.8701689688426010e-02  3.5856308684123608e-02  9.8633055578147624e-02  1.0930665906903378e-01  3.2851270558828909e-02  1.7181028740636256e-01  1.0388099626846750e-01  8.7777811889102692e-02  1.6833287947914433e-01  7.6395609384869723e-02  7.7119623743246712e-02  1.1130846444462859e-01  1.0385432345761486e-01  8.7690632511058172e-02  4.0286953884962520e-02  2.7201921296556717e-02  1.6500479060020606e-01  9.0672657075169995e-03  6.7150642886214251e-03  8.4700990594087242e-02  2.0294633136336691e-02  1.2303982906813667e-01  1.2720106219113705e-01  1.2935572210340793e-01  7.9168944711373229e-02  7.9805622714611557e-02  8.7689405260104006e-02  1.2994710802330223e-01  7.6833034718821636e-02  1.8714600986462143e-02  9.6289916228439770e-02  4.1038890568478259e-02  1.2495449394842927e-01  1.9179272713134704e-01  1.0017983652033900e-01  1.1576708952030410e-01  7.5834702053970457e-02  7.8584530334510141e-02  7.4061106539115018e-02  2.9432949880157128e-02  7.9379239416177694e-03  1.3060925372839147e-01  8.0781909306625335e-02  1.1011240957339301e-01  5.3591597871769724e-02  7.3927725633104915e-02  9.4860929288701351e-02  7.1411819308779573e-02  6.5163589836012392e-02  9.3937836408187786e-02  9.2992949006727943e-02  8.2271055359763950e-02  8.1277070177541863e-02  1.3206420901612279e-01  9.5977421229018506e-02  6.4333288119191021e-02  1.3065466398964992e-01  8.3318551176128186e-02  9.1157827891266141e-02  1.0450019414937131e-01  1.4161243036834495e-01  8.3806970675429651e-02  1.0731408425751701e-01  1.2134996585206939e-01  1.2203499692591710e-01  1.1426454383021088e-01  9.1116806342997583e-02  1.2338417541029550e-01  1.5938944229688512e-01  1.2362352615936775e-01  1.9050077208425286e-02  1.1147695836817852e-01  1.2956353517149532e-02  1.3379330713799154e-01  8.4115367215068432e-02  8.3563178372755259e-02  6.3921934261684688e-02  6.4917336638936798e-02  1.2907124361642280e-01  2.1853240804809215e-02  3.6186346753450400e-02  5.6595216033196255e-02  8.3614201831903226e-02  1.4591050282255125e-02  1.6324324464923216e-02  7.0694899578605558e-02  2.3723930277011727e-02  1.2345573362609313e-01  8.5507496844197575e-02  1.4248944955856702e-01  2.9207957712308795e-02  6.4772141528963698e-02  1.0968025585983117e-01  9.5408382620277565e-02  3.6146335159302254e-02  1.7445346548295715e-02  8.6142223716311847e-02  9.1873717942673558e-02  1.1851888383081756e-01  1.3462461158250702e-01  1.0359844316286550e-01  8.5784620750476673e-02  1.3166734035225200e-01  2.5905843041594958e-02  5.3560283927295768e-02  8.5738441861548886e-02  1.1432259086219495e-02  2.0736296063945867e-01  2.1837982641187029e-02  7.5176080164116671e-02  4.5829213318644466e-02  1.2568297764762906e-01  1.2437874054158675e-01  1.1689331283564691e-01  1.4683411143361677e-01  1.2631116819119576e-01  8.1554136448671016e-02  7.4224664441832081e-02  1.1519456159758157e-01  1.1187242602323282e-01  1.3281631299474123e-01  1.8123691134369402e-02  1.3126083650046738e-01  9.6212517627120547e-02  1.2183121105701493e-01  6.4976095157984956e-02  6.9534581597444023e-02  2.1586584798071159e-01  1.3469529814361617e-01  1.5719840637643149e-02  1.1826591125337925e-01  8.5583375608241502e-02  1.1167620304401714e-01  3.4949942520620086e-02  8.6955136865565441e-02  1.2596130072425582e-02  2.6325879044590054e-02  1.6478760835665060e-01  1.5843071826262836e-01  4.8614922835743361e-02  1.0318708870558331e-01  2.3142806074102094e-02  6.3106497823810026e-03  7.1907514703755587e-02  7.7513724667537129e-02  1.5627577176054558e-01  7.2827322703312894e-02  8.2226045453785424e-02  1.0519000530121918e-01  6.1965257883630852e-02  7.5378884201410215e-02  1.3673406835941349e-01  7.4498819596503771e-02  1.6205089988737039e-02  6.7017418756106381e-02  1.3022474527571604e-01  8.7453986589947200e-02  9.1900548657141631e-03  5.4303611223978664e-02  6.5802898803037774e-02  6.5004660858871029e-03  9.6373080384364151e-02  1.6444239251320189e-01  6.7349223411684159e-02  6.7715177177157485e-02  1.7697944798471374e-01  4.1947031209204802e-02  1.0592200867425673e-01  1.0448251476033489e-01  6.6598407185426520e-02  2.9198381945712143e-02  7.1666716305514066e-03  2.0895483121774073e-02  1.6405523771375718e-02  2.1600162328596528e-01  2.6228518273443250e-02  9.8330668454313982e-03  1.4891929803829206e-02  8.7002039797116321e-02  3.5485061531129750e-02  1.9156697919518537e-01  1.3058451105272925e-01  8.3019410917576766e-02  5.3060499635682420e-02  1.5980532446847912e-01  8.8019059294963647e-02  9.9384239049594893e-03  2.2081565325181358e-02  3.8686882757964849e-02  8.6449716396412746e-02  7.7719924626223971e-02  7.7483712820009848e-02  6.5481797378593956e-02  8.6712745025751020e-02  7.6318972351810441e-02  8.6630595123821680e-02  7.5996987549198952e-02  7.5800122527792543e-02  6.1315863575273480e-02  6.1243874896564889e-02  7.5459093632303423e-02  6.0090934571138656e-02  4.0873578697558040e-02  3.2483098514669524e-02  1.0818644686831438e-01  4.6780017429379778e-03  1.6299082007352564e-01  3.7379575234289912e-02  3.7305055518161774e-02  3.0681816633468542e-02  1.0513162713062420e-01  7.6248923714525990e-02  1.0180815934060770e-01  1.2485929528259281e-01  8.0441498539269046e-02  1.3275432674261359e-01  2.9942747853186649e-02  7.6609191696019749e-02  8.1223944925983005e-02  7.1760408852858323e-02  8.0840564269793080e-02  4.4781693367065910e-02  1.7105262874654739e-01  6.9403873753519751e-02  6.9489364414477880e-02  8.8006714062033212e-02  7.7774783600403186e-02  1.9755932687116340e-02  8.0236841620722615e-02  4.4816660809909065e-02  9.1501982923821584e-03  8.9437163130060646e-03  7.7018868266977110e-03  7.9006979983140907e-02  1.3057096911061244e-01  8.4689991742444404e-02  1.2673140711092168e-01  1.5775628431525600e-02  9.6671036781403930e-02  4.6715079296684954e-02  6.2414132537210287e-02  8.1686344813955203e-02  2.1614344428666049e-01  3.3862662972349779e-02  7.4703028004900002e-02  6.6159784477791986e-02  7.0684721439393319e-02  7.2422410273659324e-02  1.2116987544293363e-01  1.2480304316392589e-01  5.4474793466295024e-02  1.1719918066720465e-01  1.5693837055146473e-01  8.8597126168217643e-03  7.5906416620677056e-02  1.1339994613001307e-01  3.7110318815462631e-02  8.9641804927386701e-02  8.4239206822393095e-02  1.2393034766713212e-01  1.0324878842003413e-01  8.3328526156285582e-02  3.6180368489608608e-02  4.0119462538402560e-02  7.7461059975601487e-03  1.1291427226473220e-02  1.6770378531660138e-01  9.6071699412859229e-02  2.8840835955387910e-02  9.6465172553276954e-02  4.7166235751513949e-02  5.8106404523217262e-02  8.0745219132809486e-03  7.3339985954324505e-02  1.0347514746517342e-01  6.8822046987573104e-02  9.3206599871236445e-02  1.8624287729623337e-01  3.0183526132772566e-02  4.6833689125217133e-02  1.1973910313730056e-01  1.3674716040363064e-02  9.2730970604491397e-02  1.3313711405971965e-01  7.6860915251428921e-02  9.8930979172408437e-02  8.9499587320425421e-03  8.3836870640793079e-02  1.3380879639512424e-02  1.1196448193283627e-01  1.2318843648828955e-02  4.8011039049086622e-02  2.1100008622660518e-01  1.2665545557882119e-01  1.5936412413430273e-01  1.2163771764208635e-01  1.2417324872453460e-01  3.9838158380484226e-02  1.1653137895138371e-01  7.7489819395278270e-02  5.4299873478641132e-03  1.0915496117922610e-01  8.0413637734220320e-02  1.8851174421693803e-02  8.2930366398293598e-02  2.0564520932863389e-01  1.4866908215313586e-02  1.0713556932564683e-02  9.9796122101278917e-02  1.9337444792247513e-02  2.6263267437254333e-02  1.3507572923829664e-01  8.0914529659618425e-03  6.1343605385293784e-03  1.3389835171208669e-01  8.1771180013921710e-02  8.5185794671633772e-02  1.0974280242108662e-01  1.5284391449314658e-01  1.2603633413778001e-01  1.2441842297383088e-02  1.2179477605767966e-01  1.2100631721172699e-02  1.1613857884727853e-02  8.5855978259397989e-02  1.1106018641582492e-01  2.3526348184672791e-01  2.0379043508773079e-02  5.1545639110901681e-02  1.0779865876153649e-02  8.4927650181402664e-02  2.3484148033371326e-02  1.7538992312406290e-01  1.3233214495730783e-01  6.2254317069350140e-03  4.5863234234411132e-02  1.1747025059478085e-01  2.0992206091568261e-01  9.4459831128106103e-02  2.5970273724639482e-02  9.0011608477395783e-02  7.2901710264771949e-02  4.0821379160652413e-02  1.0590027329943881e-01  1.2829670941565138e-01  3.8132649341089883e-02  2.3726406325753252e-01  8.8450332964920594e-02  1.0989991601816641e-01  2.6211851593571606e-02  1.8260005256069359e-02  3.7122098654787127e-02  3.6297479888757096e-02  9.3467157674103504e-02  1.2149767203129822e-01  1.0127395649333697e-01  2.2552340225793030e-01  2.3297405685925844e-02  2.3107677286308395e-01  3.3233019150300039e-02  1.7383438953058855e-02  2.0328606457550785e-02  1.2841835813371988e-01  1.5570021162940254e-01  1.0132675487393111e-01  8.6690291307929726e-02  8.4257415974322847e-02  1.6061171018353797e-02  3.1601699654504982e-02  1.2117323213477822e-02  5.7705918940693324e-02  9.9850743295476094e-02  5.1375440436998952e-02  2.2943400082354334e-01  2.2132058579827024e-01  1.0862700283387743e-01  4.5650461455570675e-02  6.2494442983586085e-02  1.2760502502892535e-01  8.7436466946456279e-02  8.5443877287512404e-02  1.3753590025597512e-02  8.1520338346537921e-02  4.0728054283566052e-02  1.4877813927278513e-01  5.3714291859942538e-02  1.2813417182089928e-01  8.2546987841036853e-02  1.3046270490567702e-01  1.1784497230396862e-01  3.7511094212358716e-02  6.4793470933680319e-02  6.2649590246046868e-02  6.2627604089150982e-02  6.0318650549249633e-02  1.3991110122367872e-01  1.0192900875906546e-01  8.6709013737393745e-02  1.3527023878848526e-01  5.0925514963161746e-03  1.3218906439976696e-01  4.2914094701307207e-02  6.0911503393607055e-02  1.3721721787933272e-01  2.3134911502529901e-01  7.0612273550227159e-02  5.4199682123957843e-02  2.2834327799956056e-01  1.3818567938989857e-02  6.8877816121126229e-02  8.8639189753993528e-02  8.2310474185800814e-02  5.0629919324456478e-02  6.9304798990832389e-02  1.9619627341716538e-02  1.0759337612559405e-01  1.0515819088263528e-01  7.5266746842692037e-02  2.1464438535745062e-02  2.8356784455758805e-02  1.0809666447779052e-01  3.0759083596458341e-02  1.2706362101147294e-02  1.2613520258593630e-01  1.1748553657441320e-01  1.1239348518483147e-01  6.1041930581100509e-02  2.6340519201768060e-02  1.3013293555872152e-01  1.3185309392093275e-01  1.1181920314883714e-01  4.0502730772621551e-03  1.1653847163831395e-01  3.0045168095200095e-02  1.0382667563297944e-01  4.0049826561281265e-03  9.7468406159693988e-02  6.4996576508075915e-02  7.6887000743248918e-02  8.6630197832426634e-02  6.6637457004141767e-02  2.6073293897341709e-02  1.2539551686726602e-02  9.6342205623497157e-02  9.7026264465694192e-02  7.3280521962474070e-03  7.1871185285102807e-02  1.9211066108842594e-02  1.1147422685796712e-02  6.9270362462146698e-02  9.1293117222968220e-02  1.1634391087743133e-01  1.2052210241229845e-01  1.1948525175723633e-01  9.4146883304000201e-02  7.0548654457789822e-02  9.7084956305368050e-02  6.5438406437107785e-02  3.7558092790011849e-02  4.4029893298729778e-02  1.4055564778171739e-01  7.2064032172307738e-02  6.7739651756098945e-02  1.0530608706179935e-01  5.5133108144828545e-02  2.0339856490021017e-02  7.0839601421408913e-03  1.0784359245101434e-02  9.0438177271975395e-02  2.7941044519964620e-01  1.0248070380568761e-01  7.2588764116368637e-02  8.6914299207629581e-02  4.2397640115075526e-02  1.2079819966290582e-01  6.2991126241174047e-02  1.0417671209654872e-01  8.8961239657133734e-02  8.4054418051010396e-02  1.4222660680371796e-01  9.1271278427855179e-02  8.0141884843920749e-02  9.2193611220815319e-02  1.6176211652967443e-02  1.6522947304321894e-02  2.5888677160485266e-02  1.2322435928551467e-01  4.8657057908789637e-02  9.2288247615926841e-02  2.7291728842521989e-01  9.3952113923363181e-02  1.6363715890981623e-02  7.5775248273560275e-02  1.3727445261117416e-01  3.6320791264094328e-02  2.6512997876616779e-02  1.0181137212056412e-02  1.5183657094274822e-02  6.2654081812028278e-02  8.2989315383893966e-02  2.5812624662187391e-02  6.6645077540553738e-02  8.6589842193902325e-02  1.1644483785278623e-01  2.1158777130091247e-02  9.4767441572726860e-02  6.4151802810180514e-02  1.9002184903122075e-02  9.9952231037052086e-02  1.0194117214893983e-01  3.1215950443025442e-01  3.7703826227813375e-01  9.1064739235587305e-02  6.7113531001464222e-02  1.1591954094097624e-01  1.0321273008583700e-02  1.4556743894910437e-01  1.1675276376330909e-01  1.1953123994664508e-02  3.4194175908607416e-01  9.1645037521274231e-02  6.4863719624537533e-03  8.2636164401790405e-02  4.2606190697390481e-02  7.2006133282295548e-02  9.9742648332643610e-02  3.0773887386768867e-02  1.7520786435746483e-01  7.0366879364163928e-02  6.8729847577777614e-02  1.0297721565105930e-01  5.3966598112628009e-02  1.2719960236232430e-01  1.6523118058679277e-02  1.0223107509289755e-02  1.4093515928684278e-01  9.5590749935789129e-02  1.1568966292929601e-01  8.0469639751046540e-02  3.4057009868793564e-02  1.2036465854978447e-01  1.1769515138162523e-01  1.0693663311601212e-01  1.0202139406854757e-01  2.5586408313141476e-02  5.5598696980211845e-02  1.1636795847366094e-01  7.1552597005660939e-02  3.1592665869209079e-02  1.1485545625155028e-02  9.5355648901852899e-03  1.6481490646652806e-02  9.9753640517229292e-02  1.8707176943555458e-02  4.2123351648807245e-01  1.1347938923024906e-01  1.0398115650928856e-01  1.0248401201145853e-01  1.4889766410791491e-01  1.0107670549199074e-01  1.0931312205226686e-01  5.1026279114740850e-02  9.8675609868767888e-02  1.1933256114305055e-01  3.2589637837961816e-02  2.1525808047190554e-02  7.4162609355065356e-02  8.0887558268420257e-02  4.1284041127017272e-02  4.3688978050801283e-02  1.4462019831336395e-01  7.7774760154908765e-02  9.9964423144785527e-02  8.8265277005498799e-02  1.2283169549881837e-01  9.7161637006792270e-02  5.8175197664478793e-03  1.2314492446430710e-01  9.5327252607645532e-02  4.1088302387271694e-02  8.3733064249927866e-02  8.7894291909597674e-02  1.7193082550776694e-02  1.0293298812266248e-02  7.6728406895467775e-03  7.0701501525601174e-02  5.0517183163943415e-02  1.1756162425316261e-01  1.5220265396690072e-01  4.0367575628581544e-02  9.6427311465444171e-02  1.1744572194642926e-01  1.2766779012416254e-01  5.3838095722068158e-02  1.0455868341651218e-02  1.1697954008895123e-01  1.2077144143709362e-01  8.9587757112763317e-02  9.4995270463483161e-02  8.6027044466101335e-02  1.1618078685910264e-01  1.1891873427569878e-01  1.5384129091520179e-01  7.8049468111463335e-02  8.8873048174383185e-02  7.7893604184739451e-02  4.2781163427375250e-02  1.2167606085947568e-02  2.1259536164172383e-02  1.2365126683497698e-02  1.5016673814879908e-01  1.3885932819022687e-02  8.0039595557583859e-02  1.0920366943774629e-01  1.0377100641987030e-01  7.5396832232897990e-02  1.1806203993951420e-01  8.8143600747146750e-02  9.4271532386143969e-02  3.9449728810605371e-02  9.3216582171124746e-02  7.0636623200576704e-02  1.1015092784758426e-02  9.0483984734964565e-02  1.1762066982824437e-01  1.1347780313251024e-01  1.1277098066277753e-01  2.2923563062245744e-02  3.8536316355078995e-02  8.9998235755786180e-02  5.4156613962418790e-02  7.0177712368339029e-02  4.0436664056232433e-02  1.1527624765787207e-01  1.1942832173863820e-01  1.0702843965457837e-01  1.1214695332167539e-01  8.4694062818651814e-02  4.3600473588698146e-02  4.9334069917123177e-02  3.1273692055345741e-02  2.1280492641662953e-02  8.4965793656997163e-02  5.3828416757040677e-02  8.4032981536599480e-02  4.9993278048309192e-02  1.1847981513753601e-02  5.9317506214338664e-02  6.7280957415681950e-02  1.1768039075613801e-02  7.9357600274302664e-02  1.2761192645106870e-01  1.0506792581145864e-01  7.9897647665808549e-02  3.5635850619545710e-02  7.5753349648683757e-02  1.0650367530882292e-01  1.1671052964527162e-01  2.4534184794013241e-02  7.1518603756820134e-02  3.7629611149611157e-02  8.9630189992142895e-02  1.1271912920891004e-01  1.0845426908106721e-01  7.9591812860371411e-03  6.9896394508919726e-02  4.5490164496984488e-02  1.0955071652584474e-01  8.5749594920551633e-02  1.1624281019801294e-01  8.0855219131408654e-02  8.6925738803233732e-02  7.4235193698983751e-02  4.6678342291390972e-02  1.2899022248554290e-02  1.0788239879601540e-01  1.2731192850677273e-01  1.5201671261607683e-01  7.8111513702125143e-02  1.0828572976528393e-01  1.1802835676885998e-01  3.6729735192519410e-02  4.2095579456285843e-02  8.0898995768847404e-02  2.6083128573255787e-02  1.2906163499171153e-01  1.0120680480701021e-01  6.1706528320593975e-03  9.4405513857827444e-02  4.3094306853568097e-02  1.2001717926962080e-01  3.5832967764287092e-02  3.6502177300052153e-02  7.5187993194659866e-02  1.1709148291931962e-01  1.4105441977236342e-02  7.8482354789658565e-02  3.3155787718401802e-02  8.5303056866270516e-02  1.1527861847376042e-01  8.6103180460282674e-02  1.0581718528734339e-01  7.4945299278431729e-02  1.0099376450892032e-01  8.4054500074754818e-02  7.9682753584907992e-02  7.4181367858120142e-02  2.7573910089352286e-02  8.4309470129337413e-02  1.1478399305058368e-01  7.2596568811169271e-02  9.8758028501986506e-02  8.5965584753962376e-02  2.5024646221967132e-03  1.2809090934848891e-01  1.0508800887684046e-01  1.1657339597615314e-01  1.1066379043213945e-01  5.4282094599723794e-02  3.4934087913311172e-02  9.7576308484681656e-02  1.5419110368026262e-02  1.2333402636373977e-01  3.5464522062317573e-02  9.7052213578183111e-02  7.6007550186613732e-02  2.9003539528965935e-02  2.9624793990210677e-02  7.7713429835398570e-02  5.1457421256170068e-02  1.7434960736871365e-02  2.0702598145829962e-02  1.2595892118468302e-01  7.7189759031402239e-02  1.2527552167696818e-01  1.1193914453932290e-01  8.1831370651972504e-02  8.7960897680733591e-02  9.5371915739551449e-02  7.9967789602732722e-02  1.6771509400708855e-02  6.4922403135501544e-03  8.5335903563917154e-02  1.0493798052396136e-01  1.2714953107170615e-01  7.3229436671981382e-02  9.2118307324181428e-02  6.9024757000887824e-02  1.7460691971743124e-02  5.5884298641932506e-02  8.5654461544582602e-02  7.6179622499764871e-02  1.1348728415023619e-01  1.1187162460328753e-01  7.0079659999515403e-02  8.9156047271525513e-02  7.5676894153228119e-02  3.1017174403128758e-02  8.7032115606433813e-02  7.0162246497218902e-02  8.4331801013227140e-02  7.2792162399922871e-03  1.0541054769648328e-01  4.3341246640382726e-02  3.7291723173485294e-02  1.0060637031745284e-01  3.2263947565674335e-02  2.9442803883476601e-02  1.1491842237812711e-01  2.1748588870911561e-02  4.8936168779529304e-02  5.6976427798898152e-02  7.6213689062586937e-02  1.0473508505609475e-01  1.1606660605924288e-01  1.8836059789764614e-02  7.5484443012023839e-02  3.2087893696327051e-02  8.2087424138216597e-02  8.5744095546671673e-02  8.6763504653148527e-02  3.2293392925856410e-02  7.4892337955040370e-02  8.8619100970164802e-02  3.1380545479718761e-02  8.6712532531969047e-02  8.7586189210021162e-02  7.8759994484598889e-02  1.1175975432014347e-01  7.3349084374221371e-02  6.3714386200549505e-02  1.0979238966255944e-02  2.0163995941802404e-02  5.4350772723201206e-02  1.1635722643485773e-01  1.1168985666792171e-01  2.5365194836592577e-02  3.3506986630605924e-02  9.6590033320993127e-02  6.0350357568506686e-02  1.1936883237602310e-01  2.7867822430355481e-02  8.9894314500413686e-02  3.0496995787058515e-02  1.1780572024437440e-01  8.2578675500433366e-02  8.9151243728930768e-02  2.1441371570426446e-02  8.4464527779766152e-02  7.5737619560444697e-02  1.0111499791477462e-01  2.9620164208032911e-02  3.4670200941336056e-02  7.9743129642694463e-02  7.8713251187039368e-02  1.0378534226385695e-01  8.8918705113250843e-03  1.2648298817160136e-01  1.2979334645415647e-02  1.2074325080819799e-01  3.1076680126295320e-02  9.4717359221025116e-02  2.2642346299430939e-02  7.8621619313100605e-02  8.2761361149330498e-02  2.3224704628966839e-02  7.3699869669706014e-02  9.7751902872155200e-03  6.8346589488590903e-02  9.3095139006489677e-02  8.8404130883460760e-02  2.8541716035977573e-02  8.9678828389115436e-02  4.5761797264150084e-02  8.1805453082244559e-02  2.8743884463344953e-02  1.9483373757662771e-02  8.5716177425133697e-02  4.3528783064472831e-02  2.4683185154578419e-02  9.0182046466156809e-02  7.1270695340113974e-02  7.9084391360112694e-02  3.6267170538900197e-02  9.1885947269901899e-03  7.4621522763993808e-02  8.5082384646369122e-02  3.9031388986546171e-02  6.1795152213570091e-02  6.7843071096234858e-02  2.2588993475011605e-02  2.4344449745346108e-02  1.0319824431276882e-01  7.8691444097670954e-02  1.0464744572694298e-02  3.7267516165959677e-02  8.3160921463489246e-02  1.2222778641756901e-01  7.0567305357513738e-02  1.2524334113190252e-01  1.1430150480544353e-02  4.9381920550613446e-02  2.5363703235144835e-02  7.6642926467380620e-02  1.0791414837067609e-01  1.3119236645819773e-01  2.5856533738991619e-02  8.9529536461260467e-02  6.2508953279471646e-02  3.7549289122025975e-01  1.1826763338776039e-01  3.7006229515122196e-02  4.3601937340956118e-02  1.0803140243718985e-01  2.6308006178464287e-02  2.6399932751808845e-02  3.8610399440941308e-02  1.3113116610717909e-01  1.2858942267115347e-02  8.8931368389084831e-02  1.4674158079029978e-01  6.2154820366663199e-02  4.6658155727969587e-02  2.6804687258520175e-02  9.5733429828406269e-02  1.2423491087512127e-01  1.1076079437605089e-01  4.0861936573435176e-02  8.4748963994119825e-02  6.8768209688409063e-02  5.4360427002469854e-02  1.9646621441449689e-02  3.9428666713267481e-02  5.4338494239803636e-02  3.8901342233373819e-02  7.4381403446544606e-02  7.9500162246410322e-02  1.3980174920038127e-01  1.2287598789440385e-03  8.3594987507254401e-02  1.2939648972492671e-01  7.6540540015369987e-02  9.9425928375944883e-02  1.1807586358414224e-01  1.7974122523924135e-02  7.4290340804825439e-02  1.2678338955649981e-01  7.5162028678755016e-02  1.7007563596511643e-01  1.0966866360368088e-02  2.7646350820083480e-02  1.3389429810775982e-01  2.8772927340784554e-01  1.5413946679306670e-01  1.2487659740654729e-01  2.8057387140804340e-02  1.4846450425146113e-01  7.0212342088752641e-02  1.2832838208663228e-01  2.7807461105012400e-02  1.4296163180509731e-02  1.8387235574215229e-02  3.6778647186312782e-02  2.8223165066799762e-03  4.3691986433647363e-02  3.3464153293028612e-02  3.6656221475955264e-01  3.0780115298955638e-02  4.2789960371366308e-02  6.2819408693653711e-02  1.1378561818551838e-04  7.9032650666830961e-02  1.2989647453114178e-01  7.8413459978942723e-02  1.6507588811088894e-02  1.3998465418235843e-02  5.9375165103135508e-02  4.9225966603784706e-02  8.3359682544229929e-02  5.8916204357012489e-02  2.6905280411368755e-02  4.4821635806324631e-02  6.1554507932098226e-02  1.3633553984329083e-01  5.8012426950036972e-02  1.3148011693660880e-01  6.0755378252266429e-02  6.8077872997004019e-02  7.3157399850505525e-02  1.0335910469165571e-01  7.7037913243784742e-02  5.7158717978479739e-02  8.3860161133252287e-02  5.9990287718815954e-02  2.9221951784422100e-02  4.6964726237225009e-02  5.6345171303136418e-02  7.7863619109668815e-04  8.1215424990596918e-02  5.9257388866907325e-02  5.5569023035832762e-02  5.5194025625244079e-02  7.2707913143749608e-02  5.8213617732334279e-02  4.6347324806734494e-02  5.4476893880889429e-02  5.7552110635150727e-02  1.0447209844891747e-01  5.4259778003717694e-02  5.3783005731669012e-02  4.8761572461222820e-02  7.6608658684422140e-02  2.5865215013887749e-02  8.4735976037788839e-03  7.3837945083330109e-02  5.6916126236931347e-02  5.3118189974862035e-02  1.3307541940819437e-01  5.6304157595935656e-02  5.2480175703184841e-02  5.5713467576031919e-02  1.1789416376579394e-01  7.7358076731873754e-02  1.5226129133274735e-02  6.8846402771566865e-03  7.6709774991212773e-02  5.8941482832151816e-02  1.5937013491463953e-02  4.7385770210402710e-03  8.8195345443325190e-02  8.9382698735531091e-02  8.0127425378681158e-02  4.3728011312639703e-02  3.4056947303698057e-02  2.2731762199764069e-02  7.4092911066136547e-03  7.6001843164782590e-02  8.7840553801629778e-02  4.4657117760028536e-02  7.4812713777454326e-02  4.3382635321102356e-02  8.9473707863216206e-02  7.7398904399069851e-02  1.3801287996174627e-01  8.9533579264297170e-02  5.4119977352888378e-02  1.0675936330916441e-01  9.2376007095942264e-02  4.5467645696181024e-02  3.0228135301243717e-02  7.5523125139156419e-02  1.3969702680903434e-01  3.4734824113481777e-02  8.3700495341768599e-02  8.4831385263371445e-02  8.0401192976584449e-02  8.0600346722192795e-02  8.4560841208175169e-02  7.0680658486385592e-02  4.3732887855336022e-02  1.2115750229431611e-02  7.5267966946155951e-02  8.0294299281724463e-02  8.7063998741338508e-02  1.5800523424405712e-02  7.9644252532292500e-02  1.4141143935933395e-01  8.6296374001871096e-02  8.5894618521499558e-02  7.8608642503690054e-02  7.6716122048698904e-02  4.9049570096360642e-02  5.8579615540583635e-02  8.3616370651991290e-02  1.3488991092477373e-01  7.7569216300349186e-02  8.2560685435636438e-02  7.4628519237807597e-02  1.4313097324464444e-01  1.3327157697877529e-01  1.5032632028231474e-01  6.2309858936299624e-02  1.3005843395312519e-01  4.0484921154484078e-02  1.2848861298707123e-01  6.0295137581312885e-02  7.4496433111123903e-02  1.4488462802801164e-01  5.4047534395033514e-02  1.7503992233532335e-02  1.5354856769915826e-02  7.9487202665169274e-02  2.1719302169959767e-01  8.1372401440292022e-02  5.2754157303699249e-02  1.9288557241892507e-02  3.8329180591347605e-04  2.6822680996175574e-02  6.4311646846400908e-02  7.0610783080762310e-02  7.2809910911494372e-02  3.8752130141919909e-02  4.1013191567043604e-02  8.5963052827893419e-02  7.5312118253133359e-02  2.0695004794444190e-02  3.1448998337270752e-02  3.8867990264743933e-02  1.1381990974382460e-02  5.3952090384418290e-02  4.6571862507684171e-02  2.1153467425587418e-02  7.2336253264925224e-02  6.9285045469639636e-02  7.8634770502309548e-02  7.3509049696873482e-02  2.1476662243216638e-02  2.8458488574204570e-02  1.1577823523739495e-02  7.4648267516377514e-02  2.1627729047063862e-02  6.8494990117384774e-02  1.1885016830356426e-02  2.3538934773996129e-02  7.7898161002625158e-02  6.6207310109674899e-02  2.1857321230784359e-02  2.7907007731759543e-02  8.9464510273309442e-03  6.6511936617612608e-02  6.4472879194036728e-02  1.5876376035717794e-03  8.5339789652734407e-02  6.8662132262743855e-02  9.8797247804412874e-02  8.4661841901522192e-02  1.9206369505706658e-02  2.1885196183908166e-02  8.0879753439636271e-02  8.5854283133680848e-02  8.6305011678918617e-02  8.3542341787986668e-02  8.4351609496864429e-03  6.6784556757696163e-03  8.9600977341102631e-02  1.0292203571744533e-01  9.7547410515067531e-02  7.4251439536517527e-02  5.3859927681382980e-02  9.5840083992948244e-02  4.2300444701799514e-02  9.1882405364972886e-02  3.5417574724078263e-02  5.8222077338724483e-02  8.7460052806550836e-02  4.3648580793324766e-02  5.3741803476087570e-02  3.5602798416023713e-02  8.1084406472538284e-02  9.7233602619695519e-02  9.1635219604723567e-02  1.1456291558414720e-01  9.3730109908978537e-02  7.4368951104482259e-02  1.7043383707958598e-01  2.2046005742626121e-02  3.9665646536899316e-02  4.0954395631526017e-02  4.2441888467453608e-02  7.6637813587836945e-02  7.3084546518549717e-02  4.1187655056737710e-01  4.3540658507742323e-02  1.0314173321487414e-02  5.3474745068437912e-02  1.9838507201585162e-01  4.1813093545633069e-02  1.0393627663063847e-01  7.1790094061975743e-02  5.3166929770233080e-02  2.6880342526043495e-02  5.3325405156068692e-02  6.2284092620574320e-02  7.8065805996358151e-02  7.1365104238339666e-02  8.6312458424378249e-02  8.7743597859609584e-02  9.4200859700650549e-02  7.9774547891600586e-02  5.9817994012661743e-03  4.5484879757130905e-02  5.2553896576328925e-02  2.3057641604022575e-02  6.8153181034023930e-02  8.4637878869771879e-02  1.2066711006058243e-02  1.0047962149704734e-01  7.8205029166084253e-02  1.2121213860474139e-01  1.0797617711445164e-01  2.2428362112864680e-02  1.2944923341507172e-01  9.6237230578319843e-02  1.2611383143591154e-01  1.3873322426727317e-02  7.3860324567389501e-02  8.0050393958716076e-02  2.8369974082895207e-02  4.9446116439798633e-02  9.5620692027791637e-02  4.7466315887094213e-02  4.5291254428361252e-02  8.2958917374513233e-02  7.7303878103798976e-02  7.1360961934447381e-02  6.1381702837619706e-02  8.4264044361253912e-02  1.2392803829877111e-02  6.6915824780765330e-04  8.3160754935500500e-02  8.1435887044467498e-02  3.6610241648260877e-02  1.8068379425076379e-02  1.8177621655496537e-02  7.8548081818782839e-02  8.2943576535988425e-02  1.1614640547191027e-01  7.9934759817763379e-02  7.1598096070642589e-02  7.4322008738216552e-02  2.2843435972478503e-02  8.0591055534472170e-02  8.0953507909841016e-02  7.5028312356963861e-02  4.0221758954060119e-02  3.4919915782600526e-04  4.2104578925045689e-02  8.1186377233392060e-02  7.3656903035313248e-02  5.1881726014203343e-02  6.5333587535781903e-02  1.6615311091563414e-02  3.6813270870490092e-02  6.2915851117150909e-02  4.7114407338529063e-02  3.3121445163513778e-02  5.7025926929679699e-02  5.7362843538864297e-02  1.2289679442106123e-01  7.9390126373329817e-02  9.3214509237364060e-02  6.7020061075921178e-02  7.0966808083034766e-02  2.3060226043756848e-02  6.8015320458960374e-02  3.4164005172098819e-02  7.0582378038206522e-02  5.8347741201381295e-02  3.7879538736938535e-02  9.8185984074143598e-02  8.4344735446433158e-02  8.9624762768868285e-02  7.0686028253884689e-02  8.3892254142369241e-02  7.6893952545910846e-02  8.3056798714663330e-02  6.4719712528998080e-02  7.6137019022792574e-02  8.2220964650259909e-02  7.5367812832488182e-02  1.2619863081878985e-01  3.0085037486015259e-01  8.1376537459505627e-02  7.6571615035699758e-02  6.5112997354063909e-02  7.4588711134397370e-02  8.0559744320723270e-02  8.0114679088241644e-02  7.3386830440712689e-02  5.7525397374671203e-02  7.9231187735183436e-02  7.2567806090207673e-02  7.8394144806813504e-02  6.5839961741246136e-02  2.7906125571057389e-01  7.7940140706030114e-02  3.7947126077147696e-02  7.1316539628279829e-02  3.6200067520001759e-02  7.0418118723337711e-02  7.7035772142529671e-02  1.1437114224096941e-02  7.0435197274871006e-02  3.8165583334039882e-02  6.3048984825325033e-02  7.2831663225571608e-02  1.5064844625742682e-02  8.1950108510844000e-02  7.2607377141621895e-02  6.9619079675409035e-02  6.9349896036617925e-02  1.5193129008765191e-02  6.9079603787818356e-02  2.3211396096349892e-02  6.8825336408741680e-02  6.8565145969428878e-02  8.8276515239267606e-02  3.7383561442487626e-02  6.8315573473600275e-02  7.9880347435494437e-02  6.8068576443998843e-02  1.4775767939556284e-02  7.0924495712074098e-02  4.8871503153662628e-02  7.0697529809762016e-02  4.4299344010046378e-02  6.1143026358917843e-02  6.1204523030855842e-02  1.0266153932106602e-02  6.7337432825089402e-02  6.7087671305244956e-02  1.1290371434909710e-01  6.6836831747292685e-02  4.0562857087711637e-02  3.3899761930822642e-02  8.2693304486593705e-02  6.6603847651183531e-02  2.3946443262088994e-02  1.4024022596160030e-02  6.6388915575239557e-02  3.4227236058401313e-02  3.4941621743159998e-02  3.5254589233908763e-02  9.4960248302977182e-03  7.4194156164544889e-02  1.7089968671330922e-02  2.7189765676480859e-02  3.7888660962738817e-02  1.7151429531467055e-01  9.1792974164349693e-03  6.3772652147983958e-02  5.8625837016875168e-02  6.4109353198857050e-02  5.5469181440619610e-02  6.3392435291648674e-02  5.5325243011768756e-02  5.5327674573102760e-02  7.1463799088584010e-02  3.5226728020247587e-02  1.3009829409605008e-02  8.7643245489940305e-02  6.0063123093225243e-02  7.0057191097609176e-02  3.6592703670204847e-02  1.2637444631923593e-02  2.6761603438055476e-02  2.5966553667380977e-02  3.7436923558542091e-02  2.4859063184352222e-02  3.6602121910192423e-02  8.1551657402927184e-03  3.6128302340696222e-02  3.4738863880547284e-03  1.2040426407667780e-01  4.8069365021054578e-02  1.9614901690290266e-02  5.9670402524090393e-02  4.7268197508356979e-02  1.3221437301323638e-01  4.7512739308338645e-02  7.0915659144325571e-02  3.8203513470020878e-02  1.5914682749656214e-01  6.7242790144469142e-02  3.8410078145077201e-02  3.8843501974108845e-02  9.5159300791482021e-02  2.8058274324713521e-02  3.9921145144148795e-02  1.5765068914105423e-01  8.8132175520450232e-02  7.9523127642596447e-02  2.9029180842423150e-02  5.8813124026816342e-02  1.3961178192595178e-01  6.9828929507042892e-02  3.7136964517035208e-02  4.1080778582650850e-02  4.1589165714272201e-02  4.5963428214576219e-02  8.0465693176771838e-02  3.0600608266475975e-02  4.2793428185774154e-02  3.1751954117407902e-02  2.1494429737102656e-02  6.9449576306858454e-02  3.1738997393062546e-02  3.6295641006153456e-02  6.2293000955216130e-02  8.9427065431955888e-02  5.1198231147190444e-02  9.4828106547094518e-02  4.4154665140205301e-02  4.4779196865372420e-02  4.7134875815572838e-02  3.3698107389365538e-02  5.0437063992298296e-02  3.1507360207673661e-02  3.6026261937125846e-02  4.6007510090902044e-02  6.4379653475810109e-02  7.5609126635328705e-02  5.0090308271839093e-02  4.4855015971757554e-02  4.7810355963806395e-02  5.7253813483062077e-02  6.7677809269905451e-02  5.7757598496978958e-02  3.2103076686323458e-02  2.8966890085531070e-02  4.7254059064890136e-02  5.8032855535421306e-02  6.5651125106960084e-02  5.9389885795568191e-02  6.7189604091944855e-02  1.1962494569032317e-01  6.0134053155508349e-02  2.9322454771519547e-02  4.9567597320824483e-02  7.7507169157822339e-02  9.5027004241881569e-02  6.6076861051688515e-02  8.9814559821934509e-02  1.7805803370381559e-01  6.1667777316828459e-02  2.4617079861675169e-02  5.1091144123634608e-02  2.7073355141830811e-02  2.2086180174245202e-02  1.9797947115822691e-02  1.3889361737454798e-02  4.0369592971499037e-02  3.0478835705230838e-02  3.1569284014293916e-02  2.8852970572010889e-02  1.9103104699188821e-02  6.3463949270462908e-02  7.7933677751549080e-02  6.4276413755112893e-02  4.1278704526544648e-02  9.0645686390773306e-02  5.3645205579790183e-02  3.0220337660008582e-02  5.2655512003812507e-02  5.2977223568457320e-02  1.8022502013869172e-02  1.2527629391277928e-01  1.1985767750332006e-01  6.5944365105910188e-02  3.8029934317954581e-02  2.3211604101142848e-02  5.5313949223957652e-02  7.4624126824193726e-02  1.3745064571474136e-01  1.6155264725533214e-01  6.7871059495705141e-02  4.1952183711589444e-02  1.6098618935546918e-01  1.6144254019700921e-01  6.8726597612646101e-02  1.5867200626375148e-02  1.7693280098315026e-01  5.8072902274206993e-02  1.9555728357372429e-01  3.8777431667942688e-02  6.2473740568854769e-02  1.6052798736520674e-01  7.0520289430685001e-02  6.3871686440097566e-02  6.7638797580443485e-02  6.7801136067438386e-02  7.1188528750967664e-02  7.1864542461235706e-02  6.7924167321696066e-02  7.2133793195674145e-02  1.7047002250475608e-02  5.9933704618543311e-02  8.8903622538571078e-02  4.2759539634659678e-02  5.3290639987486499e-01  1.3571280255243268e-01  7.2599238394926852e-02  7.3533780002139545e-02  6.0872658743909335e-03  3.0614184278767963e-02  4.3078653116632115e-02  2.8514788090103943e-01  6.2866819742243979e-02  5.8313457911361418e-03  8.8813211930570429e-02  7.5579587184403038e-02  3.9966312556260132e-02  6.5918369466116289e-02  1.3710161128842377e-01  2.0013966350097754e-02  4.1821994902504440e-02  4.3859097265402464e-02  1.9197184542612006e-02  1.9233328289560498e-02  7.8734729544210805e-02  3.0126083059058395e-02  3.1105232330882047e-02  4.0809522213236769e-02  8.9283560116276597e-02  2.4040790172542112e-01  1.3005249821110690e-01  4.4691064741976774e-02  5.9303466903361829e-02  1.6098364004693111e-01  3.0541237773293478e-01  4.1708249828371118e-02  4.5621036292425747e-02  8.3416872842821399e-02  5.7892314239537786e-02  6.1450727653967870e-02  7.4508636727980360e-02  4.7772557878681780e-02  6.5163239551447399e-02  7.1380348124210791e-02  9.0461297380346958e-02  7.3859894535764026e-02  3.3179678359580883e-02  6.1221193148321654e-02  4.6053050711150324e-02  6.0361337747909222e-02  5.7913869938525285e-02  5.4352354553507502e-02  4.6777169008099403e-02  5.6324584569689869e-02  5.6186902107084297e-02  9.5992975760721716e-02  5.5512343782427427e-02  3.8033152998497449e-01  5.9741650323238665e-02  5.1875344564807385e-02  3.4836150113976221e-02  4.3140362571983372e-02  6.0641913760341851e-02  5.4037110634848867e-02  4.9960470475780228e-02  5.9220345885408365e-02  5.0863679821159684e-02  9.7821101557555468e-02  4.2434270072533739e-02  3.8060626522113908e-02  5.0363416169314057e-02  4.6977650286588672e-02  5.3012428022573471e-02  2.7621614839368491e-02  3.9972544058191027e-02  5.2710353053197621e-02  4.4164317068047729e-02  5.5402762098531275e-02  3.8590006452261787e-02  2.8024625876017655e-02  5.6455054458649165e-02  7.5110569212526165e-02  1.5866613479661625e-02  4.3251015103361559e-02  1.2946944743395694e-01  4.7984838634298269e-02  5.2017555885171297e-02  5.8592162048984514e-02  4.5350312917037991e-02  3.2965317255690902e-03  6.1073605969832523e-02  4.5260071115836069e-02  4.8287701241099122e-02  6.2165539708080572e-02  6.8837738180304281e-02  6.2628120196991377e-02  4.8772928358187667e-02  4.9106528827726932e-02  6.4379171827423268e-02  5.0765857075459435e-02  1.0304328043371955e-01  1.3042988691418339e-01  5.0948696570780626e-02  1.1827645076674444e-02  6.2205015619455411e-03  5.2429802757686522e-02  4.8793934146383645e-02  6.6941315453806063e-02  1.7203038756005537e-01  7.7776231773200533e-02  4.9640051500119721e-02  6.8067323785446276e-02  4.7010667688027509e-02  9.1608739461979213e-02  6.9162380774613091e-02  5.4473872553459757e-02  1.0866230965413785e-01  8.6352052017343639e-02  7.0340658744642348e-02  5.6776369562651245e-02  8.6910358063292073e-02  7.2933805537119575e-02  6.7181864110760617e-02  1.1311185028158455e-01  3.5834747507879169e-02  7.8060554402228241e-02  1.5017950835701097e-01  4.2148660627744437e-02  5.5635988813096886e-02  1.2426794531456595e-01  6.1918707945610621e-02  7.8385026303235267e-02  1.3286120955633693e-01  6.6187852933510566e-02  4.1703229346716497e-01  1.2666062622152965e-01  1.3520685374904065e-01  1.1243221948239212e-02  1.3632581592205273e-01  7.5014892828880839e-02  1.3052480238228092e-01  1.3857808544365280e-01  8.3642459442478556e-02  1.2724728683810083e-02  3.9837925522611162e-01  6.6625682055982516e-02  1.3296132692193177e-01  7.6188914544567485e-02  1.4097445800982167e-01  1.7244541612831364e-02  4.4445563471228487e-02  1.4210211415463561e-01  1.3692633570593263e-01  4.8243912937622341e-03  1.4444339294677264e-01  7.0635788590288448e-02  5.8257838866750372e-02  6.9775536808326141e-02  6.7161175921237423e-02  1.3946195948555870e-01  1.4686455432995946e-01  5.4856601392919334e-02  6.9651636891577162e-02  1.4802436913300784e-01  8.3348636750994048e-02  1.4355058090757894e-01  9.1920636763422797e-02  1.5043547521104528e-01  1.0578793768681924e-01  7.4322932567814110e-02  1.4619402283288713e-01  1.5291460656837341e-01  1.5412860477587675e-01  2.6608845577923640e-01  7.2694405687352165e-02  1.5044925666060260e-01  1.5662736139857969e-01  6.2018361618232432e-02  5.4157189251278944e-02  5.8310097235331287e-02  7.3051000873038632e-02  1.5328167633882961e-01  5.4833696744153823e-02  5.1007453257311451e-02  1.5918017228008893e-01  6.2054039562484807e-02  1.5619578506459256e-01  3.2171952351616476e-02  7.5975133952604065e-02  1.9258903262801792e-02  6.4446720734435442e-02  4.7466771363999773e-02  1.6177349231759339e-01  5.6559162639266539e-02  1.5908747065223627e-01  8.9616609274847880e-02  1.4870249773446019e-02  1.6067383130818350e-01  7.6868490170071746e-02  2.2346703761532371e-02  5.2830333865597080e-02  2.2555583317458761e-02  1.7463219021498298e-02  2.4579082619102154e-02  3.4066526142724339e-02  4.1581537954087637e-02  3.9682004373565186e-02  1.6577271775417968e-01  1.0061995043524302e-01  7.8992987766992970e-02  4.0042740729848175e-02  1.6373700640027172e-01  6.5301316731809916e-02  6.9876434044009311e-02  1.6538611744042012e-01  4.2852432584923231e-02  8.1316968981809304e-02  1.5337943067579863e-02  6.5764574369911899e-02  4.5774962076564410e-02  8.3301669588122573e-02  2.8988356205739405e-02  6.8449680470907603e-02  1.6994809790682688e-01  1.8422995442182195e-02  8.6270134544034649e-02  5.4175467452902665e-02  4.5041764779326565e-03  1.6860300809900231e-01  5.1362773432700813e-02  1.3791890084392516e-01  5.2461313221377259e-02  1.7032473107426235e-01  1.8555587461884590e-01  5.7502066387763492e-02  1.0466457838220479e-01  6.4129507727002905e-02  1.7430505508232216e-01  1.7647631202854393e-02  1.7323609167263648e-01  1.7445286460374645e-01  6.7734327968076741e-02  1.3560805074131066e-01  1.7924247293395518e-01  1.8201007694900259e-01  1.8367003496902917e-01  1.0727041054341220e-01  8.1390730711419258e-03  7.1411396378645770e-02  7.8874381094936427e-02  7.9039686535480949e-02  1.1544521199531878e-01  9.4735666219578109e-03  6.0492007214537000e-02  1.1903856708048581e-02  5.9915322093409065e-02  9.1236565172583980e-02  6.7541165516633778e-02  1.5623913996363960e-02  6.3314193788069850e-02  2.6298841418328136e-03  6.2398268888807298e-02  6.3879235343926533e-02  1.9632666029529566e-02  2.3647725400113829e-02  6.5405683971828887e-02  1.1846105376960304e-02  2.7709125463847222e-02  3.2009851126194748e-02  6.8827508139620130e-02  5.5568087372411375e-02  1.6450541094383864e-02  3.3313843463631546e-02  6.6924099752929775e-02  2.7887697162449418e-02  3.7304645959405990e-02  8.3579254461405517e-02  6.1055968211431784e-02  3.6270656174487048e-02  5.8763910198650182e-02  6.8197080424592105e-02  6.8988054846526134e-02  6.9187086247085194e-02  3.3475088471047382e-02  6.9574605649206714e-02  1.1507090712936494e-01  6.9866417095992020e-02  7.1445123989656661e-02  6.9328718050517921e-02  1.4072933497961726e-01  2.0995289633109489e-02  7.5683421593318909e-02  3.4781450517161881e-02  1.1892467582767305e-01  1.1153615776196731e-01  6.8746670416532207e-02  2.1064562153622890e-01  8.7055396828424239e-02  8.5123841126416078e-02  6.8624240222297947e-02  6.6426592732376333e-02  1.5793494950627240e-01  3.6559523883269568e-01  3.3726876935659275e-02  8.6578466961022060e-02  7.9333908464094757e-02  6.4632199891782177e-02  3.0551719671296185e-01  8.1661713940526501e-02  3.0142622735721797e-01  7.9382810057401068e-02  4.7630313624787764e-02  7.3884820692404027e-02  1.3776069071277028e-03  6.3092992321301528e-02  7.0108724156848240e-02  1.3279181905561771e-02  2.7302167318670096e-02  3.0836913563833595e-02  2.3924183574388053e-02  5.2780708535066202e-02  6.0288141883144651e-02  4.0102426471624861e-02  6.8340174994172165e-02  6.3909260563718817e-02  3.2845147421595035e-02  5.6986382367685759e-02  6.5251721292486908e-02  8.2416632465830045e-02  5.3272640542243621e-02  9.1690180600674770e-02  1.4729684251185463e-01  4.7579379057941289e-02  4.9160327873292359e-02  1.3250394219254105e-01  3.8210589625534426e-02  4.7171848833554880e-02  7.0553774201623481e-02  7.3567348173672151e-02  7.0033008967281388e-02  4.4604783019646543e-02  1.2882445605406445e-01  3.6235740438079311e-02  3.2191284894479422e-02  4.6168511141281114e-03  2.5349091056663806e-02  5.2189696013158815e-02  2.5954408031297806e-02  1.8422010062752979e-02  1.4023586667457200e-02  4.9495499162860356e-02  8.2855239687456408e-02  1.1411734591937522e-01  6.3042931669716640e-02  8.6311994136761452e-02  8.1931215308286912e-02  1.2666090813823791e-01  1.0317738323757462e-01  5.0963268313368414e-02  9.9113586122930905e-02  1.1568083559968534e-01  4.6024296832975389e-02  1.0800979525682684e-01  8.6901805274711627e-02  6.3744785508631436e-03  3.6489873259486344e-01  7.5599557826866179e-03  6.3595210474292813e-02  7.1218801119178110e-02  6.2481459997951218e-02  6.9745448533610477e-02  2.6450458513974259e-02  3.4125908533534449e-02  5.1204414300429983e-02  1.7564030670710065e-02  3.2037867474367515e-02  8.0438753637407948e-02  7.6058599012502101e-02  1.8987951382918705e-01  1.6343197919733454e-01  3.1438216870101655e-02  4.4368507967414650e-02  5.5190772166896662e-02  1.1477257378356336e-01  1.3228489299700852e-01  6.9489187025116209e-02  9.5533847284620485e-02  8.2428770554509631e-02  7.1739328980259892e-02  2.9899413258952522e-02  9.0681012230238833e-02  6.1450899200416395e-02  6.0981229814621542e-02  7.1497877058635459e-02  5.9575048065946129e-02  9.4455829355849896e-02  4.3293249412836174e-02  1.3748416927307017e-01  5.4994194262150256e-02  2.4010623302645633e-02  3.1766727867496383e-03  6.6101406995510273e-02  3.8057449594238076e-02  9.8290537850159204e-02  3.1774869119612664e-02  3.9742096404384850e-02  3.8635254584801951e-02  6.5135189173816180e-02  3.0316699951808752e-02  1.0524177118541259e-01  8.2412089406147457e-02  1.4113928295811987e-01  2.5381093971743080e-03  8.0024027175029377e-03  8.9288001890743554e-02  7.3261741038616185e-02  8.0900618439523397e-02  1.5690493164320460e-02  4.0776751633512444e-02  8.2484939505264171e-02  4.3885774947958651e-02  7.3157108040395394e-02  1.3457218727575628e-02  1.5054167818089602e-02  2.8774843548554974e-02  3.7477048392801790e-02  2.2139726242957954e-02  4.1998786397647085e-02  6.4674970183374647e-02  3.4982637847122917e-02  7.3001115814103137e-02  2.7788706505050758e-02  6.4593973577962108e-02  9.6387246659009704e-02  4.5027992924846889e-02  7.7458067264278230e-02  4.9409510130611492e-03  5.3249187457160146e-02  7.6005658237537993e-02  9.2019221739062712e-02  7.0907148958362087e-02  5.0262671369110598e-02  3.8569393971523919e-01  9.0015530458918233e-02  7.5250493557435849e-02  2.0560775747375720e-01  3.5594986252706134e-01  6.3835527548264742e-02  1.8384600939700253e-02  2.3136344114865381e-02  3.1497468717396088e-01  1.6705026200672821e-01  4.1532583247451814e-02  1.7965754719656515e-01  8.9676389518440716e-02  1.2063034510744049e-01  7.0154083636084566e-02  6.9910643307937587e-02  8.7188561488291710e-02  4.2650526184310221e-02  6.5127424228479627e-02  8.1776531054191429e-02  5.3769897556072054e-02  4.7488340499681203e-02  7.4268892974028458e-02  6.8229352084002742e-02  1.1063553842381123e-01  8.5594875163895565e-02  1.0614226645149588e-01  7.7146471751311285e-02  7.5599852479987240e-02  8.2628730516827162e-02  7.5465886914692387e-02  1.0937329748393497e-01  5.5760616251063370e-02  1.3061982143930853e-01  4.7723730538325987e-02  1.1217359697126940e-01  2.8535435916537344e-02  7.4529197750796347e-02  1.4838968704403394e-02  1.6115356370047176e-01  4.2319481901409806e-01  1.2764442984843544e-01  1.0777260345192978e-01  6.8229977692840296e-02  1.7222590020932993e-01  6.3134862584459356e-02  3.8975693027749225e-02  9.3127499441035891e-02  1.1472036016613162e-01  1.8164320916815913e-02  7.3511716233526994e-02  1.0530334514009673e-01  7.8735944023956866e-02  1.7887387149077091e-01  3.2982046503123169e-02  1.8496908688851479e-01  1.8121183995792378e-01  5.3316002868393587e-02  9.0310567703761085e-02  8.2256763103262853e-02  1.2663134010789859e-01  4.6696117033927037e-02  3.7011831239180490e-02  7.0040524633125198e-02  2.4852452069687343e-02  2.5913596515424863e-02  1.3618793493006431e-01  1.9167431936997426e-02  9.0125646909111484e-03  1.6028694736143748e-01  5.2889433977751206e-02  4.7682506881063201e-02  1.0472794129388122e-01  9.7064941423949280e-02  1.5038907030688933e-01  7.4360819045903137e-02  3.5558662693613713e-02  6.1368105978096667e-03  1.4830867929215426e-02  1.1178019778191092e-01  3.0821278384876027e-02  4.8270360145689313e-02  6.6825916794499285e-02  8.8314579623375467e-02  1.1639217981289847e-01  1.4195556714425189e-01  7.2142734669894001e-02  8.9887361811121738e-02  1.2018861704161665e-01  5.4096194460298265e-02  7.8999774121771907e-02  1.1893877472407938e-01  4.2509209889850470e-02  1.5447297522427825e-01  3.2800864838071458e-02  1.3623930992751118e-01  1.2809540395127050e-01  9.5711304621697038e-02  8.4832142234650090e-02  7.5128477099239824e-02  1.8443936194858654e-01  5.0031291853015671e-02  7.1117401505733438e-02  1.2710708875056467e-01  6.7415519463428594e-02  7.4327259821625316e-02  1.0902586442231349e-01  1.1273359659759068e-01  5.5662695349600187e-02  9.2672543049159589e-02  3.1981732762392423e-01  4.7390715874096524e-02  7.9836282304863879e-02  7.4819015892806651e-02  9.0595232715503668e-02  4.2376801115003998e-02  8.0938345206485990e-02  5.6269596908152503e-02  2.7368531527326673e-01  4.8073345200012566e-02  8.8490310782109810e-02  6.5944860073059039e-02  1.7070725508675469e-01  1.4047230200705116e-01  1.3940366793043310e-01  1.0166948615100643e-01  8.9221102019715601e-02  7.6158163852448210e-02  5.1273264802246692e-02  1.3739369057863687e-02  8.4429203634591998e-02  8.2085582534952267e-02  5.1556487732080082e-02  6.3736064848377613e-02  6.9741023254697609e-02  1.0119428702297968e-02  1.0884187164911471e-01  2.2693924895493087e-02  9.4365313700636388e-02  5.4231260479638520e-02  1.2939864229838999e-01  7.1099408693533706e-02  8.4228272036235979e-02  3.5905946408856310e-01  6.5495852329489554e-02  3.4575221670620870e-03  9.3277850965662268e-02  9.0433281864759935e-02  8.8246470719938408e-02  6.7834796925421839e-02  4.5467413212790818e-02  1.1008525754068282e-01  1.2454390028573920e-01  1.1359109092762974e-01  2.6618640742819690e-02  3.1448659538384695e-02  3.4589439734515302e-02  1.7422980614891867e-01  3.1782410012828693e-01  1.7238737518619974e-02  1.4997274204511205e-01  7.2726369589600937e-02  5.6122747679087807e-02  1.6169210352365496e-01  6.0109927748325125e-02  4.6424038881422408e-02  5.9797863132071562e-02  2.8951752168583637e-02  7.9556296488330014e-02  9.8750784423412494e-02  9.0569070726092701e-02  8.3950053359781132e-02  9.9777254212910546e-02  1.0550985074507732e-01  9.7747057159734974e-02  1.5914804027384145e-02  3.4272653211292456e-02  4.6339136677239101e-02  9.9578668055929229e-02  4.9920826968838018e-02  7.0865614612610900e-02  1.1937401800726706e-01  2.5085444999952300e-01  1.1135818325045384e-01  5.1226319128348782e-02  5.6562835694005754e-02  7.5953982540315906e-02  3.7610425700676700e-02  6.6576476003441271e-02  1.4201240934296877e-01  3.4804787940043284e-03  2.7244798002018920e-02  5.0858297556725621e-02  1.1175254416169443e-01  1.0556252830889537e-01  8.3031232527274790e-02  4.0699852387956266e-02  1.1803911389678963e-01  5.9050488993522221e-02  3.1357248013377764e-01  1.9725207211740303e-01  7.2997217397991518e-02  5.1778141154217687e-02  1.3188810403847531e-01  2.6964390111552056e-01  9.3516055258238057e-02  4.4090623269410371e-02  9.0590386407550336e-02  9.5339244553152319e-02  1.1535483178926668e-01  1.7952770265437887e-01  8.3982380433007306e-02  6.4445656206714455e-02  1.6705101304514258e-02  5.9804904354304550e-02  6.6321283535683853e-02  7.1859259745266635e-02  1.2544677994562858e-01  3.2128610098305574e-02  7.5068490508063912e-02  9.1881048687479219e-02  1.6056240042852270e-02  9.5960600783995834e-02  4.3929136808168873e-02  9.7427328975872363e-02  4.9142622024252292e-02  4.4505836054522513e-01  8.6127031987635553e-03  8.2737987005400790e-02  2.1884840728096117e-02  1.8496766375133727e-02  1.0364740854074386e-01  8.8173110157534124e-02  1.0459911600281563e-01  7.1400914660755599e-02  1.3798429025908338e-01  9.0279362795008353e-02  1.2745593886273898e-01  1.3589764403590202e-01  2.0822225872413315e-02  5.0899650795448871e-02  6.6956937661599519e-02  2.4659547512602454e-02  8.8548077670710837e-02  4.8993560285333866e-02  9.0508964853899948e-02  9.1458037194340633e-02  1.0932784539531719e-01  1.9446590486333903e-02  1.3078234425267296e-01  8.5237035068656528e-02  1.4094660997296143e-01  1.1247417042734237e-01  1.1170256931396394e-01  3.5505552197417113e-02  6.2039591666612194e-02  5.3319694041610494e-02  3.6673004808590953e-02  8.3758303649386454e-02  1.3251983539105486e-01  2.9148323355609664e-02  9.1808461965739302e-02  2.5845920701541286e-01  8.2641890773432314e-02  1.2238217638298484e-02  6.6012295647177949e-02  9.5339421103879232e-02  5.4278781677778200e-02  1.2932109651355758e-01  8.2274242454869723e-02  1.7646006844961418e-01  1.7167089344761723e-02  7.8789651762473725e-02  8.2838924294177121e-02  7.2276407540571352e-02  1.4564962748290539e-01  9.6777096050059703e-03  7.7982821821922288e-02  5.1881912332794253e-02  6.5787685105506852e-02  5.4039374874887261e-02  6.3854707890205295e-02  1.6628913141201485e-01  7.7605400895235446e-02  4.8348197419611126e-02  3.3004020006897200e-01  2.8636920150155058e-02  9.1378751852254983e-02  1.1853423774946548e-01  5.7014020088286856e-02  2.7043056126473775e-02  6.3828146701637722e-02  2.6822175400721537e-01  2.4175316050921072e-02  8.6320122193460302e-02  8.3600373839489789e-02  1.1414757139102896e-01  1.2545370422321139e-01  1.9321480088355988e-02  3.4447944310895970e-02  5.0547489760494023e-02  2.0720425740193057e-02  1.2093289333298093e-01  9.0588333526132478e-02  1.3734606813763298e-01  8.3073195982849179e-02  3.8553209170667894e-02  2.1288643788082436e-02  7.9970682077403654e-02  4.8473617699489012e-02  1.2779249171109749e-01  7.5148068500531184e-02  9.6501816467207541e-02  9.0729621908471683e-02  7.0229571989398651e-02  9.7562155148160370e-02  5.2225862965552719e-02  9.6834338652057039e-02  1.0007567284551168e-01  1.3000448050473859e-02  4.6177627156548037e-02  1.6297743779699239e-02  5.8590258359499048e-02  4.3761836600371046e-01  1.3880474714811902e-01  1.1252264320221034e-01  7.5056347050726183e-02  8.1031680035562829e-03  4.4331776829249110e-02  7.2824963205328705e-02  7.0500971243567689e-02  7.2334054697139147e-02  1.0396819254969236e-01  8.4474546411541535e-02  5.2483319024114142e-02  1.0879900235588391e-01  8.2973245619924113e-02  9.4061843323450370e-02  8.2792936852277704e-02  3.3517417519056486e-01  1.1862878454444621e-01  1.6608813799397953e-01  6.0108604351619070e-02  6.5179179085085595e-02  3.6847073067010405e-02  9.3893373641979194e-02  4.1885242598952474e-02  9.7296168928749177e-02  3.3086927901052049e-01  8.6048868275503371e-02  8.1432147415732126e-02  3.9735711494468542e-02  5.0192990580956352e-02  1.9076728090111980e-01  6.9303662527857177e-02  2.5591612486650109e-02  3.3446886983980390e-01  7.9501252543607723e-02  1.4139045792675967e-01  1.5364203272618987e-01  1.3665162754027710e-01  1.4031557495516326e-02  3.2753383457676720e-02  1.7383750014603475e-02  3.5669218759692499e-02  8.6114704510565326e-02  7.2040122864193951e-02  1.0567937621471996e-01  2.2860083904444439e-02  6.1539120788304022e-02  1.3993447716468214e-02  1.1615091025080393e-01  1.7163688972050159e-01  2.5759111377435858e-02  2.9085781214844921e-02  8.8102112609588432e-02  6.7620925487520814e-02  5.4649103786261741e-02  1.0451845416880627e-01  1.0532828303894715e-01  9.0021557817869913e-02  2.8590532212278138e-02  1.9851013060875698e-02  1.3785974701437934e-01  5.5220401951639471e-02  8.6010064819965926e-02  6.4668970262603612e-02  2.6936793313961305e-02  1.0264814764722102e-01  7.4210842347598976e-02  1.0716952892169307e-01  3.4111392906651258e-02  2.0759761118387038e-02  1.1770857808412324e-01  3.6270205124440097e-01  2.3156957618635260e-01  3.0369949228110021e-02  1.0408756159013456e-01  3.0549263889003097e-02  5.3891463123156236e-02  5.5427738778925879e-02  8.9344766680339679e-02  3.2999668951179881e-02  3.8366256289385336e-02  5.5261269943549768e-02  1.4070987180944722e-01  1.1746453540717762e-01  1.3594285255532043e-01  4.4129459933264031e-02  7.6167179347564049e-02  1.4182211039783416e-02  4.4513759893088110e-02  8.3912113991012838e-02  5.6481603324170196e-02  1.0279380591578099e-01  3.3744046958869858e-02  1.0821440538089255e-01  1.3604320660377858e-02  9.9300249875548911e-03  1.1375345633008857e-01  1.6232986126187390e-01  1.2293485851674954e-01  9.1138446264958095e-02  8.0369946931243025e-02  2.3329016925515523e-02  5.3467474300346207e-02  1.0355467357343379e-01  8.0516254909731549e-02  4.3762153780465456e-03  1.3059133682898622e-01  9.6857235331632582e-02  3.4743303728306668e-02  1.6004600785865239e-01  6.1891182766731952e-02  3.9448784602852872e-02  4.3642916111031549e-02  8.2243119440116266e-02  1.6919180252858229e-01  3.2635432298561567e-01  1.3787740336832613e-01  7.0502033600810129e-02  4.8561334264262228e-02  3.2744256371300673e-01  1.8075193216473221e-02  5.4382603657069414e-02  6.3901392417412675e-02  1.4002291079739754e-01  9.6966028830405879e-02  6.3560016585128484e-02  1.6038423175961342e-02  1.1448547375398764e-01  9.2366922056038941e-02  7.2476991069511998e-02  4.8697905640498744e-02  5.4862902779332402e-02  7.1882997898886997e-02  9.0047093046670468e-02  9.9978206160645414e-02  6.6829165754391212e-02  7.2911929139090115e-02  1.1818042487728825e-01  7.7932070238911855e-02  8.0519025979103667e-02  1.0929392510698353e-01  1.4719358914677838e-01  2.1834731510097877e-02  9.2737602713553746e-02  3.2282360919688696e-02  6.4550288005748829e-02  1.1794780896359425e-01  1.2251433409090896e-01  3.1251799518884175e-02  4.2189129850501619e-02  1.4372056005582079e-02  1.5255310103587616e-01  1.1156813773665236e-01  6.8134726744401686e-02  3.4646305690194523e-01  9.1070347395348236e-02  1.6239041453326261e-02  4.5454196379914363e-01  8.1130107486146297e-02  3.3668368818247162e-02  1.0331682640241804e-01  4.9571602064493944e-02  9.2391588970243257e-02  7.9805454643817456e-02  7.8358543137599407e-02  8.9252132104632037e-02  6.3353141285665937e-02  2.3775343771934677e-02  4.9269649881909371e-02  4.9216937523398126e-02  1.6653105754279823e-01  1.0600979671493554e-01  2.2140417774056131e-01  7.2186694392954845e-02  4.4273705027754184e-02  3.6902170692520192e-02  1.0056806458541381e-01  4.6394616956119572e-02  3.4445495141860277e-01  4.5608172322262198e-02  1.3891552516409164e-01  1.0281814585546230e-01  1.8528043424842569e-01  1.2824755596224660e-01  1.2709551823138676e-01  4.6994410848948488e-02  6.5672432139438061e-02  8.3118520365371415e-02  1.7440859818186896e-02  9.0309125555368366e-02  7.9681299028006955e-02  3.7781130579262752e-02  1.0801213182394120e-01  4.8935116361488860e-02  8.4340721349342535e-02  3.4609616144198868e-01  9.9295700992107910e-02  9.4685533691065610e-02  6.2920409904971081e-02  2.5872197765898486e-01  4.9318152209118726e-02  3.5150328827674460e-01  4.6343929255553078e-02  1.8792938384518364e-02  5.8078506408335687e-02  3.6265685304057243e-03  7.2439019587538622e-02  4.8142454937272684e-02  3.3199237424870971e-02  1.2873723345325258e-01  8.6186613632701067e-02  1.0841666968944684e-01  2.0659559988381735e-02  1.1335784366459174e-01  5.4870667514165944e-02  2.3098688273504447e-01  9.1300861621971707e-02  1.0815504995326082e-01  6.9764279681259284e-02  8.8292769259212422e-02  1.0919947094658466e-02  5.3085449895973962e-02  1.4106599545233625e-01  3.7871556699281300e-02  7.9757132605664194e-02  6.7876231709511861e-02  1.6397580561733402e-01  1.5130158848353498e-01  5.6819694754784732e-02  1.4649266699006493e-02  1.9562563844278614e-02  9.5192067619418438e-02  3.6458522531064347e-01  1.0394529237051353e-01  8.1117433277215489e-02  6.2677282220903491e-02  2.4093244903882954e-02  4.0942610395127269e-02  8.4741665706593750e-02  7.5524506933176000e-02  1.2778121875896137e-01  1.3005384775413520e-02  7.5578005902125225e-02  6.2795434495608066e-02  6.0434618163474688e-02  3.8339399889418285e-02  3.6744243657556054e-02  5.8913301875986930e-02  1.5734959642256627e-01  2.2116026186116697e-01  1.0370131025842447e-01  2.4853189108185954e-02  9.2173480328025192e-02  1.1992310435189346e-01  7.8923303007487053e-02  7.1837710523078691e-02  4.1192891389367443e-02  4.0173255729980961e-01  8.7125222252270474e-03  7.0179903492376405e-02  6.3966760988325405e-02  4.0370883483553555e-02  1.4309252242628970e-01  1.1624994149690195e-01  9.6292304638506479e-02  2.1481454332292153e-02  6.7274140171134436e-02  1.8140625879513400e-01  3.0673843748176876e-03  5.4846992355773463e-02  4.3421493880074921e-02  1.0367247196381217e-01  1.0976807627050263e-01  8.0755593150399513e-02  7.9109136671468280e-02  5.3466976549397117e-02  9.7964356685478454e-02  8.0001206837555516e-02  7.7680212578520730e-02  6.2762689280529735e-02  5.1679158346926761e-02  9.3072337309851455e-02  2.5413602073633651e-01  9.3701300180362504e-02  1.0014514417107100e-01  7.1402022186895786e-02  8.2334104964622276e-02  4.6663817570812442e-02  7.5334910003872185e-02  1.6095745984984572e-01  8.3147344679792706e-02  9.1471142408927453e-02  2.3019560898174019e-02  1.8241603477859403e-02  2.0318797479961605e-02  6.6065462870535663e-02  5.4786938484431745e-02  4.0816305295849953e-02  1.0814747670362722e-01  2.4758815233928447e-01  4.9381976703151378e-02  6.6187423524092775e-03  1.3340705933442280e-02  6.5840421175484720e-02  1.3932458925624477e-01  4.0328223792878391e-02  2.2397101967306257e-01  1.2873867046161572e-01  7.4391966098766207e-02  1.1143756824960041e-01  1.5842052943977644e-01  6.2217066321228226e-02  5.2279455114351024e-02  1.4160128426049848e-01  8.2238044000615046e-02  2.6131430800825001e-02  1.4851945270596792e-01  4.6354647878580973e-01  7.7350480072585992e-02  1.1045710077764288e-01  3.8936838679244010e-02  1.2548074481058979e-01  4.3911209629422375e-02  3.8133944212991940e-02  5.3350958672716562e-03  1.1024416457149809e-01  9.9962034007044204e-02  8.9107501255658333e-02  8.8723939033115276e-02  3.9404042438237391e-01  7.2773289414220219e-02  1.2052207677778881e-01  1.7506037203172307e-02  8.6063874337164212e-02  3.0822189829610946e-02  4.4445957882143547e-02  6.5230466038289692e-02  7.7523930691275153e-02  8.1677613753410802e-02  3.7473656498444703e-02  1.5648165020751312e-01  1.1682181527621339e-01  9.3152978733040598e-02  6.2290683369540641e-02  7.0076496422798215e-02  1.0623667096775530e-02  5.4504145589671073e-02  3.0618372262128289e-02  7.7404712838736137e-02  2.3067898175455154e-01  3.3969620481715573e-01  2.5159386177427739e-01  1.0438643454352808e-01  6.5326451663616128e-02  1.1875266885501702e-01  8.1531035102899704e-02  5.9607834393197168e-02  3.5046505147206933e-02  2.2917644276159471e-02  6.5152546986532153e-02  9.5905924272883886e-02  4.1385770166036506e-02  7.3598732308398140e-02  8.6775431358922184e-02  7.8179890020319470e-02  7.4352961131035344e-02  1.5693670198063919e-01  1.4564866444176205e-01  2.8242244341788137e-03  1.2812020572227703e-01  1.0782511545944186e-01  1.2832691090774007e-01  1.0045781927790050e-01  6.1095110463463075e-02  7.8965038271029284e-02  7.7406212856296619e-02  3.6550218947389655e-02  7.7032766887533952e-02  3.6852069983635410e-01  1.9187426976765728e-02  7.0489295854081174e-02  3.6791622504467242e-02  3.1173405234672469e-01  2.9651272288705365e-02  4.7693767123424248e-02  2.2597247097831644e-01  5.5637709091777843e-02  4.5633553244673976e-02  4.2220011210564130e-02  9.7625942983331285e-02  1.4795830607392241e-01  5.9512134356923853e-02  8.4593784009446296e-02  1.1886072100194402e-01  7.4393268527987749e-02  9.1347008258055098e-02  8.0597694980994408e-02  1.3830877494046065e-02  6.0391919493628800e-02  6.1826065810057729e-02  3.7054902038988546e-01  4.6075274006365863e-01  5.8759754505770576e-02  1.6704420209846031e-02  5.5441425882083326e-02  9.6125185325897089e-02  8.4126718834723682e-03  7.4154563600341325e-02  1.2215131844197293e-01  3.4887319081181048e-02  7.9179449403298657e-02  3.8048908461503222e-01  3.6618157372225435e-01  1.0106058746168206e-01  4.4764483379199249e-02  2.9989160769364404e-01  7.3107528784168804e-02  1.6230052582572913e-01  6.0818218368314421e-02  5.3916138292643759e-02  4.3473899811729853e-02  1.9040992077835300e-02  1.7501374994264199e-01  4.9093524354981384e-02  4.2703642513594646e-02  1.5404542250658435e-01  1.9071195250082700e-02  3.1643832426967250e-02  8.7116157914494868e-02  1.3905867049581375e-01  3.6301904717299238e-01  8.2053528171704637e-02  7.7575010269479175e-02  1.2905228086780163e-01  1.4354581318771431e-01  3.2844773405283994e-03  1.7899223804292591e-01  9.3915012101099801e-02  3.8010963748729157e-02  7.2108768950717383e-02  2.5512773654022836e-01  3.7840752114359354e-02  3.6642262373061237e-02  1.5199473166185565e-01  8.3171747995850864e-02  4.1801618927171207e-02  6.1432427702729622e-02  5.1809604588539025e-02  1.1173217807267539e-01  7.0860332850345112e-02  3.7493735737967056e-02  1.2908549467235064e-01  2.8596404324033049e-02  5.6581498079316964e-02  1.2712413047486507e-01  9.3940891285973799e-02  6.8068668497339502e-02  5.3966192677082039e-02  1.1684570167743355e-01  1.9759126049781915e-03  6.9580811520129598e-02  1.7620391739498067e-01  2.2671207613631852e-02  1.3687885207369505e-01  3.0698569756643406e-02  2.1828818249398200e-02  2.3562173784523710e-01  3.1740417140396666e-02  6.5698566644050091e-02  1.1034037917626572e-02  7.5995891204595517e-02  1.2548974459007262e-01  2.2472048577386852e-02  6.0501707882088272e-02  4.2286884777623206e-02  3.6421448945120982e-01  6.7019473174199012e-02  2.9202301978930639e-01  4.7939048921360222e-02  1.0297868003817781e-01  7.6033575074676896e-02  4.5357901012074923e-02  5.1368695906691367e-02  9.2892419996442974e-02  6.2649848532185096e-02  4.3647061110288549e-01  9.1767198705655625e-02  6.7674748086573935e-02  1.1427296489382811e-01  1.0692697244480059e-01  1.4505453142434732e-01  2.2445532138435348e-01  5.8683785199607076e-02  7.0168687658890968e-03  7.9359300620020529e-02  2.3621551666045495e-01  1.5157018610831563e-01  2.0181079764339784e-02  6.1020154773465375e-02  3.2932069784257105e-02  2.5377633339102874e-02  1.1681276002987054e-01  9.3602386896482190e-02  4.7636549583184737e-02  8.1915855893583911e-02  6.2469415993957479e-02  3.0648262825204647e-02  3.3188178433578693e-02  3.2187560132043443e-02  1.2436678848843977e-01  9.4221676786205050e-02  4.7329945995750758e-02  9.3917407511400680e-02  4.9629323622461127e-02  7.6542580406975050e-02  1.1182330489151135e-01  1.2594916685067947e-01  9.6895035789386783e-02  2.4661909275016511e-01  1.0789336062366107e-01  3.9764257182522090e-03  4.5483014089943395e-02  1.0739406423709359e-01  8.7981823332945200e-02  6.1225741944439187e-02  3.8387535674914049e-02  7.5837101628092651e-02  4.2041979729329153e-02  3.5408865729833247e-02  3.1326926017310325e-02  8.9154026971575637e-02  1.3310451111506763e-01  8.4191151862874902e-02  1.2408710893218854e-01  9.0206756199566501e-02  7.2679273630312541e-02  2.3407235437350593e-01  7.4899786698683232e-02  5.6151041718869393e-02  1.0128650824928422e-01  1.4903321424598770e-01  1.2917076290165261e-01  6.1030032593184666e-02  4.7040238594699296e-01  2.9370181011986746e-01  6.6136338570767880e-02  1.1518332584041169e-01  1.3923446807289921e-01  5.0021943427736741e-02  8.4542491566137343e-02  9.8629721210829469e-02  1.7795029951891268e-02  1.2461079492626631e-01  1.5064619443218102e-02  9.4553110185732481e-02  8.9760435590712645e-02  1.4390613593529805e-01  1.2782249276145427e-02  3.3399499220187680e-02  1.8725632461334268e-02  7.3219754653973887e-02  5.1859990660733213e-02  9.2834803078852043e-02  1.3402750156422136e-01  1.2082100319923533e-01  9.2445172359200994e-02  1.1184864851867726e-01  4.3474586966938789e-02  2.0654058459644718e-02  5.4591990589330050e-02  6.8096677949468068e-02  3.5200701854673039e-01  7.9708281905196618e-02  9.3281479351497901e-02  6.5873850409466139e-02  3.8319945707827770e-02  4.8306903850985579e-02  7.6112429917340629e-02  9.5516745746328111e-02  9.4094261596426199e-02  2.3904776199585070e-01  4.5041152736158621e-02  1.2057326582348109e-01  8.0882411764794077e-02  1.6044530110817543e-01  1.1523076127992458e-01  1.0102977681208113e-01  1.5590975270131244e-02  7.4716586550429218e-02  5.5874849165313864e-02  7.9121946022976827e-02  1.4101114493945968e-01  3.6849891422425396e-02  5.2194652503602286e-02  1.2560907553107398e-01  5.1527109377430561e-02  4.5339388582178029e-02  1.3975831067579013e-02  1.6049912023410901e-02  4.5809814127523553e-03  1.4639803874456730e-01  6.8189583639224241e-02  9.2514944637303836e-02  1.3243312776322713e-01  6.7587561229959917e-02  8.4498570548957069e-02  5.4970239449290748e-02  3.0227281070348305e-02  2.1334461876759581e-02  2.5267422765624322e-02  6.8653738685016313e-02  1.2201262234492523e-01  6.0657274986143511e-02  5.7220235508818633e-03  7.5455698049901654e-02  7.1797730711937569e-02  8.3628481156033690e-02  8.6236258423680913e-03  7.3764383261582731e-02  7.3753607471919044e-02  2.9125377291840099e-01  7.7400764140670222e-02  9.0529696990729963e-02  8.1824145456815087e-02  3.8586289870608381e-01  3.9953933211404280e-01  9.7927627912670207e-02  2.3613769263627934e-01  1.3150597759686028e-01  1.2646846507916551e-01  8.9881004500213690e-02  9.7949709155012429e-02  6.3157882303922358e-02  1.1976626728216752e-01  1.1206163403983510e-01  6.0191965303306443e-02  4.6301829164972003e-01  3.8945400222811739e-02  1.1130580507291118e-01  9.5611373099025454e-02  1.1742247969193717e-01  1.0239276890534244e-01  7.3688184312230592e-02  1.1052690016896434e-01  4.1581912746855090e-02  7.2839542227846277e-02  9.8685689092817844e-02  1.2940813314143362e-01  3.5601774224429539e-01  6.7856951953323696e-02  6.9605433123362301e-02  4.9601238981382779e-02  1.4387423979657929e-01  1.7934300205553716e-01  1.4373828306815614e-01  9.4347586367625885e-02  4.4184272794980849e-02  9.2901910677078106e-02  7.9395868549024542e-02  3.0236026160534300e-02  2.3450357669535965e-01  9.2220003831298657e-03  6.8901403061610231e-02  1.9885428756282859e-02  6.1134904069549342e-02  7.1178207442600033e-02  4.9469608481132445e-02  6.0415863521586871e-02  7.5677934775872924e-02  7.8458243253615584e-02  1.0006522400664745e-01  1.4836391942552846e-02  1.3183817480387680e-01  1.4912404432948828e-01  2.1961651282045372e-01  1.3029130814157133e-01  1.5958982905338408e-02  1.4499621262956233e-01  7.1492106946102696e-02  9.5321022447511075e-02  2.5658814042927976e-02  7.5868370710252847e-02  1.1295256244200548e-01  4.7551575243304646e-02  7.2474756081956151e-02  8.2488771338371805e-02  1.4063451764791124e-02  1.3637817375793218e-01  1.2901764952121145e-02  7.7804418512633741e-02  1.0835804946295592e-01  3.1111788126402265e-02  7.3439137347326766e-02  4.1697156643216111e-02  1.0753742677487068e-02  1.3051726465947602e-01  1.1079738454188547e-01  5.6915682999869176e-02  1.1933198048857523e-01  2.4462690216767841e-01  1.3456113239063178e-01  4.4724364850324348e-02  7.5960443514454967e-02  8.6100477391207977e-02  1.6407839335658082e-02  2.1169432378199026e-02  1.3141834840494243e-01  5.9765622347587588e-02  5.8330200167961109e-02  3.6129233663229982e-01  3.2385145592252605e-02  9.6446519192137925e-02  1.7524886123370869e-02  4.6420831986636199e-02  4.7813272917302981e-02  1.1698732240069558e-01  1.6075532298856363e-01  7.6298608569555920e-02  5.4037869286657478e-02  9.7806786132239431e-03  4.9080736598601717e-02  7.3514462140223488e-02  3.5352958681006419e-01  6.9374554181975023e-02  1.1231401270727843e-01  6.1663279704423431e-02  8.1927434787282663e-02  9.0667880491921343e-02  3.6041512657021135e-01  7.4924232802804067e-02  7.5995930614646989e-02  5.0460311259782779e-02  8.1606294357611589e-03  7.9578446274533102e-02  3.8112381280802014e-02  4.4481518360235520e-02  8.5496720174829108e-02  4.5309610694359105e-02  9.2538168702757856e-02  2.3187566261573467e-01  9.7027941612462976e-02  1.3707641558715758e-01  8.3976309082101047e-02  5.8756466883519987e-02  2.2442597937340589e-02  2.4479794540922934e-02  8.2748144821669090e-04  7.0635536955381745e-02  4.4154547549255213e-02  6.1179236899748246e-02  1.4171805545033511e-01  1.1499695480352048e-01  5.2106421891877946e-02  7.1172407390701367e-02  6.6910313425141227e-02  5.9534957890628432e-02  1.1184180057220483e-01  2.0129507190468462e-02  9.6362810693273168e-02  9.5585760836379208e-02  5.4283449926428362e-02  1.3084414364855429e-01  2.6133904182639223e-01  7.4138694488946805e-02  9.8823188988536766e-03  1.8985517424203860e-01  9.2430088755786038e-02  2.2088837246625886e-02  1.2299847439785486e-01  7.5700610010876135e-02  5.3019110692722485e-02  2.3198853531109686e-02  1.2960461968607037e-01  4.9500993176838613e-02  4.0073475797215631e-02  2.4744436662262843e-02  2.4303053179366430e-01  1.5114757460698283e-01  8.8868768512079727e-02  1.0993374749397933e-01  9.4763351925297098e-02  5.2230978249713636e-02  9.0944722345718279e-02  1.3726426681508935e-01  6.9207572292704234e-03  2.7224647901059940e-01  7.4158810920553833e-02  1.9105715962585684e-02  6.5334015696990613e-02  2.7232445533287110e-02  7.4907513528279152e-02  4.6887937064624352e-01  2.5231960049949154e-02  1.1636480926284266e-01  5.1214133460576065e-02  8.8726329196231218e-02  8.9876806284391736e-02  8.0376674879624910e-02  3.9313739519815827e-01  1.2936946758929110e-01  7.6886045787089075e-02  6.0014619500095075e-02  1.6655558244918069e-02  7.2238583150395469e-02  5.2919039184906203e-02  5.9331950794987480e-02  7.9556107934694698e-02  7.5983939706952733e-02  3.5014752445328715e-02  3.1477676499224005e-01  8.4170856862623392e-02  2.0007047772736108e-02  9.2127129489798745e-02  1.9275978979107417e-01  3.7971693663352311e-02  6.9159831838906519e-02  8.4882003507125034e-02  5.9014411871237606e-02  1.1277491625778724e-01  1.0983355424433265e-01  4.6279484097799117e-01  4.0065962207734944e-02  1.5157391018900929e-01  2.3102193342842577e-02  3.0988376498461642e-02  1.5608476940600793e-02  9.2425440615949428e-02  1.3380501603027864e-01  1.0792739919663742e-02  2.7002179759613804e-02  7.6579190516360557e-02  3.7148078293864385e-02  5.3881329696403968e-02  6.0160079561261924e-02  7.3583679549285477e-02  6.8682442261114002e-02  3.5465798971844618e-02  6.1437579603979470e-02  7.9973098529105280e-02  6.8267217011863918e-02  9.4617411452133149e-02  9.7529226915331155e-02  1.6271943878081438e-01  7.1437143053453209e-02  2.0940110999924752e-01  1.2361373489170864e-01  9.5821273628628495e-02  9.2075562600918481e-02  1.4685808453346064e-01  1.8970959751232641e-02  1.2803210842116189e-01  2.8949886705390896e-02  7.8819913949289278e-03  2.5091637825800600e-01  7.9728282179580487e-02  7.9385276397554300e-02  8.3566256953503282e-02  5.9413604155679985e-02  1.3469481138721903e-01  3.6780480917822833e-01  2.8472496806308686e-02  1.8787066583951930e-02  6.5025652248913046e-02  4.8547955711297948e-02  7.5895127558387593e-02  7.8955046011689831e-02  8.3029746440035537e-02  7.2946841129170423e-02  3.9022064983065763e-02  9.0267195373985018e-02  3.2424017095618533e-02  1.1597951610865537e-01  1.0700320649096692e-01  1.1554936829562548e-01  4.7772784471150437e-02  4.5448702064349106e-01  1.2539368100060017e-01  1.1237140371790312e-01  4.1447894665900216e-02  3.5945494313232784e-01  3.6750552263370800e-01  8.4366705048520410e-02  1.1325697638625871e-01  8.0042215523019614e-02  6.8904319568783665e-02  8.0674973622139087e-02  6.8768897416308594e-02  1.4780152604301158e-01  1.0227926017812979e-01  1.2061337222298425e-01  7.5482130287869140e-02  9.1823586659924211e-02  7.3428565801081744e-02  4.0921614429773427e-02  2.8996711383806967e-02  8.0720466515122394e-02  4.7311565741405111e-02  8.0405592373505891e-02  7.8651807184394185e-02  6.8141803481219607e-02  1.9958627022827868e-02  3.6808125507499567e-02  9.5241293901300914e-02  4.3725719044872408e-02  2.3376058877593961e-02  7.0329039751575215e-02  2.4088300749839586e-01  1.3027657930340544e-01  9.4300163567760595e-02  1.3242805056301332e-01  1.0135631590790718e-02  4.7940970213157776e-02  1.0583059581268506e-01  7.4222519941919196e-02  1.4108227792051573e-01  8.9691027261936979e-02  8.0986173363581465e-02  2.0868525468666764e-02  4.5060253584680916e-02  1.1337971654711803e-02  2.8053393865898328e-02  3.7471849036223290e-02  1.0216521068774889e-01  3.5097384938000610e-02  9.0370675523897215e-02  4.0027560034121022e-02  3.1921512021614515e-02  5.1444097237345263e-02  2.5025610564993694e-01  7.2101780257985179e-02  1.7272686310014929e-02  3.7583343650431700e-01  3.7576594406077156e-02  3.8117175036398690e-03  1.1583666414273283e-01  7.7701114194317009e-02  7.4005735912390153e-02  2.6071019962808767e-01  5.7203841874328615e-02  6.7573318773568009e-02  1.1974472370149068e-01  8.3788710699995342e-02  1.4059742518786911e-01  8.9858038819392388e-02  1.3025257625281303e-01  7.1629239154223173e-02  6.1272374703624552e-02  4.7738100799795659e-02  1.0069950206174955e-01  2.2286930502509797e-01  5.4023146424110602e-02  1.8463561872818005e-02  8.2409910472175274e-02  1.1753364142002042e-01  7.4891215651228762e-02  1.2057144714793593e-02  5.0517272447943928e-01  9.3054393754012574e-02  9.0883003332211859e-02  2.5295513077731209e-02  6.6549849225232355e-02  3.3974412397955859e-03  7.9728035232455863e-02  8.5181642564823704e-02  1.6049957477402105e-01  1.2156825367709709e-01  5.8786823215822279e-02  1.0056694638490800e-01  8.1311766989383000e-02  1.7343745325555746e-02  9.5660101208723258e-02  5.4293814354678130e-02  2.4031040605246015e-01  6.7662928262832669e-02  2.5702282296544060e-01  3.5483208352082345e-02  4.1279419052136716e-02  8.3823442072720925e-02  1.3221071573212992e-01  2.5762889018925872e-01  1.7596346195746346e-01  4.9035359673847957e-02  4.3758795262404518e-02  8.2184346816271906e-03  7.3601376982855474e-02  1.3588654721241203e-01  1.2897067187709271e-01  3.1206393921641835e-02  1.4052275836467742e-01  2.6241836667671919e-02  9.2188682376372982e-02  7.9233396345258902e-02  8.7798277638660386e-03  8.6053205727091367e-03  1.3054430568380138e-01  7.8564261116907327e-02  1.0263142381520811e-01  1.2211382170786671e-01  6.1202873081285754e-02  2.2510188433032854e-01  1.0838025118508419e-01  5.5444359070551993e-02  6.1938403340166974e-02  1.1790589692227743e-02  1.4622829094300743e-02  3.2504100711918921e-02  7.2416384642848275e-02  1.0674203898147479e-01  1.0330460200223275e-01  8.0166417077112695e-02  7.5740881605670329e-02  7.2844618573993467e-03  9.7205806822447463e-02  9.6924530272813822e-02  6.7323693025921810e-02  1.0199198886389055e-01  1.9910023299392877e-02  1.2011842276963328e-01  6.9702638422226404e-02  8.9473703862077064e-02  3.4359496296796979e-02  4.9134681856641223e-02  8.2086541881820962e-02  7.7384665366885291e-02  </DataArray> 
</PointData> 
</Piece>
</UnstructuredGrid>
</VTKFile>